! Created with skrf 1.8.0 (http://scikit-rf.org).
# GHz S RI R 50.0 
!freq ReS11 ImS11
0.3 0.8288962194546885 0.4516799431404912
0.3011484375 0.8285677287850012 0.45355069764258116
0.302296875 0.8265562212005729 0.4546797040893749
0.3034453125 0.8278341030144423 0.45647504788042154
0.30459375 0.8288268623377466 0.4573912127637132
0.3057421875 0.8284850369057786 0.45847063569873536
0.306890625 0.8257383731424122 0.4601138408903891
0.3080390625 0.8247963328451595 0.46181763413038923
0.3091875 0.8252734585056745 0.4628192031506702
0.3103359375 0.8217908504592113 0.4654973730268831
0.311484375 0.8198899296279198 0.4667327879781712
0.3126328125 0.8209957971243023 0.46726185409936166
0.31378125 0.8200624999831367 0.46858663678846063
0.3149296875 0.8186596025796682 0.4697100537114123
0.316078125 0.8195246031997292 0.4709603741274298
0.3172265625 0.8184312578461626 0.47215379662379153
0.318375 0.817489170194662 0.4732522971884354
0.3195234375 0.8169318489050881 0.47542627965041534
0.320671875 0.8159668267846477 0.4766155281908541
0.3218203125 0.8164046615463718 0.4776960142183093
0.32296875 0.8161284562843959 0.48132248516144405
0.3241171875 0.8162409263025595 0.48103706594444756
0.325265625 0.8150757907395705 0.4825001303222686
0.3264140625 0.8145951235587992 0.4837994204485729
0.3275625 0.8133581050991576 0.4842171010927892
0.3287109375 0.8127928451993973 0.4872914314850799
0.329859375 0.8126746744383475 0.4882901101833056
0.3310078125 0.8120069879138391 0.4895429777131065
0.33215625 0.8122176579127216 0.4911308540504342
0.3333046875 0.8104378604737292 0.4920093506756831
0.334453125 0.8090612274152443 0.49276582933204593
0.3356015625 0.8097045851853056 0.4959942430461576
0.33675 0.8074043418744155 0.4959061967076583
0.3378984375 0.8071881579069905 0.4981158116510922
0.339046875 0.8073734479849408 0.49917167132657353
0.3401953125 0.8064617646868366 0.500485192756112
0.34134375 0.8054688082019553 0.5014409129039872
0.3424921875 0.8054766270315096 0.5035279056842747
0.343640625 0.8046122310548149 0.5048007122277992
0.3447890625 0.8034174893770141 0.5054946503934912
0.3459375 0.8015210990017275 0.5064172956859734
0.3470859375 0.8023060276290503 0.5092582530848122
0.348234375 0.8014328698018162 0.511011398228957
0.3493828125 0.8007512862568364 0.5130062526876159
0.35053125 0.7980485721359292 0.5133347073300332
0.3516796875 0.7989150618833708 0.5153830066245128
0.352828125 0.7991407760473315 0.5171350330318467
0.3539765625 0.797354025876988 0.5180479568691494
0.355125 0.7966185279252316 0.5183539995474531
0.3562734375 0.7961712615781412 0.5211249715944649
0.357421875 0.7955909832988912 0.5233079854311204
0.3585703125 0.7942887076330712 0.5244949325291582
0.35971875 0.7944547759887413 0.5257370232799196
0.3608671875 0.7933063217244156 0.5278558311524975
0.362015625 0.7941175866357955 0.5278253155936699
0.3631640625 0.7933095581477442 0.5298243943006627
0.3643125 0.7920000427808881 0.5326673040655476
0.3654609375 0.7917928587096074 0.5329368283537073
0.366609375 0.7891071362862295 0.5350670310757784
0.3677578125 0.7885601208350288 0.5370279831006526
0.36890625 0.7872969368634044 0.538660621735567
0.3700546875 0.7868864755781602 0.5397070914682647
0.371203125 0.7857493166510513 0.5415783740491744
0.3723515625 0.7847557421263697 0.542772654365798
0.3735 0.7840549278212932 0.5450194539612072
0.3746484375 0.7833718101469596 0.5473778629823065
0.375796875 0.7819559310915482 0.5473883708558773
0.3769453125 0.7820042980711782 0.5470640714873736
0.37809375 0.78009435863275 0.5488948386371302
0.3792421875 0.7789066179683477 0.5518918354168134
0.380390625 0.7781486733235271 0.5520009402227863
0.3815390625 0.7774632054944731 0.5547552428820806
0.3826875 0.7764715305743126 0.5567798764468337
0.3838359375 0.7754105128262972 0.5582127893844946
0.384984375 0.7741215078972716 0.5598157193377151
0.3861328125 0.7733252252399926 0.5615889199887683
0.38728125 0.7719751340250908 0.5634426835475009
0.3884296875 0.7719310236687643 0.5647190940877642
0.389578125 0.7711909926412921 0.5660514746641176
0.3907265625 0.7693294791685072 0.5671680069741607
0.391875 0.7684435315706548 0.5690061300704321
0.3930234375 0.7682838768677004 0.5710957463316988
0.394171875 0.7664212565319031 0.5713733144592146
0.3953203125 0.765501051600348 0.5734168008197051
0.39646875 0.7639372793122967 0.5751650525488274
0.3976171875 0.7625240750767284 0.5763504350658776
0.398765625 0.762187420221937 0.576770684743758
0.3999140625 0.7619319768173771 0.5773132450588334
0.4010625 0.7617605997172163 0.5790326431531738
0.4022109375 0.7610112793919331 0.5805004596259652
0.403359375 0.7603466558788884 0.5819794558840344
0.4045078125 0.759437026070706 0.5847941734864824
0.40565625 0.7580123503455951 0.5870268363555637
0.4068046875 0.7564400123876371 0.5894201953396674
0.407953125 0.7558503204126977 0.5904646529618731
0.4091015625 0.7549329281598186 0.5919380869365092
0.41025 0.7532077396279084 0.593801370358936
0.4113984375 0.7523503366246163 0.594142335133335
0.412546875 0.7516548789040249 0.5960533182497687
0.4136953125 0.7507445141501206 0.5985483265668511
0.41484375 0.749974153986972 0.6002099047003275
0.4159921875 0.7482687489745018 0.6010049985964623
0.417140625 0.7482170703316445 0.60354886023769
0.4182890625 0.7472511157028469 0.6052508049849248
0.4194375 0.7473777568481659 0.6061429220145076
0.4205859375 0.7447662719417136 0.608506263106064
0.421734375 0.7420675624288056 0.609114039995517
0.4228828125 0.744391527950953 0.6105042194769776
0.42403125 0.7407458918527657 0.612852314064493
0.4251796875 0.740648490737924 0.6144854799697871
0.426328125 0.7402267655933487 0.6147463478113391
0.4274765625 0.7389398363756601 0.616408231786779
0.428625 0.7387912374232162 0.6184923859338853
0.4297734375 0.7362064256912415 0.6206609629355971
0.430921875 0.7359749555782018 0.622070499987148
0.4320703125 0.7324372008092611 0.6232982623918241
0.43321875 0.7343769796232252 0.6247209357818757
0.4343671875 0.7299170785327971 0.6283539779376959
0.435515625 0.7314767034913476 0.6274048464149877
0.4366640625 0.7301368607722518 0.6293537225362329
0.4378125 0.7273486182892663 0.6318655672985143
0.4389609375 0.7274511672870785 0.6333779417199057
0.440109375 0.7250061519311171 0.6324466272596072
0.4412578125 0.7252874821134679 0.6359888763011766
0.44240625 0.724665464701618 0.6391568783237579
0.4435546875 0.721187098771538 0.6406686798183394
0.444703125 0.7251385545217595 0.639956569596478
0.4458515625 0.7205141227369102 0.6411965129798274
0.447 0.7217954702162122 0.6417489377556909
0.4481484375 0.7185540296277726 0.6476505386433566
0.449296875 0.7182020104347865 0.6452368827966581
0.4504453125 0.7175025741168682 0.6480224298864337
0.45159375 0.7158885281695497 0.648754731840649
0.4527421875 0.7155871601006341 0.6504891374452999
0.453890625 0.71431782623094 0.6492232573421226
0.4550390625 0.7144568390943247 0.6526755993514426
0.4561875 0.7124028947394778 0.6542423239943154
0.4573359375 0.7127401302780552 0.6564690734149914
0.458484375 0.7108375405051314 0.6576227042453582
0.4596328125 0.7105748427277496 0.6608773559183647
0.46078125 0.7089945426010598 0.6603494547666827
0.4619296875 0.7073120946213598 0.6617810473688166
0.463078125 0.707071351306917 0.6617049949531444
0.4642265625 0.7060682888551708 0.6645892527345716
0.465375 0.7047148141390784 0.6659764463169362
0.4665234375 0.7035326823498962 0.6666024055334183
0.467671875 0.701842489362379 0.6681019293054501
0.4688203125 0.7008837027947984 0.6692762111770354
0.46996875 0.7003902798974159 0.6711661143003145
0.4711171875 0.6981947379197512 0.6729828789369597
0.472265625 0.697900965849193 0.6741778705035328
0.4734140625 0.6968308897688928 0.675459472377002
0.4745625 0.6950995014010326 0.676435914825509
0.4757109375 0.693605035601119 0.6777415335373376
0.476859375 0.6926989696224702 0.6787695643822753
0.4780078125 0.6911600962400026 0.6802059414309793
0.47915625 0.6905627475409739 0.681279675730863
0.4803046875 0.6903357651340416 0.6826873246176389
0.481453125 0.6897344395662717 0.6839902513949175
0.4826015625 0.6891099945892185 0.6852762671753644
0.48375 0.6879200922627206 0.6873425669627186
0.4848984375 0.6874518508652967 0.6882046245257276
0.486046875 0.6862712668159315 0.6898701472651901
0.4871953125 0.6848998683740257 0.6912026848746747
0.48834375 0.6843129251916731 0.6936136682723866
0.4894921875 0.6832609619417156 0.695994269147454
0.490640625 0.6813280702734066 0.6970307772282173
0.4917890625 0.6801380563437089 0.6980931651724155
0.4929375 0.6791016212633264 0.6989701654991171
0.4940859375 0.6779922078291096 0.7007746483580761
0.495234375 0.6779979105693748 0.70226939788413
0.4963828125 0.6759168945036702 0.7033124025555618
0.49753125 0.6739404676854462 0.7050626893550219
0.4986796875 0.673844239585496 0.7063864108056245
0.499828125 0.671877981394309 0.7080756778422311
0.5009765625 0.6717793370914666 0.709568071288796
0.502125 0.6701223611322924 0.7098981892215637
0.5032734375 0.66881036352741 0.7116649065632686
0.504421875 0.6682555914440802 0.7127003528626062
0.5055703125 0.6668561390776595 0.7139421315607981
0.50671875 0.6653984508482144 0.7151550975855758
0.5078671875 0.664284486200567 0.7161167974388749
0.509015625 0.6636325047027488 0.7180137728061344
0.5101640625 0.6617591021552909 0.719654067887902
0.5113125 0.6609353876957356 0.7204225792034943
0.5124609375 0.6587197525877642 0.7219254535157467
0.513609375 0.6574709006282926 0.7226315121219866
0.5147578125 0.6566780814192046 0.7237859093731834
0.51590625 0.6551925486401198 0.724566849679332
0.5170546875 0.6539050978655329 0.7264206054014136
0.518203125 0.6534153054351897 0.7271401626108257
0.5193515625 0.6524879279946618 0.7286312177539198
0.5205 0.6496667186067593 0.7304975929925023
0.5216484375 0.6495466940785853 0.7308922433298065
0.522796875 0.6486071763913932 0.7318960224757618
0.5239453125 0.6474077258697297 0.7335814018469365
0.52509375 0.6464515086730248 0.7348440212989561
0.5262421875 0.6448352466937907 0.7358846945859833
0.527390625 0.6436157390991303 0.737014840557155
0.5285390625 0.642304064914675 0.7384059838806896
0.5296875 0.641255872280824 0.7390875783243489
0.5308359375 0.6396750185241357 0.7406789941759213
0.531984375 0.6388381996897763 0.7417055076185524
0.5331328125 0.6379764381004324 0.7423497770572989
0.53428125 0.6363042919300037 0.7430789982570217
0.5354296875 0.6348159900270538 0.744214951289248
0.536578125 0.6339975685221989 0.7464050026012126
0.5377265625 0.6327857910950483 0.7467113986678642
0.538875 0.631602622331257 0.7476118487750901
0.5400234375 0.6306986450847506 0.7489435510700604
0.541171875 0.629109800520238 0.749959982203517
0.5423203125 0.6276307900392226 0.751570089671905
0.54346875 0.6267155303067511 0.7518591127642497
0.5446171875 0.6258681373273423 0.7537800863629247
0.545765625 0.6250210146573559 0.7553627327692581
0.5469140625 0.6237651471293664 0.7572960332234762
0.5480625 0.6223363305877472 0.7575823419507424
0.5492109375 0.6210765057338834 0.7592504797934939
0.550359375 0.6201010968446425 0.7606347738758814
0.5515078125 0.6191452820462292 0.7615938304406596
0.55265625 0.6184583006528203 0.7620265601558678
0.5538046875 0.6165551972400194 0.7630890092414782
0.554953125 0.6148614540663305 0.7651465480426805
0.5561015625 0.6134560542663139 0.7656541712632147
0.55725 0.6123332814777993 0.7670929787261668
0.5583984375 0.6106204191136015 0.7672867261439171
0.559546875 0.6094944224961049 0.76954724842257
0.5606953125 0.6075880690604953 0.7715984303931104
0.56184375 0.606174884186793 0.7725886023760945
0.5629921875 0.6065351825684702 0.7733316035936071
0.564140625 0.6056314038333283 0.7749171983496125
0.5652890625 0.6031759998493991 0.7765424964650657
0.5664375 0.6030664958004579 0.7766796838308294
0.5675859375 0.6021623920980927 0.7792940438011942
0.568734375 0.6001954186109633 0.7796713599490375
0.5698828125 0.5984276452187799 0.7824902992765348
0.57103125 0.5980053260722762 0.783047916515377
0.5721796875 0.5975931429335876 0.7840050203429807
0.573328125 0.5961786003282663 0.7857456299968798
0.5744765625 0.5950620863918172 0.7850785666453691
0.575625 0.5943112280329227 0.7887897899014141
0.5767734375 0.5920506984794063 0.7897183227980328
0.577921875 0.5912947708589271 0.7907672068114804
0.5790703125 0.5895378294477236 0.7898763913207687
0.58021875 0.5870990772799421 0.7925484487442791
0.5813671875 0.5861465374725582 0.795256976059731
0.582515625 0.5842971105689981 0.7950698831063848
0.5836640625 0.5823481318731425 0.796297590179772
0.5848125 0.5802835491919562 0.7985576769796778
0.5859609375 0.5785423702493421 0.7993718028161756
0.587109375 0.5768020536370005 0.8012102809336572
0.5882578125 0.5756006940621279 0.8017407165830356
0.58940625 0.5741396392974478 0.8026911557936744
0.5905546875 0.573320910279771 0.8037929554527641
0.591703125 0.5715986532207036 0.8050095235598527
0.5928515625 0.5699878359567253 0.8064214887604907
0.594 0.5680441674290888 0.807771480952141
0.5951484375 0.5669354683374865 0.8089656761391399
0.596296875 0.5647803110666354 0.8095247020729903
0.5974453125 0.5630510049522122 0.8101796979871143
0.59859375 0.5618132164669836 0.8109829110677439
0.5997421875 0.560269849265927 0.810997330473839
0.600890625 0.5598518084560375 0.8113885010233183
0.6020390625 0.5588754823074276 0.8121995559773395
0.6031875 0.5580557639127285 0.8142713457917174
0.6043359375 0.5570283038309941 0.8158632455860053
0.605484375 0.5557216225464526 0.8172116623585914
0.6066328125 0.553920628962321 0.8182665288449942
0.60778125 0.5517069474280263 0.8201217178078455
0.6089296875 0.5510076824266006 0.8228865585960259
0.610078125 0.5490948827424638 0.8235965901603806
0.6112265625 0.5476431518499201 0.824451004271828
0.612375 0.5459659349620397 0.825704642598412
0.6135234375 0.5451052291359524 0.8265786577396963
0.614671875 0.5419355709927304 0.8266134783384399
0.6158203125 0.5404479413243404 0.828789259038498
0.61696875 0.5393012149543348 0.829748836717044
0.6181171875 0.5380594385272293 0.8313925438791147
0.619265625 0.5380505087371741 0.8319784722140421
0.6204140625 0.5368394327585821 0.8331227137575854
0.6215625 0.5347809915643602 0.8335739804586384
0.6227109375 0.5353679917410763 0.8358401688161365
0.623859375 0.5323324784747261 0.8353202565115637
0.6250078125 0.531554982212415 0.8365303556213979
0.62615625 0.5291444234529881 0.8375097810415018
0.6273046875 0.5278291466664443 0.8385831963900803
0.628453125 0.52625665846014 0.8405974984201265
0.6296015625 0.5248613264290727 0.8413253275155705
0.63075 0.5230136970764189 0.8408385037932229
0.6318984375 0.5220322983844281 0.8420539702893879
0.633046875 0.519898958083619 0.8430163195935354
0.6341953125 0.5190737645293807 0.844162590284665
0.63534375 0.5161064066888967 0.8470044304913174
0.6364921875 0.5172022620764833 0.8481362252011285
0.637640625 0.5156105000010535 0.8495285910820947
0.6387890625 0.5124647982383863 0.8505980329081219
0.6399375 0.5130315783491619 0.8524090103217739
0.6410859375 0.5109541415324788 0.8531804084995209
0.642234375 0.5080921488367806 0.852803553870235
0.6433828125 0.5090329398056189 0.8550871338841768
0.64453125 0.5082344835831931 0.8560092615630712
0.6456796875 0.5056867528814155 0.8576299920626506
0.646828125 0.5041411641376845 0.8592258758312288
0.6479765625 0.502044123731322 0.8597668062043802
0.649125 0.4992116402671022 0.8609368407778959
0.6502734375 0.4997714257379236 0.8603414980047448
0.651421875 0.49744156106593207 0.8632698808317991
0.6525703125 0.49553118884426683 0.8638399765752529
0.65371875 0.4949799713209388 0.8655707184955002
0.6548671875 0.4930656377146082 0.8678955243734613
0.656015625 0.49140027033691247 0.8675986156638725
0.6571640625 0.4906374827798848 0.8691294906143294
0.6583125 0.48802654494476355 0.8696001043380973
0.6594609375 0.4867154590282351 0.8712538841710523
0.660609375 0.483991810457179 0.8719863649397488
0.6617578125 0.48329331489950156 0.8728485731636131
0.66290625 0.48149297919866135 0.8740364306851404
0.6640546875 0.4808341648697725 0.8753543504841585
0.665203125 0.47895781867568654 0.8751298711229609
0.6663515625 0.4771708448710169 0.8753280374234848
0.6675 0.4765342980703804 0.8766601374220544
0.6686484375 0.4731150256030232 0.8776130950697378
0.669796875 0.47201199178599007 0.879009485160549
0.6709453125 0.4694651847413951 0.8799318577184961
0.67209375 0.4680291269654271 0.8806690320309751
0.6732421875 0.4664232491267392 0.8809860165898541
0.674390625 0.46572780602900077 0.8819343279253368
0.6755390625 0.4634544707343845 0.8829381848098219
0.6766875 0.4620389109539932 0.8836432988229862
0.6778359375 0.46114934288267584 0.8846210979796769
0.678984375 0.45964207475178404 0.886098646743543
0.6801328125 0.45836542363859833 0.8862593114435886
0.68128125 0.4566212828400864 0.8870941442003858
0.6824296875 0.4551288081737668 0.8875727020192379
0.683578125 0.4541741912001039 0.8886002618104163
0.6847265625 0.452576994237041 0.8892303468576119
0.685875 0.4514887900988817 0.8910480479068899
0.6870234375 0.44990556723378766 0.8916375460921668
0.688171875 0.44846061694863093 0.8923450331500882
0.6893203125 0.44605853206361273 0.8929676912372887
0.69046875 0.4461704285528241 0.8947542557595434
0.6916171875 0.44293072761648056 0.8952799738123436
0.692765625 0.4421093274613771 0.8955375030972978
0.6939140625 0.44062271364051825 0.8964062820020491
0.6950625 0.4389469224344771 0.8971472192068408
0.6962109375 0.4380576950848618 0.8975450986435634
0.697359375 0.4378381777376213 0.8979035844402827
0.6985078125 0.43548255685171805 0.8992646110591445
0.69965625 0.43368922709305036 0.8995751440339981
0.7008046875 0.43274647074108247 0.9002747271991273
0.701953125 0.43042387427410034 0.9007947806981074
0.7031015625 0.4295012918849416 0.9015593412225367
0.70425 0.42857120230019513 0.9025422403130455
0.7053984375 0.4268179398589576 0.9040232391556393
0.706546875 0.42569483108071293 0.9049883869613446
0.7076953125 0.4258893853281035 0.9056826723803741
0.70884375 0.424409280961694 0.9069111112535408
0.7099921875 0.42329894358107084 0.9078099805780278
0.711140625 0.42045238006608143 0.9095592659852473
0.7122890625 0.4197846663321133 0.9100631222184012
0.7134375 0.41856166337588174 0.9110710535695565
0.7145859375 0.41707429283679 0.9129081087038708
0.715734375 0.41570677258925604 0.9138831507263704
0.7168828125 0.413750990362586 0.9140955374286941
0.71803125 0.4114534397281131 0.9151825261313382
0.7191796875 0.4090397559436848 0.9160011181487556
0.720328125 0.40796363915227396 0.9164102205503264
0.7214765625 0.40619422591947785 0.9166001353439175
0.722625 0.40495605873146534 0.9182757837129021
0.7237734375 0.40346310741362024 0.9190364868924101
0.724921875 0.4018581975811123 0.9199442189671301
0.7260703125 0.40035760486819694 0.9209910785795608
0.72721875 0.3988058538460937 0.9223605347672821
0.7283671875 0.39702833830474177 0.9223977763579376
0.729515625 0.3948191886082879 0.9241508155946812
0.7306640625 0.3931713004743327 0.9252023632870648
0.7318125 0.3908536048345424 0.9248176322202493
0.7329609375 0.389534689155464 0.9252376370195049
0.734109375 0.3880531876409231 0.9265229216867297
0.7352578125 0.38718985243112314 0.9275623297648934
0.73640625 0.3847312008129534 0.9284011463980387
0.7375546875 0.3826285259892596 0.9289905360538743
0.738703125 0.380957880331691 0.930417512701783
0.7398515625 0.3796243004729223 0.9313360167684657
0.741 0.37798809695162416 0.9315598242855982
0.7421484375 0.37481267171615623 0.9315069658120214
0.743296875 0.3736904904296018 0.9325764786347481
0.7444453125 0.3722642600737871 0.9341246322163885
0.74559375 0.3703770109335712 0.9348585180764077
0.7467421875 0.36997039347290295 0.9346236620408468
0.747890625 0.36703407388828546 0.936640219786032
0.7490390625 0.36480598905953066 0.9375104870769307
0.7501875 0.36317697714126673 0.9371661213453645
0.7513359375 0.36045730158003186 0.9378985105631841
0.752484375 0.3589411738191573 0.9379563811729978
0.7536328125 0.3571477009232652 0.9400199034704848
0.75478125 0.3546570357882534 0.9412464355157616
0.7559296875 0.35295526113726516 0.9403561431259286
0.757078125 0.3513293788160689 0.9409234866978589
0.7582265625 0.35073731318414025 0.941324955553642
0.759375 0.348503587563913 0.9414592905098811
0.7605234375 0.34616058616882045 0.9416285267240643
0.761671875 0.3455374956565326 0.9414158866360911
0.7628203125 0.3430648345965309 0.9442031364906879
0.76396875 0.34238601014011016 0.9437835182544322
0.7651171875 0.34016250726388364 0.9438271561033696
0.766265625 0.3395644687012206 0.9437320550984339
0.7674140625 0.3382301755836713 0.9465939536165782
0.7685625 0.335279806640862 0.9467113128210201
0.7697109375 0.33395113432427265 0.9461944549040462
0.770859375 0.3316206089675929 0.9457727751010305
0.7720078125 0.3298194023186584 0.9482620224222009
0.77315625 0.3297331626631207 0.9488089667028339
0.7743046875 0.3277086137022121 0.9490032447772465
0.775453125 0.327049354601461 0.9501339040642671
0.7766015625 0.3243548791614312 0.9502959571030016
0.77775 0.3246232773439562 0.9513046526074671
0.7788984375 0.32321730386472103 0.9512674833173009
0.780046875 0.32217692693021216 0.9525215877965877
0.7811953125 0.3195335057413474 0.9528604630088674
0.78234375 0.3194334226337993 0.9539147006192452
0.7834921875 0.31666763366494943 0.9542374139398866
0.784640625 0.31437196102331944 0.9546658644148177
0.7857890625 0.31220440511727393 0.9560815678575201
0.7869375 0.31031128720907075 0.9561967014859851
0.7880859375 0.30826847051579936 0.9572925856316321
0.789234375 0.30740119512331743 0.9577362821648767
0.7903828125 0.3066274235222223 0.9583067339948801
0.79153125 0.3042839680228134 0.9592926375177451
0.7926796875 0.30141333928097325 0.9599574796435717
0.793828125 0.3003514704194627 0.9604613911475748
0.7949765625 0.2983323961974564 0.9613116238882378
0.796125 0.2966826329933484 0.9624040424343261
0.7972734375 0.2950559302830279 0.962910490549763
0.798421875 0.2934644744876547 0.9626780767341456
0.7995703125 0.29204063463097285 0.9630340816959744
0.80071875 0.29064594640899366 0.9636928700876759
0.8018671875 0.2902871432194785 0.9638644277002156
0.803015625 0.28885025284485855 0.9654524573040861
0.8041640625 0.2867787830543339 0.9661630876301357
0.8053125 0.28459301947796634 0.9668582213967618
0.8064609375 0.2831816636761155 0.9683606768777158
0.807609375 0.28075274033829045 0.9689367696186238
0.8087578125 0.27980392894518413 0.9705803605349892
0.80990625 0.27799385084194356 0.9713442787283236
0.8110546875 0.2754545873085914 0.9726790052556742
0.812203125 0.27226842258020395 0.974157890963339
0.8133515625 0.2700531295633444 0.9746741033297974
0.8145 0.26807225791378403 0.9744722839353042
0.8156484375 0.26594130448045894 0.9759942003552757
0.816796875 0.26372466264574834 0.9754144562633404
0.8179453125 0.2620567669090375 0.976518456798427
0.81909375 0.2598810088529917 0.9771811603992726
0.8202421875 0.2587391463060652 0.977146300614739
0.821390625 0.2561755344259496 0.9779538961552945
0.8225390625 0.2548936843922612 0.9787051592241833
0.8236875 0.2526927518670703 0.9791472452945442
0.8248359375 0.2505949857983644 0.9787811373457349
0.825984375 0.2490987822172085 0.9797228831195326
0.8271328125 0.24754823310123658 0.9793830521010045
0.82828125 0.24455812435831087 0.9801495231832744
0.8294296875 0.24384780745323925 0.9812753979331488
0.830578125 0.24253883023673084 0.9796120923689948
0.8317265625 0.24018523978947276 0.9807453721257149
0.832875 0.23958068090289175 0.9810125594634025
0.8340234375 0.23710005114039395 0.9806064137763578
0.835171875 0.23492522459674245 0.9807532970819098
0.8363203125 0.2344103490505957 0.9825470852648335
0.83746875 0.2329408878797333 0.982796036225857
0.8386171875 0.23140256169761034 0.9814394657266496
0.839765625 0.23006676858793249 0.9821638443288749
0.8409140625 0.22816045250335257 0.9835785824037245
0.8420625 0.22547144481941248 0.9846471304464892
0.8432109375 0.2249544612450658 0.9841366106188024
0.844359375 0.22411085201371275 0.9852411026897189
0.8455078125 0.22233570642027128 0.9848544068836595
0.84665625 0.2195986936459725 0.985452605287068
0.8478046875 0.21785052068254251 0.9857174909745586
0.848953125 0.21666494810245812 0.98606129742743
0.8501015625 0.21457137574093138 0.98486886562697
0.85125 0.2125831427062126 0.9846422553372979
0.8523984375 0.21172014507528128 0.9862588475954055
0.853546875 0.20930570313056363 0.9870050882192755
0.8546953125 0.20943576010838133 0.9879658558321012
0.85584375 0.20815207854934986 0.9889891017521639
0.8569921875 0.2060631433576761 0.989342450040765
0.858140625 0.20498729138100974 0.9902380821808003
0.8592890625 0.2034208029631713 0.989561435945815
0.8604375 0.2009665475001286 0.9900487085703059
0.8615859375 0.19908826013233757 0.9903750285244467
0.862734375 0.19800921558828577 0.9907626640313392
0.8638828125 0.19630259795329225 0.9917161601819935
0.86503125 0.19440854166942695 0.9925836683370175
0.8661796875 0.1924807216038968 0.9930101498844043
0.867328125 0.19197048938645644 0.9920616592603695
0.8684765625 0.19119326622261898 0.9930377927381061
0.869625 0.18975845582373332 0.9939333744359465
0.8707734375 0.18710049585537128 0.9948190333735654
0.871921875 0.18488478033529282 0.9948585079515402
0.8730703125 0.1837630886093946 0.9959002889288007
0.87421875 0.1811614412841574 0.9959787405303884
0.8753671875 0.18009801636005401 0.9961302944376459
0.876515625 0.17751337759751035 0.9971843997682035
0.8776640625 0.175309800553763 0.9980150354408366
0.8788125 0.17332617817397145 0.9997034754053858
0.8799609375 0.17196286933242527 0.9995889216238822
0.881109375 0.17004537401166464 0.9997259054212377
0.8822578125 0.16874711175429563 1.0014260216598678
0.88340625 0.1670499042845028 1.0012131448079409
0.8845546875 0.1643420111745674 1.0011194959807805
0.885703125 0.16317304733634336 1.0020320553415727
0.8868515625 0.1610701041250193 1.0015162468167027
0.888 0.158726625641042 1.0036364598701903
0.8891484375 0.1570583517361714 1.0039756596739877
0.890296875 0.15505774127967914 1.0034971915512445
0.8914453125 0.152715771505866 1.004243070906525
0.89259375 0.150043672747019 1.0037615706433458
0.8937421875 0.1487261544562341 1.0039165908445942
0.894890625 0.14643854843466658 1.0047272987541285
0.8960390625 0.144949944739822 1.0051653036433204
0.8971875 0.1424572597987183 1.0042878967770243
0.8983359375 0.14119583835411598 1.0047952110195033
0.899484375 0.13857460929677515 1.0051628751514325
0.9006328125 0.13666528129173222 1.004423310656789
0.90178125 0.1355632562289088 1.0047210794344876
0.9029296875 0.13396267916158092 1.0052721504870137
0.904078125 0.13140068055039184 1.0045597172333482
0.9052265625 0.1307102227019896 1.0032759021617559
0.906375 0.12795318420468438 1.0045140828636854
0.9075234375 0.12592274963420863 1.003351064411895
0.908671875 0.12482530805527797 1.0038629237336796
0.9098203125 0.12227470822782621 1.003823525783109
0.91096875 0.12133242742061609 1.004580976376648
0.9121171875 0.1184365609398833 1.0047483732990992
0.913265625 0.11674680304463447 1.004569336141956
0.9144140625 0.11607868022955037 1.0046736141541281
0.9155625 0.11403207503600554 1.0053510496693536
0.9167109375 0.1124422136866749 1.00531831707624
0.917859375 0.1104012925114044 1.0057467996757168
0.9190078125 0.10930403843986719 1.0065186304204585
0.92015625 0.10741222042359155 1.0063301076231825
0.9213046875 0.1053143948984499 1.0069981378182162
0.922453125 0.10418717861455451 1.0064582556639083
0.9236015625 0.10154430647640333 1.0063144374662718
0.92475 0.09984220522682363 1.0062155619103068
0.9258984375 0.09835891547611197 1.0063001887002476
0.927046875 0.09750170474769032 1.0060507612766036
0.9281953125 0.09588516341343167 1.0057702976268827
0.92934375 0.09384247203862034 1.0060468611547944
0.9304921875 0.0915275477234131 1.0057575219829102
0.931640625 0.09062790435356843 1.0056503849341243
0.9327890625 0.08917232703963762 1.005735544354267
0.9339375 0.08725090810255581 1.0058932380536347
0.9350859375 0.0856374510591329 1.0061752384633567
0.936234375 0.08363034363084482 1.0062401568840669
0.9373828125 0.08215413867894139 1.0061890993282852
0.93853125 0.08173417350788786 1.0067477838197318
0.9396796875 0.07960083154289938 1.0071208688803979
0.940828125 0.07787895206618084 1.0073936668787635
0.9419765625 0.07610380930887811 1.0078343748580687
0.943125 0.07383628473404125 1.0080057811189047
0.9442734375 0.07196358237626688 1.0085092595722083
0.945421875 0.07065286500539875 1.0084558195351825
0.9465703125 0.07045972797957262 1.0091042902611083
0.94771875 0.06701662864003197 1.0100669426155608
0.9488671875 0.06686823972870382 1.0102383631155356
0.950015625 0.06455500830730565 1.0099275851453264
0.9511640625 0.062143712593657835 1.010258817073241
0.9523125 0.059762350291045124 1.0118290479799086
0.9534609375 0.05856957520367817 1.0117012882596828
0.954609375 0.0558790086245366 1.0121720471026803
0.9557578125 0.05379213867138988 1.0128401048041737
0.95690625 0.05206607448443709 1.0131790297772345
0.9580546875 0.050695720873146166 1.0130789634108177
0.959203125 0.048689146555376844 1.0124245630425261
0.9603515625 0.04627514980759845 1.0124159702295268
0.9615 0.045324354118413096 1.0122323808216303
0.9626484375 0.04295886331757359 1.0124363671096341
0.963796875 0.040936456061820004 1.0141937207890435
0.9649453125 0.03719577637246835 1.0143914912655538
0.96609375 0.03628581681232296 1.0153608322085281
0.9672421875 0.03595918900058606 1.0139991904056713
0.968390625 0.03411753472377155 1.0139482638622437
0.9695390625 0.031696983843170906 1.013340803597365
0.9706875 0.028629876618006797 1.0147594919159348
0.9718359375 0.026444331392203757 1.0142849732745947
0.972984375 0.02484736673515041 1.0151183939239241
0.9741328125 0.02304933246000146 1.0127752115002784
0.97528125 0.021480422177192177 1.0142609604471209
0.9764296875 0.020536825843420425 1.014752353652045
0.977578125 0.01763795137919144 1.0148500985927296
0.9787265625 0.016047284171492746 1.014333758007492
0.979875 0.01335296565598637 1.0141627634445944
0.9810234375 0.011998103818177092 1.0137436849369228
0.982171875 0.010618134247872002 1.0148758654776127
0.9833203125 0.008481412596830676 1.013795211730687
0.98446875 0.007354941816038366 1.013809710914976
0.9856171875 0.004510916865519805 1.0151403658781728
0.986765625 0.002104216467871487 1.0136622993088082
0.9879140625 0.0008565566730773869 1.0145346152343242
0.9890625 -0.0008004328884411993 1.0149633857500795
0.9902109375 -0.0020658419175740433 1.01395976405376
0.991359375 -0.005246234272388212 1.013525910407434
0.9925078125 -0.006646812035046662 1.0130930968553953
0.99365625 -0.008823581936276484 1.0123972242492367
0.9948046875 -0.010204926030424444 1.0126334011883904
0.995953125 -0.011948626863500914 1.0132117977786463
0.9971015625 -0.01411997782264178 1.0129988344653913
0.99825 -0.015425310854803372 1.0127975259767752
0.9993984375 -0.017661156284573862 1.0123588815576714
1.000546875 -0.01942780541217659 1.0120264688984641
1.0016953125 -0.021136236403246245 1.0118712346718186
1.00284375 -0.023132682427655996 1.011400419130263
1.0039921875 -0.02479597296637452 1.0113592760827839
1.005140625 -0.02594623684515697 1.0112377016540366
1.0062890625 -0.026994247681853392 1.0107432912745846
1.0074375 -0.029871416712032334 1.0115276134076783
1.0085859375 -0.03101467633070304 1.0108046364240875
1.009734375 -0.033048083495477415 1.011425977421729
1.0108828125 -0.03423287084618437 1.0106100250079617
1.01203125 -0.03659836975810801 1.0107098699737735
1.0131796875 -0.03865839259610118 1.0113563959561351
1.014328125 -0.03989023383843848 1.0105736118210973
1.0154765625 -0.04108112479314582 1.0106952108339844
1.016625 -0.043120067594785205 1.0111213236444145
1.0177734375 -0.04481116019531216 1.011476932692574
1.018921875 -0.04663564231782527 1.0126218130598779
1.0200703125 -0.04826203819831623 1.0119309596388126
1.02121875 -0.05107800570826468 1.0117411655694257
1.0223671875 -0.05199325909292507 1.012579995016423
1.023515625 -0.05396640391608301 1.012408506305337
1.0246640625 -0.05545830134375286 1.0125202426018558
1.0258125 -0.05766835255303693 1.0129975182893225
1.0269609375 -0.05985025844858484 1.013033950615551
1.028109375 -0.06137264963743133 1.0126030941649193
1.0292578125 -0.06310062020540413 1.0129141952345044
1.03040625 -0.06515866828745175 1.0127345022050704
1.0315546875 -0.06539974417057987 1.0120594763844308
1.032703125 -0.0688559176570476 1.0118343562757701
1.0338515625 -0.07094849902839515 1.0113733275502763
1.035 -0.07234991966927751 1.0113347684055478
1.0361484375 -0.0742938191388555 1.012273836870562
1.037296875 -0.07661945662671901 1.0114516467036418
1.0384453125 -0.07742315963779291 1.0115295780569324
1.03959375 -0.07952190022132556 1.0111410033147792
1.0407421875 -0.08153395364019717 1.0117833115518615
1.041890625 -0.08339233044666772 1.0111550225725454
1.0430390625 -0.08629212544377056 1.0097562166542249
1.0441875 -0.08657799555529119 1.0101297737636057
1.0453359375 -0.08911981325385941 1.0100080603030284
1.046484375 -0.09012306609074809 1.0091893420205917
1.0476328125 -0.0916486225201368 1.0098700358186066
1.04878125 -0.09398688374621274 1.009507503167594
1.0499296875 -0.09525785309700473 1.0098030938918363
1.051078125 -0.09694226799549163 1.0089985718013628
1.0522265625 -0.09802041968842148 1.009489349897905
1.053375 -0.0994891839074462 1.0089969898112199
1.0545234375 -0.10319335281526007 1.0085399637403685
1.055671875 -0.10378367496741726 1.009061772840937
1.0568203125 -0.10632271879592874 1.0078755321199153
1.05796875 -0.10757126020768591 1.007983605763577
1.0591171875 -0.10946920664731087 1.0073782274080991
1.060265625 -0.11154320639585524 1.006603832912567
1.0614140625 -0.11376000014089108 1.0072885677534262
1.0625625 -0.11529225611755733 1.007185325869785
1.0637109375 -0.1169014429258323 1.005976100698779
1.064859375 -0.11821867140486494 1.0061100295930392
1.0660078125 -0.12080191800647729 1.005714336481678
1.06715625 -0.12239638343108633 1.0055888988178612
1.0683046875 -0.12350726824363123 1.005563753038895
1.069453125 -0.12504685883153271 1.0045048040004152
1.0706015625 -0.12712963573797764 1.0036386418347139
1.07175 -0.12908001532938815 1.0034311833173288
1.0728984375 -0.1305053442359349 1.003025073857962
1.074046875 -0.13226841834685737 1.0030657771956017
1.0751953125 -0.133345505438436 1.003626307168325
1.07634375 -0.13539500339553376 1.002804532150194
1.0774921875 -0.13741845524844426 1.002443449721179
1.078640625 -0.1395654535381009 1.0021583136374026
1.0797890625 -0.14059733929217838 1.0015498430449852
1.0809375 -0.1429911319516639 1.0009820701092176
1.0820859375 -0.14400824415467484 1.0009352102954683
1.083234375 -0.14579973782266825 1.0015512271140932
1.0843828125 -0.14732763039556043 1.0009633240134803
1.08553125 -0.14921420552863077 1.000575058071287
1.0866796875 -0.15069945677278773 1.0011895974258607
1.087828125 -0.153317126639431 1.0001820263573744
1.0889765625 -0.1540522661192814 1.0003776868176313
1.090125 -0.15562422661256922 0.9989298254294338
1.0912734375 -0.1572910290188208 1.0003115573378774
1.092421875 -0.15936240065783508 0.999404960717769
1.0935703125 -0.1606385570185341 1.0001151966631938
1.09471875 -0.1629303112504719 0.9993484005906084
1.0958671875 -0.16482225810336204 0.9999554538634267
1.097015625 -0.16611777445627063 0.9990857899536105
1.0981640625 -0.168268839488082 0.9978028512480651
1.0993125 -0.17051742248484325 0.9993248696165914
1.1004609375 -0.17146335194290277 0.9983158635669875
1.101609375 -0.17309205780579845 0.9970997375669494
1.1027578125 -0.17468169624152036 0.9970330685764511
1.10390625 -0.17680084206324587 0.9964738694604982
1.1050546875 -0.17779264352108418 0.9966497388604423
1.106203125 -0.17960989987068718 0.995370751612825
1.1073515625 -0.1820610677347982 0.9948334550912739
1.1085 -0.18323738418058438 0.9954892253050496
1.1096484375 -0.18483471876572932 0.9947491043291016
1.110796875 -0.1867859465965399 0.9940838073110013
1.1119453125 -0.18855321256966712 0.9946669353491164
1.11309375 -0.1902735859826742 0.9954186825403628
1.1142421875 -0.19249896620369178 0.9947207755328877
1.115390625 -0.19452046333119644 0.9934961282770064
1.1165390625 -0.19632739978504982 0.9941375844831808
1.1176875 -0.19795981462718135 0.9934225801738614
1.1188359375 -0.19926211096871715 0.9926504110572171
1.119984375 -0.20254137061971794 0.9920527498853782
1.1211328125 -0.20344003663657542 0.9926289053636987
1.12228125 -0.20568114949469257 0.9923527579696291
1.1234296875 -0.20675688759277058 0.9916557661280405
1.124578125 -0.20767699452230548 0.991633657775134
1.1257265625 -0.2104736133919622 0.9904718008918384
1.126875 -0.2126776945105747 0.9909705922479997
1.1280234375 -0.21491135324094526 0.9893861655069076
1.129171875 -0.2169117263065035 0.9892389134241991
1.1303203125 -0.2182189964712627 0.9882023854886421
1.13146875 -0.22067896545207114 0.9880343139687324
1.1326171875 -0.22223236556408343 0.9872022903578278
1.133765625 -0.22402294817238028 0.9866733921741886
1.1349140625 -0.22579184427909904 0.9860923902036163
1.1360625 -0.22721920839333692 0.9856351149775602
1.1372109375 -0.2286825245027757 0.9848995840447384
1.138359375 -0.23068106580213094 0.9841902160843714
1.1395078125 -0.2321924127436604 0.9840156230845759
1.14065625 -0.23441168214733787 0.9840351958856495
1.1418046875 -0.23609871495723364 0.9837950323345106
1.142953125 -0.23767595434556874 0.9832292706357624
1.1441015625 -0.23922232507815422 0.9820632717616877
1.14525 -0.2407740984652586 0.9823001679647838
1.1463984375 -0.24257636706961438 0.9818245728218961
1.147546875 -0.24525316607784803 0.9821325862219195
1.1486953125 -0.24625908834674376 0.9818383200559748
1.14984375 -0.24988567529887945 0.9812629168219817
1.1509921875 -0.25060397880818236 0.9809768305406974
1.152140625 -0.2524742440376055 0.9803296368989198
1.1532890625 -0.25349867640333745 0.9798574441010681
1.1544375 -0.25523230573303135 0.9799010790110975
1.1555859375 -0.25784004269358 0.9789195761523161
1.156734375 -0.25955284865222217 0.9794879230679014
1.1578828125 -0.26126392623025624 0.9786207740033832
1.15903125 -0.2640122472203792 0.9783250137444481
1.1601796875 -0.2654417672428566 0.9779852230412678
1.161328125 -0.2674539013958003 0.9773040709070335
1.1624765625 -0.2683133122820759 0.9772223623689403
1.163625 -0.2705652393989726 0.9762006205051827
1.1647734375 -0.2718180506086265 0.974111549394354
1.165921875 -0.273501177275711 0.974267324962342
1.1670703125 -0.2755309088247866 0.973178762895243
1.16821875 -0.2785261489816871 0.9724620972314771
1.1693671875 -0.27999226086646 0.9719181398251062
1.170515625 -0.2831077738530267 0.9721585469303478
1.1716640625 -0.2829306598518265 0.9714420658445277
1.1728125 -0.2842066686576045 0.9721468222414955
1.1739609375 -0.28683537846336316 0.9693021258985943
1.175109375 -0.28798578925523316 0.9684994493218471
1.1762578125 -0.2897319068605927 0.9683930373179201
1.17740625 -0.2902203387485546 0.9678987392776537
1.1785546875 -0.29311803091148636 0.9674600921220422
1.179703125 -0.2941249115967132 0.9663781100210962
1.1808515625 -0.2955020264409911 0.9654994041269735
1.182 -0.29756596227693943 0.9654482073206112
1.1831484375 -0.2986230149978413 0.9645744830192982
1.184296875 -0.3003406870352874 0.9643588496292657
1.1854453125 -0.30316643858068515 0.9644811411963546
1.18659375 -0.3040620768077359 0.9635599062966178
1.1877421875 -0.3064466709686071 0.9629013390235066
1.188890625 -0.30807146031619326 0.9628569323983243
1.1900390625 -0.3098919590002586 0.9607152941354353
1.1911875 -0.3105917143307794 0.961067506193244
1.1923359375 -0.3126704560387764 0.9598433828277662
1.193484375 -0.3143530846233529 0.9594767941679112
1.1946328125 -0.31607949041045585 0.9595599833150472
1.19578125 -0.3174517088159038 0.9584871811106698
1.1969296875 -0.3190502862237162 0.9579100550458238
1.198078125 -0.32119863457149156 0.9570676824861089
1.1992265625 -0.3226481436991583 0.9565039204247991
1.200375 -0.324031068865757 0.9551649908963004
1.2015234375 -0.325611716398998 0.9547131900876897
1.202671875 -0.3275844441889346 0.9543536862465103
1.2038203125 -0.3295690520408936 0.9530741015926367
1.20496875 -0.3294957915663467 0.9522795989049395
1.2061171875 -0.33082281898164645 0.9513676182110888
1.207265625 -0.3321565936983075 0.9518378685968436
1.2084140625 -0.33338059695330957 0.9509403106864011
1.2095625 -0.33507382222112847 0.9502353012504133
1.2107109375 -0.33655726742657144 0.9502651278673295
1.211859375 -0.3386385200000007 0.949731051988616
1.2130078125 -0.34013091716970517 0.9492213240176135
1.21415625 -0.34183899927014966 0.948810094644044
1.2153046875 -0.3431069627687639 0.9485140100802127
1.216453125 -0.34453617717172513 0.9482081765899485
1.2176015625 -0.3461390745745777 0.947686302640709
1.21875 -0.34816512487326656 0.9468478477783728
1.2198984375 -0.3495018196140119 0.947386350335122
1.221046875 -0.3512351183305614 0.9464938432618195
1.2221953125 -0.3534172101795506 0.9459891749916138
1.22334375 -0.35529412350722994 0.9452951178833537
1.2244921875 -0.35607983254750586 0.9447230557280243
1.225640625 -0.35814453948764846 0.9451700785728872
1.2267890625 -0.3589561585241069 0.9440103037051479
1.2279375 -0.36166451748845774 0.9441568287645816
1.2290859375 -0.36433418082331226 0.9442605712432733
1.230234375 -0.3656513019107147 0.9432177227301725
1.2313828125 -0.3667747043614771 0.943083455129098
1.23253125 -0.36916686805280197 0.941454167598599
1.2336796875 -0.37044195563856636 0.9405264034189476
1.234828125 -0.3719751574725641 0.9402002308447933
1.2359765625 -0.3737560859453104 0.9393028242786596
1.237125 -0.3751132251224263 0.9379626740832924
1.2382734375 -0.377282742617856 0.9365172861539703
1.239421875 -0.37896258260315097 0.9374389411546863
1.2405703125 -0.38086984348275466 0.9364734432710152
1.24171875 -0.3823848494926497 0.9356473508332276
1.2428671875 -0.38375655616560844 0.9353812522085844
1.244015625 -0.38603835727049274 0.9350856087893981
1.2451640625 -0.3872472001226679 0.9338319745467417
1.2463125 -0.3890637442481706 0.9330619560519421
1.2474609375 -0.3906825822341421 0.9329653930548248
1.248609375 -0.3917741470167748 0.9328769210580101
1.2497578125 -0.39439511425554147 0.9313966441331702
1.25090625 -0.39608395168187094 0.9311009647280464
1.2520546875 -0.3975602366224172 0.9302794064414417
1.253203125 -0.3986632629244551 0.9293821143432685
1.2543515625 -0.40064228280298836 0.9280979424625249
1.2555 -0.402474197037582 0.927199763125041
1.2566484375 -0.40389887725455964 0.925942616732201
1.257796875 -0.40574814583362917 0.9256698495063678
1.2589453125 -0.4071336580557998 0.9249521399248789
1.26009375 -0.40809420101548943 0.9234835820149386
1.2612421875 -0.4095797623192856 0.9223231696685115
1.262390625 -0.4119486173546522 0.9219431060588148
1.2635390625 -0.41310694172150836 0.9204096301216352
1.2646875 -0.4149596749623769 0.9204413277539929
1.2658359375 -0.41612815781886286 0.920302551375912
1.266984375 -0.4168310157733774 0.9197873537667153
1.2681328125 -0.4187738880314974 0.9180828345185316
1.26928125 -0.4210963580454683 0.9176416600320043
1.2704296875 -0.4220495383458661 0.9174188241137516
1.271578125 -0.42356695594351523 0.9160029719996398
1.2727265625 -0.42513813505180886 0.9162424223457674
1.273875 -0.42677956244206317 0.9145899932861892
1.2750234375 -0.4287115964726021 0.9137726080272055
1.276171875 -0.4297834966131211 0.9127643762900206
1.2773203125 -0.43053425588482425 0.9122739050632265
1.27846875 -0.4323879688497161 0.9108022641145328
1.2796171875 -0.4340501669254574 0.9107406081773635
1.280765625 -0.4361399719517102 0.9099234441402742
1.2819140625 -0.43729400318173695 0.9086590839295877
1.2830625 -0.4380380696098458 0.9077559094649671
1.2842109375 -0.4401915370175358 0.9069383178266127
1.285359375 -0.4415431515526644 0.9061469964970742
1.2865078125 -0.4441990773754914 0.9053354182553631
1.28765625 -0.4440111266144064 0.904964225497453
1.2888046875 -0.4456440939807063 0.9047417780336999
1.289953125 -0.4468025747122536 0.904748126698954
1.2911015625 -0.448276397876637 0.9030579546086888
1.29225 -0.45120389619010376 0.9028392880282519
1.2933984375 -0.45261514844696943 0.9024865295814263
1.294546875 -0.4529993743333647 0.9012216881353363
1.2956953125 -0.4554522626084826 0.9000500921601242
1.29684375 -0.45608428652006183 0.9001688934265409
1.2979921875 -0.4588719591142789 0.8996222980001181
1.299140625 -0.4605929780463731 0.8981626961007876
1.3002890625 -0.4623343809879875 0.8979018864443624
1.3014375 -0.46321168255435036 0.8971358971724785
1.3025859375 -0.4656993815637728 0.8975449709357688
1.303734375 -0.46794861902742624 0.8972278152634623
1.3048828125 -0.4688690745666554 0.8960519792571802
1.30603125 -0.47022641829076917 0.8944200757754432
1.3071796875 -0.4723901614121848 0.893523237864843
1.308328125 -0.4736213973702371 0.8933737411700784
1.3094765625 -0.47633095978227613 0.8921223495650072
1.310625 -0.4766322830555591 0.8915704353348035
1.3117734375 -0.4783977963936946 0.8898216295871495
1.312921875 -0.48042076056289235 0.8889631929234165
1.3140703125 -0.48169404446983505 0.8880957307802321
1.31521875 -0.483869850556309 0.887907118385732
1.3163671875 -0.48564153413831107 0.8864380683947509
1.317515625 -0.4868418028930448 0.8856161573477752
1.3186640625 -0.48863229445012113 0.8851560610418602
1.3198125 -0.48919543760722417 0.884361719437505
1.3209609375 -0.4915624166689961 0.8829699361965615
1.322109375 -0.4937121095249806 0.881756739061814
1.3232578125 -0.4950275753086779 0.8816087681149256
1.32440625 -0.49655417351866893 0.8807996644939716
1.3255546875 -0.4986066326553257 0.8799928373573659
1.326703125 -0.4999312649815448 0.878445872893756
1.3278515625 -0.5019096961772289 0.877059372941956
1.329 -0.5043223618385778 0.8760590689181875
1.3301484375 -0.5053700298336302 0.8749304615648198
1.331296875 -0.506716695801785 0.8741990674376315
1.3324453125 -0.5085061600989018 0.8726692549142088
1.33359375 -0.5104513444653556 0.8715446739513112
1.3347421875 -0.5109780489227218 0.8706632772813258
1.335890625 -0.512469227691807 0.8696210452289782
1.3370390625 -0.5136660450603933 0.8684229267177326
1.3381875 -0.5148633303579383 0.8674669844485836
1.3393359375 -0.5162537645650664 0.866843121824268
1.340484375 -0.5176678599695823 0.8656424842765122
1.3416328125 -0.5197150858577595 0.8649084614625006
1.34278125 -0.5209033057586766 0.8636587629609676
1.3439296875 -0.522383553630655 0.8624627183415476
1.345078125 -0.5248841574682888 0.8616977025622226
1.3462265625 -0.5250145702207143 0.8600645746148314
1.347375 -0.526993295321879 0.8593077240749956
1.3485234375 -0.5276696065449415 0.8575463648291912
1.349671875 -0.5284244033868509 0.8574626534544232
1.3508203125 -0.5306670443222429 0.8563638852442117
1.35196875 -0.5320272453038035 0.8554021563022709
1.3531171875 -0.532985238212192 0.8549213813041021
1.354265625 -0.5346551487375382 0.8533521867442008
1.3554140625 -0.5357161460122893 0.8527175361291313
1.3565625 -0.5373700131419457 0.8527870486863335
1.3577109375 -0.5384021891693693 0.8512231954113437
1.358859375 -0.5400804616618711 0.8500842891181889
1.3600078125 -0.5412412570708132 0.8484685230250555
1.36115625 -0.5424782180988704 0.8493239877961816
1.3623046875 -0.5426802906446906 0.8473813818780911
1.363453125 -0.5466235266381119 0.8463395016333406
1.3646015625 -0.5470422861541855 0.8455478509971683
1.36575 -0.5479443205007062 0.8455674856885553
1.3668984375 -0.5501566686059446 0.8443295176247928
1.368046875 -0.5513393487945204 0.8431282591790332
1.3691953125 -0.5529353688008513 0.8419423031035429
1.37034375 -0.5523354685714564 0.8414015112630093
1.3714921875 -0.5555168164945918 0.8420298693929872
1.372640625 -0.5577593315291299 0.8410172621339043
1.3737890625 -0.5587867508523743 0.8408162722029222
1.3749375 -0.5602709928823242 0.8395402710204511
1.3760859375 -0.5617376759484611 0.8373495576431708
1.377234375 -0.5629345836871402 0.8368991626041876
1.3783828125 -0.564736767253933 0.8371912987583653
1.37953125 -0.5667552092487981 0.8354656654802408
1.3806796875 -0.5684362875277049 0.8352438933569653
1.381828125 -0.5701216715199806 0.834391165272309
1.3829765625 -0.5717215879469884 0.8338527669880402
1.384125 -0.572007640297119 0.8324318153520929
1.3852734375 -0.5737968568125504 0.8310703004288401
1.386421875 -0.5754489140758476 0.829848505610412
1.3875703125 -0.5776723379934605 0.8297029850375733
1.38871875 -0.5789215928605387 0.8284486237511172
1.3898671875 -0.5806627709910498 0.8274750891866103
1.391015625 -0.5823126845461375 0.827098788127069
1.3921640625 -0.584505221790873 0.8267986892978872
1.3933125 -0.5854624520022942 0.8243571435214082
1.3944609375 -0.5870547124784109 0.8238509114958227
1.395609375 -0.5883691544575911 0.8229936063857701
1.3967578125 -0.5901386592482731 0.8225447376715214
1.39790625 -0.5906521106158884 0.8217068305772736
1.3990546875 -0.5931561906061014 0.8197970787970038
1.400203125 -0.5943889717563251 0.8187955650590597
1.4013515625 -0.5960704092512562 0.8178887480387562
1.4025 -0.5976993424417629 0.8166295846350264
1.4036484375 -0.598786908264421 0.8156835973955183
1.404796875 -0.6004227815569353 0.8139639334353561
1.4059453125 -0.6018177243779874 0.8129277877744544
1.40709375 -0.6034746934925387 0.8112293639694999
1.4082421875 -0.6045664064669632 0.8102505882532667
1.409390625 -0.6060800078114663 0.8090563220952461
1.4105390625 -0.6066856371483724 0.8075606990767779
1.4116875 -0.6085227723010701 0.8062621174909076
1.4128359375 -0.6095281026758415 0.8052454341651113
1.413984375 -0.6110685037922448 0.8046114457396981
1.4151328125 -0.612861954224247 0.8036185092858001
1.41628125 -0.6139863177619478 0.8022006194156261
1.4174296875 -0.6154655217811328 0.801468489105001
1.418578125 -0.6170153582320363 0.7997347886367698
1.4197265625 -0.6179234770218759 0.7990109099270579
1.420875 -0.6195087651299809 0.7975761756733383
1.4220234375 -0.6205749576067603 0.7965106793294718
1.423171875 -0.6223661305105772 0.7951610890601728
1.4243203125 -0.6234405441787175 0.7941931859344407
1.42546875 -0.624131750023472 0.7928288690321085
1.4266171875 -0.6257150598494666 0.7915076989498291
1.427765625 -0.6269216428557406 0.7909725967716608
1.4289140625 -0.6279791721950913 0.7899636381172335
1.4300625 -0.628843103064799 0.7892392559594245
1.4312109375 -0.6303723543345021 0.7884290663828197
1.432359375 -0.6310142216790209 0.7873318343131639
1.4335078125 -0.6324109714231217 0.7861257216564983
1.43465625 -0.6332931175613123 0.784942943264674
1.4358046875 -0.6347153369247776 0.784735900557167
1.436953125 -0.6358295818129511 0.7833481977584862
1.4381015625 -0.6377983749419126 0.7825290238341848
1.43925 -0.6389958610075616 0.780635372966863
1.4403984375 -0.6400493799204624 0.7804340778278094
1.441546875 -0.6411005635853352 0.7792599397825732
1.4426953125 -0.6417620410132315 0.7781950102364157
1.44384375 -0.6430447662917899 0.7770998599608372
1.4449921875 -0.6454640851057236 0.7765625477101542
1.446140625 -0.6463008633867308 0.7755438734995775
1.4472890625 -0.6472110184334452 0.7746035251386167
1.4484375 -0.6480462577720992 0.7736500221102991
1.4495859375 -0.6496628091392244 0.7729401248689687
1.450734375 -0.6508281152510489 0.7714553394467158
1.4518828125 -0.6522308109347175 0.7716062575689566
1.45303125 -0.6541153037478066 0.7707905463837836
1.4541796875 -0.6552728793259858 0.769590412256726
1.455328125 -0.656905115395645 0.7686084378065856
1.4564765625 -0.6582296337112931 0.7679921276016769
1.457625 -0.6594019918973628 0.7671862833919563
1.4587734375 -0.6612908858731621 0.7658837862317396
1.459921875 -0.6630669714688724 0.7646788441106003
1.4610703125 -0.664247429715464 0.763828739361738
1.46221875 -0.6656248696068104 0.7628782196365925
1.4633671875 -0.6671699810551349 0.7616406325246788
1.464515625 -0.6690788709471622 0.7599101647239764
1.4656640625 -0.6701697768201105 0.7591052838418413
1.4668125 -0.6713138150646774 0.7581106583594355
1.4679609375 -0.6730798209598969 0.7563507893337129
1.469109375 -0.6738343700302506 0.7554515469799583
1.4702578125 -0.6755913536205645 0.7544340881315333
1.47140625 -0.6770872935946757 0.7530980342055578
1.4725546875 -0.6781421913511596 0.7517526321426043
1.473703125 -0.6794821854144971 0.7517393232165793
1.4748515625 -0.6808347227961722 0.7501518136865992
1.476 -0.6822431970004795 0.7491231771415774
1.4771484375 -0.6841414766011017 0.7482214129865599
1.478296875 -0.6852204418572252 0.7468596125068975
1.4794453125 -0.6866698629848533 0.7454662932012677
1.48059375 -0.6879323000520545 0.744027237337337
1.4817421875 -0.6894297177018516 0.7424002239548861
1.482890625 -0.6904622343780533 0.7409589359046372
1.4840390625 -0.6912757165602691 0.7404403769131127
1.4851875 -0.6928851834487526 0.7385600310952628
1.4863359375 -0.6944822845234797 0.7371946863714682
1.487484375 -0.6956123071000442 0.735273398147393
1.4886328125 -0.697429543374503 0.7349220921943689
1.48978125 -0.6985307920743274 0.733407170775012
1.4909296875 -0.6996833539022133 0.7315814261560668
1.492078125 -0.7009442790276691 0.7301985873185217
1.4932265625 -0.7022418835780535 0.729234091802146
1.494375 -0.7033378491271879 0.727193488825516
1.4955234375 -0.7047062654580868 0.7265573742570035
1.496671875 -0.7057309063946156 0.7251495714424057
1.4978203125 -0.7082654598141146 0.7240285605096443
1.49896875 -0.709567933234518 0.7224251943955303
1.5001171875 -0.7104723450410708 0.7210122594411038
1.501265625 -0.7118889337053529 0.7202095065054288
1.5024140625 -0.7122689339879092 0.7184945382743606
1.5035625 -0.7136919758877696 0.7165400693946082
1.5047109375 -0.7144919087830823 0.7160982136754848
1.505859375 -0.7163180994222356 0.7153455673824094
1.5070078125 -0.7172195165584266 0.7140317755510959
1.50815625 -0.7171623952750379 0.7123341191334798
1.5093046875 -0.7185850028923552 0.7122973998765065
1.510453125 -0.7202022907698498 0.711644405322214
1.5116015625 -0.7217543750289992 0.7091747288315241
1.51275 -0.7221629879678911 0.7091221031364645
1.5138984375 -0.7233752872816993 0.7078634712310664
1.515046875 -0.7254045750478546 0.7055728140555455
1.5161953125 -0.7257115642449866 0.7054912744326771
1.51734375 -0.7261076093365901 0.7037105249362758
1.5184921875 -0.7283811082437189 0.7024778806741506
1.519640625 -0.7286250401671329 0.7013665215485172
1.5207890625 -0.7306197069199145 0.7005966488730625
1.5219375 -0.7313057960051068 0.6997440466002113
1.5230859375 -0.7329951819133288 0.6990287939528743
1.524234375 -0.7341074780905402 0.6971083623158782
1.5253828125 -0.7348941618235191 0.6960543340322863
1.52653125 -0.7368426248392447 0.6949392508622801
1.5276796875 -0.7378272806884107 0.6943007848995784
1.528828125 -0.7391913428214495 0.6931317419769143
1.5299765625 -0.7402676137972729 0.6920995716763928
1.531125 -0.7418207262128914 0.6913040808628129
1.5322734375 -0.7433798935804696 0.6902912614758551
1.533421875 -0.7445563381622985 0.6889211881142375
1.5345703125 -0.7460072460016898 0.6875135483148237
1.53571875 -0.7477297176299815 0.6870569446208027
1.5368671875 -0.7486741167411821 0.6851516315653108
1.538015625 -0.7502998971802981 0.6840588699064822
1.5391640625 -0.751660088578851 0.6826502329681486
1.5403125 -0.7524128167010271 0.6814452458306959
1.5414609375 -0.753870810197428 0.6798064395798207
1.542609375 -0.755079729644905 0.6785101577891831
1.5437578125 -0.7564722631039307 0.6775522223385165
1.54490625 -0.7578100503235716 0.6759426859338402
1.5460546875 -0.7591010138527348 0.6747017140390159
1.547203125 -0.7603670735115633 0.6734616341701936
1.5483515625 -0.7615128158313551 0.6726659522467179
1.5495 -0.7631469467243122 0.6709133304716124
1.5506484375 -0.7651654864895016 0.6698870420678887
1.551796875 -0.7655359927372503 0.6687881148220982
1.5529453125 -0.7671726880525143 0.666977234956453
1.55409375 -0.7682892387574675 0.6659895756638743
1.5552421875 -0.7692565919121965 0.6644994137403101
1.556390625 -0.7711593504267573 0.6629287513123083
1.5575390625 -0.7718956559480009 0.6611810684108098
1.5586875 -0.7725993562400243 0.660285618696557
1.5598359375 -0.7736637642022346 0.6590900876879268
1.560984375 -0.7750642172781207 0.6573802922339365
1.5621328125 -0.776288029670229 0.655524422892036
1.56328125 -0.7771112766871503 0.654151826897179
1.5644296875 -0.7785309133418932 0.652611145116707
1.565578125 -0.7791170902168069 0.6513132846112722
1.5667265625 -0.779794220717455 0.6506408076076394
1.567875 -0.7809337768329001 0.6483775724177021
1.5690234375 -0.7827041242190212 0.6472275816178112
1.570171875 -0.7834868151388024 0.6468219125040705
1.5713203125 -0.7849470913235482 0.6440856621767146
1.57246875 -0.7857269221540646 0.6435700618520557
1.5736171875 -0.7872321705293801 0.6419351706536067
1.574765625 -0.7883658815605664 0.6412849474028648
1.5759140625 -0.7892453368274683 0.6390123154247114
1.5770625 -0.7904886226312147 0.637666126827656
1.5782109375 -0.7908087169463097 0.6371461261480554
1.579359375 -0.7912147854595947 0.6356192969168699
1.5805078125 -0.7937931189855988 0.633262889769993
1.58165625 -0.7943016880660241 0.6327911856462722
1.5828046875 -0.7954204121116173 0.6304860477737884
1.583953125 -0.7959295745926291 0.6290828539325266
1.5851015625 -0.7968539783074875 0.628614616323501
1.58625 -0.7978335868082467 0.6281164876307878
1.5873984375 -0.7994263372918103 0.6259049466352775
1.588546875 -0.7999342938347257 0.625356450785558
1.5896953125 -0.8010035541163022 0.6243984697796315
1.59084375 -0.8022088503726009 0.6222545804623425
1.5919921875 -0.8028522950292166 0.6212419163804359
1.593140625 -0.8038894993052325 0.6204580176129075
1.5942890625 -0.8052549025163301 0.6193275722074265
1.5954375 -0.8061934638140791 0.6176251398945012
1.5965859375 -0.8075270504988108 0.6162490103311036
1.597734375 -0.80846059674573 0.6153113922058493
1.5988828125 -0.8093275645053979 0.6144576408882034
1.60003125 -0.8103968789931549 0.6133350331672587
1.6011796875 -0.8116378221060999 0.6114697039095216
1.602328125 -0.8121266677571473 0.6107998117913004
1.6034765625 -0.8135843730917458 0.6092969116661625
1.604625 -0.8144198204556039 0.6086905704572028
1.6057734375 -0.8159756331193735 0.6073989273179865
1.606921875 -0.8169215765946074 0.6059817926431607
1.6080703125 -0.8180140683075504 0.6049364040756159
1.60921875 -0.8194368674605016 0.603195502815798
1.6103671875 -0.8201411214845294 0.6022245494689277
1.611515625 -0.8213699393752236 0.6010945789068924
1.6126640625 -0.8224539448705336 0.5998358100910101
1.6138125 -0.8236128704790213 0.5984763778093487
1.6149609375 -0.8247218073909347 0.5977133000667039
1.616109375 -0.8258040101599576 0.5962844431384797
1.6172578125 -0.8273714896702463 0.5946531317928186
1.61840625 -0.8286832093055108 0.5932233212874616
1.6195546875 -0.8294106339576881 0.5925152102676517
1.620703125 -0.8305299492829503 0.591131777233683
1.6218515625 -0.8319351443747475 0.5896664955197018
1.623 -0.8332592697596176 0.588124500315879
1.6241484375 -0.8345642097823163 0.5867846616965242
1.625296875 -0.83556684700606 0.5851287585708631
1.6264453125 -0.8369311273799154 0.5841153996119086
1.62759375 -0.8378798583102579 0.5828835324191672
1.6287421875 -0.8388419444021495 0.5811260854263071
1.629890625 -0.8402559871493838 0.5793512067511382
1.6310390625 -0.8414866178395224 0.5784914706633114
1.6321875 -0.8421912763859705 0.5767350787444213
1.6333359375 -0.8429412206577955 0.574749129620403
1.634484375 -0.8440071499791625 0.5738365079675154
1.6356328125 -0.8452025770450728 0.5723630749031472
1.63678125 -0.84713878965389 0.5717565850684503
1.6379296875 -0.847980707994852 0.5706213067282264
1.639078125 -0.8485662041866009 0.5685472536719348
1.6402265625 -0.8494857062781077 0.5667379870228144
1.641375 -0.8506431412061909 0.5655740337939406
1.6425234375 -0.8519038828659953 0.5642929874588073
1.643671875 -0.8536352361228526 0.5623074760010159
1.6448203125 -0.8540333362750655 0.5611287525695798
1.64596875 -0.8557770249599485 0.5600301204570189
1.6471171875 -0.8563997380408083 0.5581325098174726
1.648265625 -0.8575125436558871 0.5570782140701225
1.6494140625 -0.858592410185193 0.5557203858246116
1.6505625 -0.8590238784964305 0.5544022386499339
1.6517109375 -0.8602287170231663 0.5531780937028579
1.652859375 -0.8606473959647913 0.5519612285150935
1.6540078125 -0.8616087675539865 0.5504366972212382
1.65515625 -0.8620130223131666 0.5487171499506619
1.6563046875 -0.8629526637228078 0.5475933154577158
1.657453125 -0.863887356091193 0.5461679883954618
1.6586015625 -0.8648507062086263 0.544942167319513
1.65975 -0.8652207665625792 0.5433087352008988
1.6608984375 -0.8656726318767219 0.5422253820725096
1.662046875 -0.8666640443064267 0.5405849777948921
1.6631953125 -0.8683156687774687 0.5391150803772372
1.66434375 -0.868633999948891 0.537486272602574
1.6654921875 -0.869902510960137 0.5360117710881652
1.666640625 -0.8707343317113456 0.53449636152151
1.6677890625 -0.8715331635051137 0.5331329334811161
1.6689375 -0.8724484700338789 0.5317417042766501
1.6700859375 -0.8733094621018243 0.5302074067884436
1.671234375 -0.8742404123863645 0.5287162997935115
1.6723828125 -0.8746302757914728 0.5277101475137285
1.67353125 -0.8757779460814286 0.5263647979483164
1.6746796875 -0.8764373198057305 0.5251750075085829
1.675828125 -0.87744939769535 0.5239530401753381
1.6769765625 -0.8783597054709292 0.5225542530547646
1.678125 -0.8794590850215886 0.5209536055030186
1.6792734375 -0.8798851524261067 0.519793024298959
1.680421875 -0.8811375414469029 0.5188186951572227
1.6815703125 -0.8821763056776073 0.5169478116732026
1.68271875 -0.8824282089492814 0.5156922438354422
1.6838671875 -0.8833154790815874 0.5140181355892959
1.685015625 -0.8846734056840568 0.5121044396436986
1.6861640625 -0.8856916934460802 0.5114056977169693
1.6873125 -0.886789427156371 0.5090224795177667
1.6884609375 -0.888375819768467 0.5087957204315435
1.689609375 -0.8891548950093638 0.5076234309228391
1.6907578125 -0.8895169807065978 0.5060816997190197
1.69190625 -0.8922602501913822 0.5047850519148556
1.6930546875 -0.892367231892426 0.5034630868865575
1.694203125 -0.8935587800258838 0.5015006155823329
1.6953515625 -0.8942381748710675 0.49960630437565245
1.6965 -0.8950383389530824 0.49838832712606357
1.6976484375 -0.8961606275236726 0.4969178337313029
1.698796875 -0.8976802240692938 0.4955713688782882
1.6999453125 -0.8985155186899424 0.493913596102533
1.70109375 -0.8988654522970293 0.49198114112069147
1.7022421875 -0.8999395953828684 0.4902693265659649
1.703390625 -0.9008222343048424 0.48872436766006816
1.7045390625 -0.902220099799925 0.48822982448476293
1.7056875 -0.9032083080301753 0.4865611569913793
1.7068359375 -0.9029969968011835 0.48499983199870805
1.707984375 -0.9044521392265246 0.48225152859976395
1.7091328125 -0.9073381458422415 0.48218970230155783
1.71028125 -0.9068291049381644 0.48086364385487423
1.7114296875 -0.9084497006902775 0.4787556164160182
1.712578125 -0.9080619605386953 0.476971139698006
1.7137265625 -0.9095991187177108 0.4760794830653198
1.714875 -0.9111870638178744 0.4746280411606768
1.7160234375 -0.9113568845873468 0.47268514934922756
1.717171875 -0.9116690666718603 0.4710893887285672
1.7183203125 -0.9126188599209538 0.4702178899999835
1.71946875 -0.9127973515842833 0.46775852209551894
1.7206171875 -0.9139142540995147 0.4662481546306652
1.721765625 -0.9144149369569572 0.4649746922347917
1.7229140625 -0.91621588612506 0.4632558091730397
1.7240625 -0.91662788734709 0.4616282774485614
1.7252109375 -0.9176585724210713 0.46055513601659387
1.726359375 -0.9184417273781034 0.45852248439549115
1.7275078125 -0.9191114764464758 0.4569311817928324
1.72865625 -0.9199563405672204 0.45568709279688774
1.7298046875 -0.9208308851036131 0.45394681868605985
1.730953125 -0.9215115284436022 0.45230785310625216
1.7321015625 -0.9223823811721912 0.45104944657131485
1.73325 -0.923337559104047 0.4498730672573599
1.7343984375 -0.9242380319083343 0.4480453434389907
1.735546875 -0.9251385734630733 0.4465896901686961
1.7366953125 -0.9258937647292209 0.444800598667209
1.73784375 -0.9265556309723149 0.4434487212142553
1.7389921875 -0.9273414756130074 0.44189369889654173
1.740140625 -0.9279623071836359 0.44068668872030925
1.7412890625 -0.9286810406647501 0.43908469661292415
1.7424375 -0.9292924152260419 0.43759888753317777
1.7435859375 -0.9299667685773649 0.43628481146772247
1.744734375 -0.9309005356088047 0.4348255252437326
1.7458828125 -0.9316686765007203 0.4332769925219307
1.74703125 -0.9325698756456906 0.4316687252120713
1.7481796875 -0.9332122771620792 0.43058046793049565
1.749328125 -0.9342263488377652 0.42920803568879595
1.7504765625 -0.9350812619422758 0.4274094002928741
1.751625 -0.9354167287515073 0.42572161939021574
1.7527734375 -0.9370128223252123 0.4241845672794624
1.753921875 -0.9376860952783049 0.42255169206813004
1.7550703125 -0.9380044916315962 0.421632903793181
1.75621875 -0.9386477722789938 0.41995125000196065
1.7573671875 -0.9392304743185146 0.4183747778247693
1.758515625 -0.9402254829094575 0.41672179910955337
1.7596640625 -0.9406193224167273 0.41540756690286584
1.7608125 -0.9416696208942216 0.41436776183871094
1.7619609375 -0.9422004112939228 0.4127008122137288
1.763109375 -0.9434383838673923 0.411556010097887
1.7642578125 -0.9439719056785284 0.4098845471149411
1.76540625 -0.9453031759745953 0.40743595799107807
1.7665546875 -0.9457262362622703 0.40782367260134855
1.767703125 -0.9474663814371234 0.40529724158192065
1.7688515625 -0.9478469582603276 0.4041435954934511
1.77 -0.9484431218296236 0.4021749079579009
1.7711484375 -0.9494118085206246 0.4006901957984077
1.772296875 -0.949977921468612 0.3994004824226032
1.7734453125 -0.9507575263165825 0.3973283879091205
1.77459375 -0.9513405581554077 0.3960851941244964
1.7757421875 -0.953680382414535 0.3951291158191381
1.776890625 -0.9537620778058649 0.3928793416024346
1.7780390625 -0.9545474325445352 0.39110670393766866
1.7791875 -0.9549795304207809 0.3900810106185201
1.7803359375 -0.9557237917111919 0.3887987388335087
1.781484375 -0.9562071885098071 0.3875264980458769
1.7826328125 -0.9571611789057595 0.3856750820691019
1.78378125 -0.9575896529539543 0.3846429399572603
1.7849296875 -0.9578634016621135 0.3830002148631372
1.786078125 -0.9593630139075416 0.3811596981020278
1.7872265625 -0.9596536288464866 0.37901057552720857
1.788375 -0.9603101322221312 0.3772320612287418
1.7895234375 -0.961279729227047 0.37572750667529375
1.790671875 -0.9615024342712182 0.37388843073015476
1.7918203125 -0.9630918553447803 0.3724262964836218
1.79296875 -0.9636344926574574 0.3714307902895002
1.7941171875 -0.9639948380422785 0.3690476995333268
1.795265625 -0.9648613000048285 0.3675613466587695
1.7964140625 -0.9653838383018778 0.3661621263976639
1.7975625 -0.9659857769392584 0.3646508638990873
1.7987109375 -0.9662250454572947 0.36320768945410076
1.799859375 -0.9672250768723238 0.3618783763208424
1.8010078125 -0.9682857709766544 0.36043276501059585
1.80215625 -0.9688842039614608 0.35864367648351736
1.8033046875 -0.9693711845717013 0.3569669377904898
1.804453125 -0.9701531981546047 0.355479483518399
1.8056015625 -0.9710392979188144 0.35363582317098374
1.80675 -0.9715675607019787 0.35183832940716037
1.8078984375 -0.9719379992810231 0.35069456740191995
1.809046875 -0.9726865528736075 0.34946019102078496
1.8101953125 -0.9733790372335417 0.34785507344548183
1.81134375 -0.9737023156298337 0.3468695905432023
1.8124921875 -0.9742896382078045 0.34520415975647756
1.813640625 -0.9750312051169648 0.34362247384135425
1.8147890625 -0.9752325301215115 0.34235496819913486
1.8159375 -0.9760230777859683 0.34099064216485936
1.8170859375 -0.9766524290331133 0.33935916460855214
1.818234375 -0.9775131573841355 0.3375930591073276
1.8193828125 -0.9777882283435211 0.3361156803569355
1.82053125 -0.9782408429844223 0.33416393755245255
1.8216796875 -0.9789231595720649 0.33287406219971083
1.822828125 -0.9797847840317739 0.3311517924230633
1.8239765625 -0.9802558306916347 0.3301291215426004
1.825125 -0.9806378530633167 0.32821859598415204
1.8262734375 -0.9811342964503189 0.3261948460377245
1.827421875 -0.9814815475187968 0.3246363242874185
1.8285703125 -0.9824670202490076 0.3229811871400298
1.82971875 -0.9831810457349084 0.3216135446377385
1.8308671875 -0.9839209411637406 0.3203780742922422
1.832015625 -0.9845542871460993 0.3181812788827517
1.8331640625 -0.9847134950950254 0.3164876547726843
1.8343125 -0.9852509119908833 0.31570921960536064
1.8354609375 -0.986390702423499 0.31380100280971424
1.836609375 -0.987295096637606 0.31174104653294954
1.8377578125 -0.9880383736815787 0.3107169121282638
1.83890625 -0.9882681805859304 0.3090968431006156
1.8400546875 -0.9889984242160703 0.3076830538995954
1.841203125 -0.9887699281655189 0.3057277458902896
1.8423515625 -0.9900242359950298 0.30420199802494197
1.8435 -0.991612120729806 0.30236432424975146
1.8446484375 -0.9913426209213421 0.3010393701800627
1.845796875 -0.9918328265954397 0.2999447303360115
1.8469453125 -0.9923180342825075 0.29715928453458557
1.84809375 -0.9925272446280173 0.2963085340405939
1.8492421875 -0.9931053138872971 0.29442074662419976
1.850390625 -0.994109808144006 0.29253343416733263
1.8515390625 -0.9947631446095968 0.29052098215008393
1.8526875 -0.9947151384365404 0.28926449896377815
1.8538359375 -0.9957808237776725 0.28705412283736975
1.854984375 -0.9961000548243368 0.28552781590948595
1.8561328125 -0.9965271245994632 0.2848297488552143
1.85728125 -0.9974042574236239 0.2828058878274801
1.8584296875 -0.998151635346716 0.28180097404712945
1.859578125 -0.998639851849851 0.27937375304531975
1.8607265625 -0.9994993095470396 0.2780935577292207
1.861875 -1.0000229276272983 0.2763243598791472
1.8630234375 -1.0008230162303133 0.2750065911783254
1.864171875 -1.0010387978902355 0.2732621366506412
1.8653203125 -1.0015052985598436 0.2712867638210857
1.86646875 -1.0020953376938067 0.26977863267288865
1.8676171875 -1.0027039350540814 0.2683266200139761
1.868765625 -1.0033189648286978 0.2668175257889349
1.8699140625 -1.0041646484403415 0.26501111287753304
1.8710625 -1.0046048816294497 0.2632008143495116
1.8722109375 -1.0049627527240168 0.26181900541936043
1.873359375 -1.0055934768273187 0.2599936407225827
1.8745078125 -1.0062732031912456 0.25817636914812125
1.87565625 -1.0065614354725778 0.25695399691465787
1.8768046875 -1.007326257975554 0.25514475782611507
1.877953125 -1.0079465439321689 0.2533115383926062
1.8791015625 -1.0083489799736578 0.25186075649609785
1.88025 -1.0087052032960175 0.2502054406115975
1.8813984375 -1.0091673844569218 0.24851232875351764
1.882546875 -1.0094240402095531 0.24709591081673224
1.8836953125 -1.009938323116718 0.2451900001736261
1.88484375 -1.0107355839106562 0.2435307386530305
1.8859921875 -1.0108993668933803 0.24203172660098912
1.887140625 -1.0111012149405763 0.24070998926204104
1.8882890625 -1.0116984098512145 0.23913164795736594
1.8894375 -1.0127206627597978 0.23711670805983703
1.8905859375 -1.0132293073746856 0.23591432629652
1.891734375 -1.013474891607112 0.2341528205154607
1.8928828125 -1.0141712115609267 0.23249444385445728
1.89403125 -1.014639290067587 0.23139317120558547
1.8951796875 -1.015214451028332 0.22941868887993386
1.896328125 -1.0155108043085825 0.22722724108222858
1.8974765625 -1.016124343438341 0.2258572823652527
1.898625 -1.0164740640664263 0.22550869566754592
1.8997734375 -1.0164269630439393 0.22276892283184044
1.900921875 -1.017792728050265 0.2210243233105441
1.9020703125 -1.0178191213193826 0.2189709902032117
1.90321875 -1.018712488233113 0.2169968088006884
1.9043671875 -1.019120006065573 0.21616963214632245
1.905515625 -1.0194433986061704 0.21435475305641533
1.9066640625 -1.019212498628902 0.21273570652861873
1.9078125 -1.0202031581431754 0.21011154117798808
1.9089609375 -1.0204748016193084 0.20923135337917206
1.910109375 -1.020394511297288 0.20781248095024785
1.9112578125 -1.0214232432492174 0.20625035826297486
1.91240625 -1.0211107944669955 0.20423523360369172
1.9135546875 -1.0219396143443582 0.20261117316313418
1.914703125 -1.0217866014894421 0.20126153206835992
1.9158515625 -1.0228135958843552 0.1993056672807042
1.917 -1.0215220599937653 0.19768368541405776
1.9181484375 -1.0227542710802768 0.19592541080074735
1.919296875 -1.023560143858693 0.19477709453224307
1.9204453125 -1.0238065439447173 0.19205501003447778
1.92159375 -1.0234587350397646 0.18967204403569554
1.9227421875 -1.0248842494074304 0.1888627986358786
1.923890625 -1.0249575061268283 0.18680623504194838
1.9250390625 -1.0250229148040628 0.1852798655264303
1.9261875 -1.025873684759741 0.18408488899130965
1.9273359375 -1.026839841865862 0.18215588579766925
1.928484375 -1.0267111678976946 0.18089343876222808
1.9296328125 -1.0273501738970172 0.17866103629812843
1.93078125 -1.0281390445779341 0.17726900629183726
1.9319296875 -1.0278914440176448 0.17536809931959163
1.933078125 -1.028379479814212 0.17341024464517196
1.9342265625 -1.0286230390403786 0.17238716617349015
1.935375 -1.0292136839484474 0.1711120115827891
1.9365234375 -1.0296545392861782 0.16935362023106323
1.937671875 -1.0300652023954158 0.16740101323141715
1.9388203125 -1.030435300276337 0.16525292785919
1.93996875 -1.0305814157557533 0.1639149585199983
1.9411171875 -1.0307410775775794 0.16244345995541293
1.942265625 -1.0314671882633832 0.16046173848010853
1.9434140625 -1.0317189176089194 0.15899188121106006
1.9445625 -1.0322236589000264 0.15705938526420768
1.9457109375 -1.0325267590130822 0.15545232308897097
1.946859375 -1.032677177814949 0.15415958677856578
1.9480078125 -1.0329405989131155 0.15223855933019406
1.94915625 -1.0335494171181316 0.15030320466311
1.9503046875 -1.0337257835471236 0.14862609091921627
1.951453125 -1.0338905596432872 0.14727607082279548
1.9526015625 -1.0341529203519981 0.14521024449201414
1.95375 -1.0345527769867813 0.14347629306886078
1.9548984375 -1.0345016033612233 0.1423908296123978
1.956046875 -1.034923833807095 0.14064607368592466
1.9571953125 -1.0356578438055817 0.13879743065242825
1.95834375 -1.0359259759157222 0.13725165437220882
1.9594921875 -1.036115629341775 0.13577219170994337
1.960640625 -1.0366318904166643 0.13365449396768034
1.9617890625 -1.0367683208162763 0.1323595585744144
1.9629375 -1.0371042064747407 0.13048173117335288
1.9640859375 -1.0374073202317318 0.1290204396963871
1.965234375 -1.0373365477360745 0.127063799163991
1.9663828125 -1.0380341968804994 0.12517543601049216
1.96753125 -1.0383550566969468 0.12403501165063767
1.9686796875 -1.0380700834887429 0.12184595991384475
1.969828125 -1.0383352320442794 0.12079424903461994
1.9709765625 -1.0392464306601767 0.11894304170776848
1.972125 -1.038801519557437 0.11722423689167638
1.9732734375 -1.0393318422534357 0.11533883063123707
1.974421875 -1.0392117722210876 0.11341830895562316
1.9755703125 -1.0397304769486022 0.11186626403231659
1.97671875 -1.039797545940684 0.1107269319886905
1.9778671875 -1.039773795908022 0.1090812940509458
1.979015625 -1.0401504889948998 0.10699013551467004
1.9801640625 -1.0406557530133926 0.10534874242516035
1.9813125 -1.0416498364701714 0.10363090824118765
1.9824609375 -1.041183511787502 0.10204470259658704
1.983609375 -1.041647937600565 0.10071090779443831
1.9847578125 -1.0414481974081224 0.09925953022070304
1.98590625 -1.0419546316261208 0.09699116751925295
1.9870546875 -1.0425113260549452 0.09536957505873278
1.988203125 -1.04218095536524 0.09366835830080945
1.9893515625 -1.0430511777141596 0.092139318530874
1.9905 -1.0430181222165702 0.09011778515088668
1.9916484375 -1.043162479044359 0.0883895255635416
1.992796875 -1.0434066409059208 0.08728594559963068
1.9939453125 -1.0432663113091039 0.08537905126673884
1.99509375 -1.0439913499723725 0.08348531958745906
1.9962421875 -1.0437864923896936 0.08185881787053116
1.997390625 -1.0439980921412704 0.07998346172408062
1.9985390625 -1.044424548424517 0.07800091416408933
1.9996875 -1.0443523360055946 0.07680188144354742
2.0008359375 -1.0445773381408832 0.07478143450118341
2.001984375 -1.0449051578551427 0.07342275305583051
2.0031328125 -1.0451191835454416 0.07187024517829377
2.00428125 -1.045460595728038 0.0699857133586437
2.0054296875 -1.0457542781408624 0.06819280072382579
2.006578125 -1.0460080045260107 0.06643359120399223
2.0077265625 -1.0460616531480993 0.06510490322096485
2.008875 -1.0460832558465503 0.06314070596174977
2.0100234375 -1.046505278174607 0.061391335643967204
2.011171875 -1.0467385935132043 0.05998596929364969
2.0123203125 -1.046826328732971 0.05795645734541088
2.01346875 -1.0470180999154173 0.05627502701581233
2.0146171875 -1.0472015418603804 0.05476952358273285
2.015765625 -1.0474972829626135 0.052801420599682
2.0169140625 -1.0478061955684634 0.0508640194767403
2.0180625 -1.047616948124211 0.04951109174309675
2.0192109375 -1.0478555580026514 0.04800863024608073
2.020359375 -1.0476911835733176 0.0459878335491477
2.0215078125 -1.0480117713010344 0.04434586109776038
2.02265625 -1.0481632126735687 0.04310749013307033
2.0238046875 -1.048554184011349 0.04072408860831668
2.024953125 -1.0484589146596777 0.03882244366673192
2.0261015625 -1.0486073275348615 0.037623911596650156
2.02725 -1.048701343128502 0.03553052402930547
2.0283984375 -1.049514261042399 0.03368709269052968
2.029546875 -1.0494861674671236 0.03230063319737046
2.0306953125 -1.0492842504218605 0.030808736030901576
2.03184375 -1.0495128981175115 0.029110449918714906
2.0329921875 -1.0495317913052293 0.027230197582823842
2.034140625 -1.0495390368568225 0.026116688445511835
2.0352890625 -1.0492685781704705 0.023526898401794366
2.0364375 -1.0504404715186806 0.021478318699721458
2.0375859375 -1.0500491241408425 0.02000589278483085
2.038734375 -1.0498029873053367 0.019013005400791927
2.0398828125 -1.0506027973500314 0.016341614476025973
2.04103125 -1.0503833931735347 0.014909585353979876
2.0421796875 -1.0506967282564275 0.013339397561015917
2.043328125 -1.0507307342470003 0.011761094723061916
2.0444765625 -1.0508453350339315 0.01033125679479778
2.045625 -1.0505468424725 0.008590253455325506
2.0467734375 -1.0505162508645525 0.007305987337421008
2.047921875 -1.051081258648773 0.005232678448840539
2.0490703125 -1.0514540091862696 0.003615124753923296
2.05021875 -1.0507540542740637 0.0018511325980000853
2.0513671875 -1.050249653877572 -9.189112796618992e-05
2.052515625 -1.0509183792893528 -0.001927396359207481
2.0536640625 -1.051562673512327 -0.0033623945773471747
2.0548125 -1.0518923707543255 -0.005095825369440282
2.0559609375 -1.0510823059648409 -0.006563254222465939
2.057109375 -1.0512661180335858 -0.008712777931160584
2.0582578125 -1.0511601138054198 -0.01019362457287154
2.05940625 -1.0508925563938307 -0.012238755664061296
2.0605546875 -1.0508003553164564 -0.013738482741319391
2.061703125 -1.0514230705513228 -0.015605029381395796
2.0628515625 -1.0517257266998121 -0.018353819350088646
2.064 -1.0517904234414324 -0.018973387091626326
2.0651484375 -1.0521045702140157 -0.0205595074897737
2.066296875 -1.0514061419529637 -0.022914702270517243
2.0674453125 -1.0512479515130533 -0.023981223090633205
2.06859375 -1.0514582032078232 -0.025925936317842527
2.0697421875 -1.051818577795093 -0.027654130418621095
2.070890625 -1.0519854064770275 -0.029348179571706795
2.0720390625 -1.0517816617103612 -0.03138108305338097
2.0731875 -1.0516084086442798 -0.033600018281020494
2.0743359375 -1.0521030310910973 -0.03489177302109799
2.075484375 -1.0520686820746574 -0.03649618283531944
2.0766328125 -1.0519754645477548 -0.038385233300907554
2.07778125 -1.052496939914743 -0.0407042229873007
2.0789296875 -1.0530485029081214 -0.04287711118821996
2.080078125 -1.052876217504252 -0.043951954018913275
2.0812265625 -1.0530394756459924 -0.045350083324590014
2.082375 -1.0525171171037258 -0.04696813230570362
2.0835234375 -1.0529145298589442 -0.04864970676004656
2.084671875 -1.0529460708656557 -0.05013698587830582
2.0858203125 -1.053518015917194 -0.05216242426920324
2.08696875 -1.0537276732655967 -0.053543130026119885
2.0881171875 -1.0530106692164196 -0.05549362969925856
2.089265625 -1.053284904672368 -0.05728763073073767
2.0904140625 -1.0537519524977554 -0.05904527522952767
2.0915625 -1.0545318917722304 -0.06101116049014253
2.0927109375 -1.0541257511442061 -0.06166592238114832
2.093859375 -1.053860051056848 -0.06376582718795408
2.0950078125 -1.0546386577182618 -0.0653242319935257
2.09615625 -1.0543678361724078 -0.06716209427637204
2.0973046875 -1.055060374623015 -0.0682617530716482
2.098453125 -1.054999925166698 -0.07043455412884692
2.0996015625 -1.0539937924564537 -0.07189936705093673
2.10075 -1.0543736929924494 -0.073072291013237
2.1018984375 -1.0533004596302133 -0.07482788919607758
2.103046875 -1.0532317047167319 -0.07582507063859512
2.1041953125 -1.0536530586868305 -0.0778132456910064
2.10534375 -1.0530135225237107 -0.07941662056538315
2.1064921875 -1.0514687940494527 -0.08175397603346166
2.107640625 -1.0519386685129422 -0.08412349305306456
2.1087890625 -1.0514831654156038 -0.08530631754495953
2.1099375 -1.051714998553058 -0.08710930938307947
2.1110859375 -1.0516158113112477 -0.08877921604120281
2.112234375 -1.0516454491393314 -0.09083185995025568
2.1133828125 -1.0513829454420316 -0.0923537177572647
2.11453125 -1.0511974356161395 -0.09431418099469607
2.1156796875 -1.0508340520904993 -0.09609866784317767
2.116828125 -1.0506145266997593 -0.0975812747914493
2.1179765625 -1.0498989624225539 -0.09942447876064964
2.119125 -1.0494148884365517 -0.10118953853379108
2.1202734375 -1.0489779338489813 -0.1027405935385649
2.121421875 -1.049527199808275 -0.10440160356281468
2.1225703125 -1.049606823854795 -0.10644834161860617
2.12371875 -1.0491569490272377 -0.10804963147644547
2.1248671875 -1.049287241834439 -0.10928540082622878
2.126015625 -1.0488776474267365 -0.11144659088289867
2.1271640625 -1.048943833791246 -0.11303584803818933
2.1283125 -1.0483137785893168 -0.11456365352485677
2.1294609375 -1.0486802913378659 -0.11643594233773183
2.130609375 -1.0485565596962831 -0.11804409212809522
2.1317578125 -1.0482458565784472 -0.11970722784995445
2.13290625 -1.04825645963142 -0.1214658006805865
2.1340546875 -1.0482833314376745 -0.12340437473651773
2.135203125 -1.0481365557123703 -0.1250869479143886
2.1363515625 -1.0481694806857675 -0.1262403417389753
2.1375 -1.0481897668996738 -0.12823880163506915
2.1386484375 -1.048306568833804 -0.1297474662188674
2.139796875 -1.0483948815387423 -0.1314439154680038
2.1409453125 -1.0481597256634319 -0.13359668876687547
2.14209375 -1.047726681255327 -0.13521452849041732
2.1432421875 -1.047556056125832 -0.1365330811658643
2.144390625 -1.0473081050686444 -0.13827029667264534
2.1455390625 -1.0472510425151385 -0.13991418171823322
2.1466875 -1.046930762883815 -0.14158162670168292
2.1478359375 -1.0468509192906459 -0.14318620858259562
2.148984375 -1.0466344513858008 -0.14478722045136078
2.1501328125 -1.0466504833323287 -0.14647511003996674
2.15128125 -1.0465284899326903 -0.14824880859216089
2.1524296875 -1.0463521691861528 -0.14978519352489006
2.153578125 -1.0461464985949513 -0.15142861277639139
2.1547265625 -1.0461885425494868 -0.15308166514490046
2.155875 -1.045495418803232 -0.15478397643476086
2.1570234375 -1.0450774093732922 -0.15689298431374904
2.158171875 -1.045263916500295 -0.15819657833485393
2.1593203125 -1.0453463238519318 -0.16024149626748918
2.16046875 -1.0444154747332077 -0.1618874418312583
2.1616171875 -1.0447258703983584 -0.16372755987126159
2.162765625 -1.0455164888404986 -0.16539278507353083
2.1639140625 -1.045880754962893 -0.16734807002456709
2.1650625 -1.0452683195248471 -0.16924377059876883
2.1662109375 -1.0457174802393765 -0.16978026757528797
2.167359375 -1.045619984983769 -0.17255549052075125
2.1685078125 -1.0454921756056568 -0.17384916180287713
2.16965625 -1.0457758108160706 -0.1760564133274941
2.1708046875 -1.046660539388492 -0.17735740480793155
2.171953125 -1.0459774874106638 -0.1789154522966913
2.1731015625 -1.0458254534275562 -0.1807959766243863
2.17425 -1.0455993633628025 -0.18236140963877934
2.1753984375 -1.0452817299412371 -0.18370868361929302
2.176546875 -1.0451626636635047 -0.18440980508935284
2.1776953125 -1.0448122685960823 -0.18644066439361323
2.17884375 -1.0442592759079714 -0.18775617317565482
2.1799921875 -1.0441246312880197 -0.18995450572130412
2.181140625 -1.043930469626169 -0.1905763318030047
2.1822890625 -1.0431091286134724 -0.1927056642546392
2.1834375 -1.0424838536128163 -0.19400283362529716
2.1845859375 -1.041606501407534 -0.19532090393576995
2.185734375 -1.041092171951107 -0.19705893717440512
2.1868828125 -1.0405705075084162 -0.19871813320465584
2.18803125 -1.040066929545199 -0.20031748309796477
2.1891796875 -1.039413004855878 -0.2020322091377162
2.190328125 -1.0384607814758817 -0.20408544633792475
2.1914765625 -1.037991466921558 -0.2057507663677281
2.192625 -1.0374128939450278 -0.20701782248185271
2.1937734375 -1.0370670412719294 -0.20858695753855766
2.194921875 -1.0361394503532781 -0.2105962121498001
2.1960703125 -1.035655345197526 -0.21188730647674808
2.19721875 -1.0353886493032147 -0.21377895843894168
2.1983671875 -1.0347983420317757 -0.21580307703579446
2.199515625 -1.0344953944962527 -0.21670664130116168
2.2006640625 -1.0342157955278 -0.21843780240253455
2.2018125 -1.0340499371383334 -0.2204071594382992
2.2029609375 -1.0337256025453332 -0.222322183473395
2.204109375 -1.0336261799699413 -0.22380339490102175
2.2052578125 -1.033432649577767 -0.22574640367194973
2.20640625 -1.0327882061106843 -0.22748586781817898
2.2075546875 -1.0323204235463763 -0.2287763002131318
2.208703125 -1.0322254813917409 -0.2304604874281714
2.2098515625 -1.031526546387847 -0.2322919149726613
2.211 -1.0313444645305032 -0.23410239084429613
2.2121484375 -1.0311246429115217 -0.23600873606195394
2.213296875 -1.0307821969878224 -0.23810989956457368
2.2144453125 -1.0295408741971028 -0.2393115856145861
2.21559375 -1.0297347473664724 -0.24048721530554465
2.2167421875 -1.029753492774571 -0.24232399424826942
2.217890625 -1.0291084778081114 -0.24414493507442564
2.2190390625 -1.0291097420490423 -0.24540382621182913
2.2201875 -1.029123227450825 -0.24792788426373472
2.2213359375 -1.0288563444806003 -0.24968182119465815
2.222484375 -1.0273609610363055 -0.2508111203733881
2.2236328125 -1.0281268388424958 -0.2535382564405022
2.22478125 -1.0274404127724799 -0.2541474624117341
2.2259296875 -1.0267838917663865 -0.25582470660154155
2.227078125 -1.0263868697725818 -0.25647725131825583
2.2282265625 -1.0267195576541173 -0.25824444441347916
2.229375 -1.0264493032229096 -0.2603661035831616
2.2305234375 -1.0264441137854012 -0.2612598241287446
2.231671875 -1.0263326387239566 -0.26376663345772705
2.2328203125 -1.0253023931696563 -0.2645942430191636
2.23396875 -1.0263408830544163 -0.26560359619149154
2.2351171875 -1.0245375856206482 -0.26806604188360933
2.236265625 -1.02446197985295 -0.2705641504097926
2.2374140625 -1.024620218373846 -0.27161108053570376
2.2385625 -1.0240178262022352 -0.273925794288577
2.2397109375 -1.0236756498721293 -0.27537894831653864
2.240859375 -1.0247587018016109 -0.2775187551445027
2.2420078125 -1.0237698100689354 -0.2792339253401708
2.24315625 -1.023558826950617 -0.28086850075290903
2.2443046875 -1.0229544433909932 -0.28242830063636165
2.245453125 -1.0224456539826339 -0.2839752120476812
2.2466015625 -1.0228287480670573 -0.285617777351443
2.24775 -1.0224046332179304 -0.2871776519627185
2.2488984375 -1.021431327428809 -0.2902263720996736
2.250046875 -1.0208502532809687 -0.2917469040565291
2.2511953125 -1.019915426833326 -0.2932371656368288
2.25234375 -1.0195210309468627 -0.2934184294641691
2.2534921875 -1.0188312068114453 -0.29610151771781856
2.254640625 -1.0181543947579141 -0.2980039340564133
2.2557890625 -1.0174777268222759 -0.29965089741417567
2.2569375 -1.0170559687159337 -0.3010985004715273
2.2580859375 -1.0165484882559048 -0.3023973480483541
2.259234375 -1.0161327150341126 -0.3046285530940104
2.2603828125 -1.0152511342091222 -0.3056060231744904
2.26153125 -1.014944664707533 -0.30749955051394773
2.2626796875 -1.0139623307049093 -0.30981271595074084
2.263828125 -1.0131469405679445 -0.3107408513198176
2.2649765625 -1.0130963317159625 -0.31228029389381967
2.266125 -1.0121783862229154 -0.3141730255789215
2.2672734375 -1.0114899692023522 -0.31576324997778427
2.268421875 -1.0116751621715028 -0.31710065130679777
2.2695703125 -1.0100121862145566 -0.3191201806397472
2.27071875 -1.009663853068155 -0.3204117839804317
2.2718671875 -1.0090920830978074 -0.3214504606505556
2.273015625 -1.0088492367509452 -0.3231881889998064
2.2741640625 -1.0079957069538752 -0.324948105977963
2.2753125 -1.0074185243799008 -0.32612181514902305
2.2764609375 -1.0066968413548811 -0.3280146422708344
2.277609375 -1.0062582450265536 -0.32960115995654793
2.2787578125 -1.0058606346350047 -0.3314154192378993
2.27990625 -1.005210618395095 -0.33269342610326774
2.2810546875 -1.0051328823965577 -0.3345874830697756
2.282203125 -1.0046747975993753 -0.3362818285098483
2.2833515625 -1.0041255972197507 -0.33772206643094016
2.2845 -1.0035136653149577 -0.3394170591690616
2.2856484375 -1.0033395078482514 -0.341299175931001
2.286796875 -1.0029713614677243 -0.34277402641913113
2.2879453125 -1.0020368619041407 -0.3445131887546696
2.28909375 -1.0014627359785357 -0.3463836172940093
2.2902421875 -1.00118085699364 -0.3473721775168256
2.291390625 -1.0008340140255858 -0.3491246759244971
2.2925390625 -1.0005224848848284 -0.35062615829055654
2.2936875 -0.9988837724256963 -0.35212362925230734
2.2948359375 -0.9985087079977659 -0.35334048547573044
2.295984375 -0.9984912123155748 -0.3553791678197969
2.2971328125 -0.9974406648862093 -0.3564419350729217
2.29828125 -0.997693017438025 -0.35789395823511005
2.2994296875 -0.9975731560525527 -0.35928990565024244
2.300578125 -0.9967761546284796 -0.361572521326827
2.3017265625 -0.9969338496782514 -0.36198740948034147
2.302875 -0.9963430394036252 -0.36336610972064554
2.3040234375 -0.9949455082115831 -0.3654404878551758
2.305171875 -0.9950086729985723 -0.36717609929995665
2.3063203125 -0.9938175677369933 -0.36861007972881077
2.30746875 -0.9938343617710588 -0.3707939783745715
2.3086171875 -0.9936847200619469 -0.37244613757473843
2.309765625 -0.9925798552031806 -0.3733006777796526
2.3109140625 -0.991815619891244 -0.374565522722859
2.3120625 -0.9920653025407546 -0.3767759703787739
2.3132109375 -0.9906353830968898 -0.37821711854408896
2.314359375 -0.9907660047873932 -0.38001836097314695
2.3155078125 -0.9906988879651689 -0.38145830059753855
2.31665625 -0.9894122105708716 -0.38300774773426893
2.3178046875 -0.9890498346272203 -0.3853536723044241
2.318953125 -0.9892176304161098 -0.38686792104394724
2.3201015625 -0.988500051568096 -0.3881606309564529
2.32125 -0.988391932253124 -0.3897675794991314
2.3223984375 -0.9869876133914873 -0.3912926699360567
2.323546875 -0.9860785102698061 -0.39366948283225645
2.3246953125 -0.9857811374104002 -0.3952248229972979
2.32584375 -0.9847056674316169 -0.39666927036053806
2.3269921875 -0.9843200713253875 -0.3983070303190892
2.328140625 -0.9839643392204488 -0.39967732758910113
2.3292890625 -0.9833787533457647 -0.40141872051522093
2.3304375 -0.9824656495489379 -0.4036521589451465
2.3315859375 -0.9817383484127451 -0.40567121489164143
2.332734375 -0.98068277056421 -0.40739631656765274
2.3338828125 -0.9800743033168007 -0.40888422281036396
2.33503125 -0.9798775551865533 -0.4101782686704947
2.3361796875 -0.9787265379319599 -0.41165212552481045
2.337328125 -0.9780170729540525 -0.4134692036565565
2.3384765625 -0.9775344278877349 -0.4147051458999612
2.339625 -0.9767189979572746 -0.41555394699584575
2.3407734375 -0.9756723402692855 -0.4172153251218898
2.341921875 -0.9751202259880896 -0.4195381646464772
2.3430703125 -0.9743970413429296 -0.4212690989367298
2.34421875 -0.9740446527683202 -0.4232202368159039
2.3453671875 -0.9734820761517348 -0.4242991398091147
2.346515625 -0.9722370982207896 -0.4260608450711668
2.3476640625 -0.9709696309973581 -0.4275881424255247
2.3488125 -0.970021502061803 -0.4293055127085977
2.3499609375 -0.9693101203576671 -0.4309876209042914
2.351109375 -0.9691438499336177 -0.43168258445523705
2.3522578125 -0.9680471736535134 -0.43383891498189053
2.35340625 -0.9676103610934645 -0.43500543823895543
2.3545546875 -0.966647510643885 -0.4367415080707103
2.355703125 -0.9659675549630302 -0.43862752663812293
2.3568515625 -0.9651276021031154 -0.4402610825311499
2.358 -0.9643514614225845 -0.441584324579571
2.3591484375 -0.9638965673001302 -0.44266175142748476
2.360296875 -0.9630186659597373 -0.4451476364752831
2.3614453125 -0.9628571405369011 -0.44619421444886365
2.36259375 -0.962355684005298 -0.44748678045329426
2.3637421875 -0.9620040771224379 -0.4492971724920307
2.364890625 -0.9610139784199041 -0.450260931468781
2.3660390625 -0.9609592893886886 -0.4512846178303964
2.3671875 -0.9607265281157135 -0.4533237985449987
2.3683359375 -0.9596193351834845 -0.4549033809950247
2.369484375 -0.9598398869952702 -0.45587212999410687
2.3706328125 -0.9583037845745865 -0.4575119907320808
2.37178125 -0.9581846949666238 -0.4584170085992877
2.3729296875 -0.9580563511876423 -0.4596195986452042
2.374078125 -0.9566670379095294 -0.46133243367817417
2.3752265625 -0.9563800609077834 -0.46177604442114917
2.376375 -0.9548456110133893 -0.46376468031121226
2.3775234375 -0.9545196010495107 -0.4643503302324136
2.378671875 -0.9539119886271819 -0.4657487469086705
2.3798203125 -0.9523289473156811 -0.4676747367237146
2.38096875 -0.9525308670858945 -0.468629973639368
2.3821171875 -0.9516005816818385 -0.47116441296034084
2.383265625 -0.9504391916588252 -0.4728942282889188
2.3844140625 -0.949556987273614 -0.4737288585939583
2.3855625 -0.9486338228933137 -0.4755426544092949
2.3867109375 -0.9479237420305211 -0.4775853882618294
2.387859375 -0.9484074870374312 -0.4791884021590407
2.3890078125 -0.9474578602894317 -0.48002805066496024
2.39015625 -0.9463461374439353 -0.4822332964132685
2.3913046875 -0.9459335158160791 -0.4834032245365776
2.392453125 -0.9456903762028821 -0.4844214313728683
2.3936015625 -0.9446048882215444 -0.4863915293970456
2.39475 -0.9439058232165656 -0.4878257290378308
2.3958984375 -0.9428764257111325 -0.48913223498763797
2.397046875 -0.9416360263176032 -0.4905381989638839
2.3981953125 -0.9407899666335654 -0.4928242499937776
2.39934375 -0.9398363327384995 -0.49509766730881233
2.4004921875 -0.9394439608126418 -0.495878712631738
2.401640625 -0.9388796869721441 -0.49747991355679
2.4027890625 -0.9381961577241461 -0.4986809134987002
2.4039375 -0.9373462269098392 -0.5004942500641256
2.4050859375 -0.9363049169290473 -0.5020211133198508
2.406234375 -0.9359788726649836 -0.5034245126021469
2.4073828125 -0.9350533128687556 -0.5046633100695667
2.40853125 -0.9335357651494204 -0.5068776155254845
2.4096796875 -0.9325316718595312 -0.5083256193495933
2.410828125 -0.9315963191348783 -0.5093811210874022
2.4119765625 -0.9306812526696397 -0.510496026445822
2.413125 -0.9306057110557566 -0.512794664354418
2.4142734375 -0.9296495143394768 -0.5138351124155887
2.415421875 -0.9281387275322284 -0.5145286016718468
2.4165703125 -0.9272798486601498 -0.5170069772093194
2.41771875 -0.9261509579021585 -0.5186597410877412
2.4188671875 -0.9252011609835354 -0.5194166053638332
2.420015625 -0.9244940200903465 -0.5209909953007462
2.4211640625 -0.9245186725385628 -0.5225515289756903
2.4223125 -0.9237272263463123 -0.5240399012922524
2.4234609375 -0.9221128477969216 -0.5248692212483648
2.424609375 -0.9210885894393678 -0.5278361852084381
2.4257578125 -0.9200444667785271 -0.5288922007983387
2.42690625 -0.9188483326370465 -0.5298430684728026
2.4280546875 -0.9185680463007312 -0.5306252370331406
2.429203125 -0.918142347798752 -0.5330806901204691
2.4303515625 -0.9166169464186055 -0.534358392924013
2.4315 -0.9162175369711022 -0.5363082049169542
2.4326484375 -0.9147512486293 -0.5376325089857585
2.433796875 -0.9141078180896248 -0.5385827517063104
2.4349453125 -0.9129370541248163 -0.5396589601361057
2.43609375 -0.9121187841082673 -0.5406392726840268
2.4372421875 -0.9123172519539613 -0.5426116767975782
2.438390625 -0.9109834549041043 -0.5443303860849299
2.4395390625 -0.9099883130540835 -0.5459232194627976
2.4406875 -0.9094241332247599 -0.5452578741318206
2.4418359375 -0.9089001481594478 -0.5470590949518378
2.442984375 -0.9078734229713157 -0.548799415499192
2.4441328125 -0.9067949325990858 -0.5499314178773314
2.44528125 -0.9063081068472503 -0.5504842353559086
2.4464296875 -0.9052816878745309 -0.5526666182147421
2.447578125 -0.9044803724999383 -0.5538099353937412
2.4487265625 -0.9021101215590757 -0.5551506867536304
2.449875 -0.9023596756922901 -0.5575242442631771
2.4510234375 -0.9022208012099182 -0.558947803041191
2.452171875 -0.9005465037299847 -0.5590898995264959
2.4533203125 -0.8998679129629131 -0.560682041926544
2.45446875 -0.898864178155056 -0.5626974106906517
2.4556171875 -0.897609047320436 -0.5641347047753753
2.456765625 -0.8968918517197066 -0.5649732906557563
2.4579140625 -0.8952813610867759 -0.5664525444485902
2.4590625 -0.8949459601317147 -0.5684664026880561
2.4602109375 -0.8941809797681795 -0.5702431291714204
2.461359375 -0.8933183828006073 -0.5712777656441996
2.4625078125 -0.8928125249341962 -0.5732075763157884
2.46365625 -0.8918707204673553 -0.5739645192182778
2.4648046875 -0.8906973813750423 -0.5760951392403544
2.465953125 -0.889398648622053 -0.5777509985848003
2.4671015625 -0.8884958083263305 -0.5793155574144723
2.46825 -0.888421903871822 -0.5804159545679579
2.4693984375 -0.887475226720873 -0.5823246625044178
2.470546875 -0.8860649452311415 -0.5840246028901603
2.4716953125 -0.8855102605928598 -0.5853981937242341
2.47284375 -0.8850046432979752 -0.5874947743021351
2.4739921875 -0.88445749064276 -0.5888526355134112
2.475140625 -0.884515602887868 -0.5896258832670681
2.4762890625 -0.8832029318166328 -0.5918468439421504
2.4774375 -0.882223474756769 -0.5934597395416404
2.4785859375 -0.8806767735809128 -0.5949125132281078
2.479734375 -0.8801938124993498 -0.5964801625861628
2.4808828125 -0.8794298766956166 -0.5985418350274813
2.48203125 -0.8788723843840409 -0.5991027123425814
2.4831796875 -0.8788375668386407 -0.5999008057514905
2.484328125 -0.8776617894039942 -0.6023243308297781
2.4854765625 -0.8765966967085312 -0.6039984007004596
2.486625 -0.8752976804520424 -0.604200528089867
2.4877734375 -0.8744681019449682 -0.6059942217893743
2.488921875 -0.8736638891427558 -0.60683204407815
2.4900703125 -0.8729530269276957 -0.6082325670642492
2.49121875 -0.8721312302482622 -0.6097195068559325
2.4923671875 -0.8711220717695581 -0.6115802271004442
2.493515625 -0.8699546184975838 -0.6124598996440183
2.4946640625 -0.8685952964631386 -0.6139189390231821
2.4958125 -0.8676247127415612 -0.614631678920403
2.4969609375 -0.8664615752116398 -0.6162026770715807
2.498109375 -0.8651987761009525 -0.6168523743236067
2.4992578125 -0.8646304366481199 -0.618790287089126
2.50040625 -0.8622868778379476 -0.6199232557080187
2.5015546875 -0.8616843348595797 -0.6208234249450577
2.502703125 -0.8604061923802776 -0.6222848604137455
2.5038515625 -0.8591163098424777 -0.624398549456693
2.505 -0.8589266502229103 -0.6246877403548674
2.5061484375 -0.8576486896279903 -0.6266452042804066
2.507296875 -0.8563428476137696 -0.6273656309122398
2.5084453125 -0.8549261096193774 -0.6296224074810538
2.50959375 -0.8538902712368208 -0.6302299664491238
2.5107421875 -0.8526456819078937 -0.631105243848427
2.511890625 -0.8517399487019293 -0.6326053337513116
2.5130390625 -0.8514463565748379 -0.6330372098940926
2.5141875 -0.8499675323397442 -0.6342879695171179
2.5153359375 -0.8490582153903222 -0.6360134264993123
2.516484375 -0.8475948754788369 -0.6370604274187422
2.5176328125 -0.8469868304998357 -0.6390603126520278
2.51878125 -0.8458188111021876 -0.6404923751524048
2.5199296875 -0.8461758330001506 -0.6412803157128565
2.521078125 -0.8449861231314767 -0.6431620793118913
2.5222265625 -0.8436352882444658 -0.6443441790407081
2.523375 -0.8428583531181673 -0.6452544895156713
2.5245234375 -0.8418897076091876 -0.6456858872645259
2.525671875 -0.840992445796996 -0.6475528462286753
2.5268203125 -0.8400814561912354 -0.649366598280833
2.52796875 -0.8388967204884115 -0.6502162515459295
2.5291171875 -0.8380194825763809 -0.6515405094316182
2.530265625 -0.8363994246565015 -0.6533601821104962
2.5314140625 -0.8361049821257741 -0.6540037243097868
2.5325625 -0.8346004765242849 -0.65516822745175
2.5337109375 -0.8334940760628383 -0.657374035932533
2.534859375 -0.8322412181400273 -0.6587257938668737
2.5360078125 -0.8318098603351715 -0.6596791131080846
2.53715625 -0.830965736655175 -0.6610990495497712
2.5383046875 -0.8296328015644465 -0.6629916577415436
2.539453125 -0.828751986504662 -0.6638434253810583
2.5406015625 -0.8273194755105306 -0.6647980481032785
2.54175 -0.8270079191264412 -0.6663287281404455
2.5428984375 -0.8262102734521446 -0.6666512968911651
2.544046875 -0.8245070471129108 -0.6682152422548201
2.5451953125 -0.8234263353895532 -0.6692741672557762
2.54634375 -0.8227709394464553 -0.6703343567827
2.5474921875 -0.82170048873857 -0.6720896775257125
2.548640625 -0.8211204095358925 -0.674048298907248
2.5497890625 -0.8192096365871738 -0.6756857473750297
2.5509375 -0.8185605463872505 -0.6761892674904902
2.5520859375 -0.8170286835877514 -0.6775081964354561
2.553234375 -0.8163547368474667 -0.679051790310774
2.5543828125 -0.8152336209332622 -0.6795682698344543
2.55553125 -0.8146161707719564 -0.6812340998225308
2.5566796875 -0.8126199360873744 -0.6826470609016297
2.557828125 -0.8118071802871532 -0.684164715071397
2.5589765625 -0.8105314868826898 -0.6858382425196224
2.560125 -0.809342584116141 -0.6874892857642256
2.5612734375 -0.8091893191600232 -0.6881311916409656
2.562421875 -0.8080381782783853 -0.6896771105992081
2.5635703125 -0.8064494441956355 -0.6906358710813082
2.56471875 -0.805632967141283 -0.6921488695227911
2.5658671875 -0.8038055627111916 -0.6926530087206928
2.567015625 -0.8030928002693444 -0.6944831420824736
2.5681640625 -0.8018559945103811 -0.6959174826788399
2.5693125 -0.8011380596739526 -0.6969269580479209
2.5704609375 -0.7990302590117788 -0.6981203172695682
2.571609375 -0.7980362414636584 -0.6985156477793671
2.5727578125 -0.7972893826808433 -0.6992980761868595
2.57390625 -0.795325827524014 -0.7007910921198663
2.5750546875 -0.7945190728772106 -0.7027410850694976
2.576203125 -0.7933294928263928 -0.7033616966236852
2.5773515625 -0.7927791610981726 -0.7049925107228082
2.5785 -0.7915403867099434 -0.705932806299731
2.5796484375 -0.7902496660255619 -0.7068180720425319
2.580796875 -0.7887201503592873 -0.7079495747089699
2.5819453125 -0.7878101696675065 -0.7097379741660121
2.58309375 -0.7866498593152281 -0.7114004140321342
2.5842421875 -0.785884118850626 -0.7115091062389778
2.585390625 -0.7842187943127861 -0.7131437008247339
2.5865390625 -0.7835641884504022 -0.714988296700239
2.5876875 -0.782455676557818 -0.7157236187066318
2.5888359375 -0.7816950876036317 -0.7163528994420838
2.589984375 -0.7799000776003844 -0.7176930153173777
2.5911328125 -0.7790534876898072 -0.718956495889911
2.59228125 -0.7784617598582552 -0.7195278832967974
2.5934296875 -0.7769624456674072 -0.7209705957127612
2.594578125 -0.7758328338345848 -0.7223815101260169
2.5957265625 -0.7750632471332436 -0.7236397195481491
2.596875 -0.7743267105708486 -0.7253213289780446
2.5980234375 -0.7727104925373434 -0.7263833605761463
2.599171875 -0.7715063391932735 -0.7272682881262577
2.6003203125 -0.7701103572517617 -0.7283839883602821
2.60146875 -0.7684854157344884 -0.7301429824538745
2.6026171875 -0.7675011090780437 -0.7316370645775356
2.603765625 -0.7665703076044673 -0.7330761885520936
2.6049140625 -0.7661299282056256 -0.7338598432131058
2.6060625 -0.7649621895401496 -0.735129939359787
2.6072109375 -0.7632946245588841 -0.7360374920833018
2.608359375 -0.7623210877547288 -0.7371040002352518
2.6095078125 -0.7612396326918932 -0.7385841060825874
2.61065625 -0.7609086143558514 -0.7392731682570138
2.6118046875 -0.7583758807391643 -0.7406309810292377
2.612953125 -0.7574141800831293 -0.7422445677626732
2.6141015625 -0.7560620662381288 -0.7433053921806433
2.61525 -0.7542927168244802 -0.74447237778056
2.6163984375 -0.7536580779671633 -0.7455277724578411
2.617546875 -0.7532458910494638 -0.7478935972903964
2.6186953125 -0.7521161259126454 -0.7485587468282539
2.61984375 -0.7511545511110681 -0.7498454213128385
2.6209921875 -0.7499083491972326 -0.7507701570894099
2.622140625 -0.7494013470719566 -0.7517180173695082
2.6232890625 -0.7470265837630417 -0.7528625546100622
2.6244375 -0.7469277939535568 -0.7534537961952149
2.6255859375 -0.747015293487211 -0.7541769439716766
2.626734375 -0.7454752049486292 -0.7561982499342205
2.6278828125 -0.7439898936448895 -0.7574010174829844
2.62903125 -0.7425208117929704 -0.7590438252257985
2.6301796875 -0.7408594321918167 -0.7597924528622897
2.631328125 -0.7386292381171309 -0.7607728465036947
2.6324765625 -0.7383699740977809 -0.7623519777080868
2.633625 -0.7360464759653792 -0.7629633984942126
2.6347734375 -0.7358856960255238 -0.7643301765979743
2.635921875 -0.7340881787298773 -0.7658574224708803
2.6370703125 -0.7336353558174624 -0.766093191063191
2.63821875 -0.7316474188820759 -0.7666212932522871
2.6393671875 -0.7310485545772537 -0.7688602593425626
2.640515625 -0.7289786626144218 -0.7698093563297782
2.6416640625 -0.7288000006540641 -0.7708960451149822
2.6428125 -0.7261226570979494 -0.7727520840712582
2.6439609375 -0.725882587271757 -0.77330919158786
2.645109375 -0.7255137443467188 -0.7739947350940648
2.6462578125 -0.7237984455705361 -0.7752757802400599
2.64740625 -0.7220433974374464 -0.7766077660565999
2.6485546875 -0.7207921524557259 -0.7770625331135776
2.649703125 -0.7193719954044722 -0.7782297021372652
2.6508515625 -0.7185447476349374 -0.7800558734630268
2.652 -0.7177869583570381 -0.7814989509360877
2.6531484375 -0.7157503267320925 -0.7821513494436065
2.654296875 -0.7143600112163491 -0.7833656014758781
2.6554453125 -0.7142442824217959 -0.7848270726226854
2.65659375 -0.7123978641676013 -0.7852182171610665
2.6577421875 -0.7108878432316921 -0.7865600361593835
2.658890625 -0.7099226056399982 -0.7875865541558051
2.6600390625 -0.708488279418571 -0.7884039961455154
2.6611875 -0.7073595354654253 -0.7900558441020599
2.6623359375 -0.7055285878157216 -0.7902458124646857
2.663484375 -0.7048419148296 -0.79177909544295
2.6646328125 -0.7036430389876336 -0.7922556243398292
2.66578125 -0.7018069247391722 -0.7939804379445901
2.6669296875 -0.7004059627226372 -0.7950431882957686
2.668078125 -0.7002079653657178 -0.7954165567826472
2.6692265625 -0.6981321105233925 -0.7973524604004482
2.670375 -0.6962174494320472 -0.7985142989139425
2.6715234375 -0.6955897018736017 -0.7991122053979722
2.672671875 -0.6944380669779545 -0.7997079284605971
2.6738203125 -0.6934794634091003 -0.8011871243117783
2.67496875 -0.6920402132116984 -0.8029409297047323
2.6761171875 -0.6904825971838046 -0.8038950683033617
2.677265625 -0.6894641074598874 -0.8047502935948168
2.6784140625 -0.6883786150558602 -0.8049706120326214
2.6795625 -0.6868576294072868 -0.8056962181096644
2.6807109375 -0.68459099497632 -0.8063929705534981
2.681859375 -0.6842084283839376 -0.8078303412388959
2.6830078125 -0.6836919628616913 -0.8087323331605724
2.68415625 -0.6819662979459367 -0.8102425855494183
2.6853046875 -0.6806890783481367 -0.8108761320056933
2.686453125 -0.6794105654986515 -0.811710961846345
2.6876015625 -0.6779695486077584 -0.8126641741838903
2.68875 -0.67703070391935 -0.8141516268517475
2.6898984375 -0.6750062162193835 -0.8154893297257192
2.691046875 -0.6740492664871819 -0.8173841552408023
2.6921953125 -0.6731096834117641 -0.8176937844735881
2.69334375 -0.6719611411068774 -0.8187341205943767
2.6944921875 -0.6705995537676426 -0.8193491781092392
2.695640625 -0.6692946017761666 -0.8210279300949268
2.6967890625 -0.6689171431790573 -0.8218597090671621
2.6979375 -0.6673831825949454 -0.8228325826701531
2.6990859375 -0.6652454123747993 -0.8240723832242609
2.700234375 -0.6651797259852429 -0.8252467975209441
2.7013828125 -0.6642921489346836 -0.8258117990665521
2.70253125 -0.6629249390570371 -0.8275428236870798
2.7036796875 -0.6609361344028454 -0.8271541807049564
2.704828125 -0.6600256640166903 -0.8290829186215156
2.7059765625 -0.6593189598497133 -0.8291989262042826
2.707125 -0.6567824291888967 -0.8302895486572258
2.7082734375 -0.6562186419112457 -0.8311626717481293
2.709421875 -0.6552909500022082 -0.8315833919017442
2.7105703125 -0.6535421325650991 -0.832705185556533
2.71171875 -0.6531920181161517 -0.8340688138287181
2.7128671875 -0.6515151313232592 -0.8332769628064918
2.714015625 -0.6503035602118695 -0.8353562737984207
2.7151640625 -0.6479521534671053 -0.8371044702194441
2.7163125 -0.6472188627523925 -0.8374923890159154
2.7174609375 -0.6468977167902072 -0.8378731945953747
2.718609375 -0.6449579016548881 -0.8385286331879247
2.7197578125 -0.6440524363343462 -0.8395303096654366
2.72090625 -0.6416848057500306 -0.840749323798537
2.7220546875 -0.6408667958817688 -0.8418224530891717
2.723203125 -0.6402341411817041 -0.8426201928156605
2.7243515625 -0.6394606102634481 -0.843631320186295
2.7255 -0.637197022029012 -0.8456582808764639
2.7266484375 -0.6354273288909018 -0.8462914089775031
2.727796875 -0.6348547736312962 -0.8471839623887727
2.7289453125 -0.6333610441342628 -0.8483300898492173
2.73009375 -0.6324524707336693 -0.8490461844068748
2.7312421875 -0.6320132513222118 -0.8499981547209532
2.732390625 -0.6301046770749692 -0.8511365927013022
2.7335390625 -0.6288200343812135 -0.8517835705802186
2.7346875 -0.6271187964852746 -0.8522194380789195
2.7358359375 -0.6257082574966388 -0.8539290185893044
2.736984375 -0.6236105250277921 -0.8551921908460074
2.7381328125 -0.6227692747777404 -0.8563193858975042
2.73928125 -0.6222795144139714 -0.8568348402731168
2.7404296875 -0.6204039596306196 -0.8594656914334969
2.741578125 -0.6190753331097016 -0.860485438870066
2.7427265625 -0.618107223449846 -0.8601229231794136
2.743875 -0.6169064206786726 -0.8621491999989435
2.7450234375 -0.6155360346824891 -0.8628234029346677
2.746171875 -0.6144904102857598 -0.8632094216367228
2.7473203125 -0.6121426694179511 -0.8644471618669325
2.74846875 -0.6104472020714734 -0.8650613857726587
2.7496171875 -0.6092306337718625 -0.8665840736047512
2.750765625 -0.608730627544717 -0.8669306927771983
2.7519140625 -0.6075936639710926 -0.8688795805726315
2.7530625 -0.606326579336675 -0.8700873347250025
2.7542109375 -0.6048709877364182 -0.870611831565111
2.755359375 -0.602943226693243 -0.871809134411057
2.7565078125 -0.6013359088641106 -0.8721222074897617
2.75765625 -0.599718472963844 -0.8729060900922514
2.7588046875 -0.598547117860929 -0.8735444042911812
2.759953125 -0.5975594897003973 -0.8734344960595506
2.7611015625 -0.596841142118036 -0.874940163903359
2.76225 -0.5949340585083642 -0.8763900711977521
2.7633984375 -0.5932234589326453 -0.8778210223680826
2.764546875 -0.5924927867358762 -0.8783029652274897
2.7656953125 -0.5909268054766719 -0.8780117251375567
2.76684375 -0.5895255692478086 -0.8791985819252095
2.7679921875 -0.587924688120088 -0.8807450883942687
2.769140625 -0.5868257455482145 -0.8808817163897786
2.7702890625 -0.5845697633167517 -0.8821976801274475
2.7714375 -0.5823208237958559 -0.8831790597733427
2.7725859375 -0.5811134145241926 -0.8839151824844562
2.773734375 -0.5792080591127247 -0.8843791252272897
2.7748828125 -0.5780132806710689 -0.885332772021791
2.77603125 -0.5761943272739842 -0.8868146700673157
2.7771796875 -0.5749394390233851 -0.887186928458509
2.778328125 -0.5729114273113622 -0.8882629764129772
2.7794765625 -0.5719962544236449 -0.8892911320605765
2.780625 -0.5709599125285515 -0.8896302441543421
2.7817734375 -0.5695576603592536 -0.8906266065590017
2.782921875 -0.5670368122460593 -0.8915387892980651
2.7840703125 -0.5660887841536956 -0.8927057373875604
2.78521875 -0.564279753979025 -0.8938130486068365
2.7863671875 -0.5636298077746428 -0.8939640004751617
2.787515625 -0.5625368330577737 -0.895181669230656
2.7886640625 -0.5613674600214388 -0.8957842347790088
2.7898125 -0.5597888380867077 -0.8969702671077995
2.7909609375 -0.5585017122065697 -0.89744040169696
2.792109375 -0.558232257089165 -0.8985076125413866
2.7932578125 -0.5564233652077877 -0.8999621316038335
2.79440625 -0.5556092640448058 -0.9002283993456093
2.7955546875 -0.5555571453321102 -0.900940779894521
2.796703125 -0.5536181842504053 -0.9022846261334876
2.7978515625 -0.5511876213034844 -0.9031965752855579
2.799 -0.5500663159430482 -0.9039223368814633
2.8001484375 -0.5495217528846712 -0.9051256809185199
2.801296875 -0.5480407551708044 -0.906085090771191
2.8024453125 -0.5460818083117898 -0.9073046931868802
2.80359375 -0.5447771172685255 -0.9084557888364123
2.8047421875 -0.5447061852634681 -0.9093857847556289
2.805890625 -0.5424304007192 -0.9096751203342217
2.8070390625 -0.5404972445276488 -0.9099721324407204
2.8081875 -0.5392110814882007 -0.9108274834028399
2.8093359375 -0.5378341850357556 -0.9123045308566844
2.810484375 -0.537989773780913 -0.9125437794406621
2.8116328125 -0.5359930202846066 -0.914021925835044
2.81278125 -0.5349337311403237 -0.9146919055403454
2.8139296875 -0.5342980051525017 -0.915135005168279
2.815078125 -0.5331918185027902 -0.9158877221783674
2.8162265625 -0.5317910481355546 -0.9165357950126941
2.817375 -0.5304869396495417 -0.9175827666054165
2.8185234375 -0.5299117859636764 -0.9188560824936409
2.819671875 -0.5276470324746789 -0.9200690074151384
2.8208203125 -0.5257743588546512 -0.9200110624442498
2.82196875 -0.5248785679598847 -0.9202038109121213
2.8231171875 -0.5229767906489784 -0.9205650976507104
2.824265625 -0.5220348609568611 -0.9208472393953437
2.8254140625 -0.5203527250049523 -0.9219277292111046
2.8265625 -0.518769143670014 -0.9227976225432099
2.8277109375 -0.5169162895085325 -0.9243403760419345
2.828859375 -0.5158316682870975 -0.9251031418723199
2.8300078125 -0.5130449512357331 -0.9255864990778395
2.83115625 -0.5121086115450526 -0.9266508503234197
2.8323046875 -0.5104017142905132 -0.9275878478051379
2.833453125 -0.5097034850567939 -0.9282357760895016
2.8346015625 -0.5080810798355482 -0.9285630314577668
2.83575 -0.5060086106974002 -0.9292423646454618
2.8368984375 -0.5039709662898136 -0.9303436141115964
2.838046875 -0.5029376212070779 -0.9297064218184821
2.8391953125 -0.5008433024506691 -0.9313735219694939
2.84034375 -0.5006112493399248 -0.9320097114515733
2.8414921875 -0.4992009199262859 -0.9336125054115875
2.842640625 -0.49602451951655274 -0.9341226136120773
2.8437890625 -0.4941451698814099 -0.935701068335474
2.8449375 -0.49285581148586977 -0.9357695523536821
2.8460859375 -0.4918283022772999 -0.9364717059570736
2.847234375 -0.4909262754380663 -0.9378680988796998
2.8483828125 -0.48946440494756704 -0.9373066518405297
2.84953125 -0.4872129027038746 -0.9392011300093881
2.8506796875 -0.48601498625085093 -0.9397667996776562
2.851828125 -0.4849999644920299 -0.9408849054663715
2.8529765625 -0.48248998210652067 -0.9412890008806517
2.854125 -0.48087142407910755 -0.9418121373194367
2.8552734375 -0.47926562321776306 -0.942347167632034
2.856421875 -0.47838920925569106 -0.9428154679654044
2.8575703125 -0.47654845132834467 -0.9425819790168155
2.85871875 -0.4753131843397015 -0.944557205783522
2.8598671875 -0.4731971367171275 -0.9455772976342727
2.861015625 -0.47235937511912535 -0.9481102041988052
2.8621640625 -0.4705888950842022 -0.9465069390948463
2.8633125 -0.47026805689418283 -0.9450719423176002
2.8644609375 -0.4701567851972532 -0.9460434804232507
2.865609375 -0.46836377468161083 -0.9478884903656729
2.8667578125 -0.466708477553398 -0.9489268574634222
2.86790625 -0.46514604008918187 -0.9493098250262695
2.8690546875 -0.46312023201956054 -0.9484699535360742
2.870203125 -0.4621270139487219 -0.9494054211557279
2.8713515625 -0.46083535165794964 -0.9505007114685803
2.8725 -0.45808766370767995 -0.9525294728133337
2.8736484375 -0.4559406556912343 -0.9535995451568771
2.874796875 -0.4537854821142041 -0.9540995092149229
2.8759453125 -0.45413532332928885 -0.9544325745402101
2.87709375 -0.45367458112848125 -0.9545351126847584
2.8782421875 -0.4524167725485714 -0.954729195004973
2.879390625 -0.45007193199573464 -0.9549441648950805
2.8805390625 -0.4484845602213171 -0.956435488856172
2.8816875 -0.44803393735259417 -0.9570711591075869
2.8828359375 -0.44740621292242494 -0.9575146389301803
2.883984375 -0.4448033183546663 -0.958141921330671
2.8851328125 -0.4440225549327032 -0.959363061668097
2.88628125 -0.4435330252574267 -0.959647109742372
2.8874296875 -0.44191719316831757 -0.9600874822690746
2.888578125 -0.4407161715593568 -0.9618879440905042
2.8897265625 -0.4390077605193213 -0.963027803106361
2.890875 -0.4366179818464264 -0.9637680938981008
2.8920234375 -0.43543788259097843 -0.9635834950434886
2.893171875 -0.4341755029472084 -0.9639806656293002
2.8943203125 -0.4324901632204977 -0.9653739949647757
2.89546875 -0.4307281062535462 -0.9660324534883865
2.8966171875 -0.4298745067110633 -0.965938260605668
2.897765625 -0.42955206883581804 -0.9670069333779364
2.8989140625 -0.4285884422610091 -0.9674127719528272
2.9000625 -0.4268449903544008 -0.96715904931359
2.9012109375 -0.4243627590380128 -0.967689354942625
2.902359375 -0.4221031596453143 -0.969932581913651
2.9035078125 -0.42062799125653877 -0.970838514492393
2.90465625 -0.42102654720861354 -0.9696147540236375
2.9058046875 -0.41926436650646237 -0.970771299768409
2.906953125 -0.41740574831285715 -0.9716300790866392
2.9081015625 -0.41546835926150966 -0.9726688533116197
2.90925 -0.41279130846689915 -0.9735541824018941
2.9103984375 -0.4112952634013004 -0.9743693708124912
2.911546875 -0.41002500515624357 -0.975122337349416
2.9126953125 -0.4080258538726914 -0.9753616023519616
2.91384375 -0.4066352198574787 -0.9772567365447133
2.9149921875 -0.40548044531487787 -0.9776010470115888
2.916140625 -0.4034410649926113 -0.9785696517083265
2.9172890625 -0.4029153685569622 -0.9784612811895916
2.9184375 -0.40172100526073035 -0.9785788154779401
2.9195859375 -0.39925776071469565 -0.9791983442236408
2.920734375 -0.3972315901266584 -0.9799407609459798
2.9218828125 -0.39591237108554056 -0.9803543698730937
2.92303125 -0.394741672792575 -0.9816883395467656
2.9241796875 -0.39280033982847934 -0.9826207562312396
2.925328125 -0.39140537420631516 -0.982930219867564
2.9264765625 -0.3905475399832288 -0.9837891278522299
2.927625 -0.3887218004757861 -0.9847128567634694
2.9287734375 -0.3867503918386416 -0.9854437456151381
2.929921875 -0.3849617257005375 -0.9855871988439032
2.9310703125 -0.3839188645354074 -0.9854372834919135
2.93221875 -0.38219457049359407 -0.9865106811420694
2.9333671875 -0.3807336560265544 -0.9866006381258277
2.934515625 -0.3793498930049407 -0.9879108962431986
2.9356640625 -0.37781173841483195 -0.9874972635538926
2.9368125 -0.37613317149429587 -0.9882909905378071
2.9379609375 -0.3745713808336244 -0.9894069495756395
2.939109375 -0.373143851503687 -0.9893653988002291
2.9402578125 -0.37161387668796914 -0.9892545225302258
2.94140625 -0.3707433435759431 -0.9887493497177178
2.9425546875 -0.369860158135947 -0.9892656795843469
2.943703125 -0.3674755158379252 -0.9898866969805883
2.9448515625 -0.36561319265091297 -0.990770423410555
2.946 -0.3647238553900613 -0.9913251718272472
2.9471484375 -0.36402568517624007 -0.9918530014125432
2.948296875 -0.362074606324446 -0.9927604033483575
2.9494453125 -0.3611824072599853 -0.9935888384875186
2.95059375 -0.35991401364747516 -0.9937320613277445
2.9517421875 -0.3578089418268374 -0.9936560666708124
2.952890625 -0.356010378021483 -0.9941150669323298
2.9540390625 -0.3568837012373953 -0.9941575584324802
2.9551875 -0.35458813072042694 -0.9962240961828932
2.9563359375 -0.3524212270805791 -0.9963298784729345
2.957484375 -0.35058211434026587 -0.9976701426699974
2.9586328125 -0.3490535880475723 -0.9971959719527522
2.95978125 -0.34787009452331663 -0.9978758220484278
2.9609296875 -0.34746098226285627 -0.9987143364989737
2.962078125 -0.34563863001700273 -0.9995912039694044
2.9632265625 -0.34421406306586155 -1.0003141954025525
2.964375 -0.3429209089977577 -1.0004679225319708
2.9655234375 -0.3407063820239437 -1.0003263419875557
2.966671875 -0.3387457354510587 -1.0003723106929263
2.9678203125 -0.3380209696232961 -1.000742046293048
2.96896875 -0.3363155819953013 -1.0000306408405526
2.9701171875 -0.3344230872974517 -1.002361167161349
2.971265625 -0.3329705872459878 -1.0030388791585962
2.9724140625 -0.33166199094354154 -1.003030375031341
2.9735625 -0.3298091860302311 -1.0034017302828246
2.9747109375 -0.3289032776404535 -1.0046429955589298
2.975859375 -0.32713903463491123 -1.005311118187542
2.9770078125 -0.32643727573176473 -1.0044276333495268
2.97815625 -0.3248876776292622 -1.0059127920860387
2.9793046875 -0.32279212526980133 -1.0067531056914798
2.980453125 -0.3209472551725947 -1.006135924891282
2.9816015625 -0.3185721255746027 -1.007517017364094
2.98275 -0.3171753469886546 -1.0080656153844205
2.9838984375 -0.31501111413471716 -1.0088649656444042
2.985046875 -0.3126998758983104 -1.0096525168095314
2.9861953125 -0.3115668087006147 -1.010082860112624
2.98734375 -0.30973511355561917 -1.0105174723713526
2.9884921875 -0.30845763473536475 -1.0114167038715838
2.989640625 -0.3070622951275435 -1.0122589974902976
2.9907890625 -0.30494690598835833 -1.0125954927203626
2.9919375 -0.304222793812592 -1.0128763361018618
2.9930859375 -0.30216312943270984 -1.0139818130121963
2.994234375 -0.29959356203717513 -1.0145606032394652
2.9953828125 -0.29868277235924834 -1.0150999091186752
2.99653125 -0.2968587743336557 -1.015749829808623
2.9976796875 -0.29542762848935805 -1.0158260571612892
2.998828125 -0.294857619069272 -1.015830568833038
2.9999765625 -0.29304121850175036 -1.0157334837282272
3.001125 -0.29035032776134184 -1.0163616350820721
3.0022734375 -0.2896301155188165 -1.0164383258891247
3.003421875 -0.2872747134966861 -1.0173644193621165
3.0045703125 -0.28538995146557333 -1.01802021541219
3.00571875 -0.28388001018766074 -1.0186758317665296
3.0068671875 -0.28205218537652066 -1.0189576887482634
3.008015625 -0.27980024374118895 -1.018861097794988
3.0091640625 -0.2782195857835302 -1.0189701234965116
3.0103125 -0.2781788577235639 -1.0194945064576437
3.0114609375 -0.27565350604098315 -1.0208235688701215
3.012609375 -0.2738967432863117 -1.0210538318239646
3.0137578125 -0.273304966789929 -1.02111481428266
3.01490625 -0.27224217784515026 -1.0213090395489848
3.0160546875 -0.2700949475710633 -1.0214305395018042
3.017203125 -0.2694241715949507 -1.020863797560094
3.0183515625 -0.2674554332950664 -1.021454011420666
3.0195 -0.2660659116514951 -1.0216343656136073
3.0206484375 -0.2640901800271009 -1.0219951781477516
3.021796875 -0.26348816928586355 -1.022342667969834
3.0229453125 -0.2618463956034533 -1.0223048606479832
3.02409375 -0.25998205738058444 -1.0215019512786871
3.0252421875 -0.2588140066377234 -1.0225978408652874
3.026390625 -0.2572083530861504 -1.0237340415507958
3.0275390625 -0.2558337364295985 -1.0249021755856191
3.0286875 -0.2545406093477826 -1.0257861443915917
3.0298359375 -0.25291819950689803 -1.0239998876643717
3.030984375 -0.2512063667390792 -1.024917155950557
3.0321328125 -0.24960113735501865 -1.0253438444265086
3.03328125 -0.2483726827048397 -1.0251921044062144
3.0344296875 -0.2471911257128241 -1.025867845004738
3.035578125 -0.24730143990107492 -1.026315527551798
3.0367265625 -0.245184361492077 -1.026267525268998
3.037875 -0.242639373344612 -1.0273185199411323
3.0390234375 -0.24251712052525598 -1.0269237017088833
3.040171875 -0.24101431373069063 -1.0276109253891557
3.0413203125 -0.2383756268723694 -1.0291482242012389
3.04246875 -0.23678117703407692 -1.030161652496745
3.0436171875 -0.2368769964924582 -1.029822678493783
3.044765625 -0.2349600329404793 -1.030420414539826
3.0459140625 -0.23335788404724395 -1.0308738064976044
3.0470625 -0.2308468759292076 -1.0316189011335213
3.0482109375 -0.22934139146275853 -1.0317676918016414
3.049359375 -0.22808525349107905 -1.0320337601869696
3.0505078125 -0.22631230707722202 -1.0325096257850543
3.05165625 -0.22553803212419032 -1.0339349668354736
3.0528046875 -0.22384890993451112 -1.034592302498081
3.053953125 -0.22140051658515691 -1.0339048125290828
3.0551015625 -0.2196991253392594 -1.0344640264128546
3.05625 -0.21879689297736765 -1.0346414506395434
3.0573984375 -0.21712083200644 -1.034694516116515
3.058546875 -0.21689790769356532 -1.0348905480487551
3.0596953125 -0.21488811565331184 -1.0351909387104543
3.06084375 -0.21175662833895087 -1.0346342471926258
3.0619921875 -0.21066062717872341 -1.0343172072551599
3.063140625 -0.20962819176591302 -1.0348629480469902
3.0642890625 -0.2079571054936832 -1.0349864752457467
3.0654375 -0.2054130783660103 -1.0354759701014038
3.0665859375 -0.20326127465842672 -1.035621747717952
3.067734375 -0.20233068742818955 -1.03682393567622
3.0688828125 -0.2016472920325349 -1.0372237106957554
3.07003125 -0.20018280212500308 -1.0374800778997493
3.0711796875 -0.19857342277570345 -1.0378071364505033
3.072328125 -0.19657229946780352 -1.0391584159205298
3.0734765625 -0.1944396923845296 -1.0393876249737137
3.074625 -0.19259527831779805 -1.038744160799027
3.0757734375 -0.19113413279937513 -1.0385443440756101
3.076921875 -0.18877313319730119 -1.039123456887841
3.0780703125 -0.18822745178210665 -1.0394286123154095
3.07921875 -0.1862454788862755 -1.03987510826071
3.0803671875 -0.18499289863947435 -1.0396936356860578
3.081515625 -0.18427846716592933 -1.0397855469042137
3.0826640625 -0.1821623652750921 -1.0401386607441028
3.0838125 -0.18006697367699626 -1.0409649565676837
3.0849609375 -0.17902443732474618 -1.040650176349828
3.086109375 -0.17665304201295146 -1.040769908550165
3.0872578125 -0.17520712969622976 -1.0419258173599166
3.08840625 -0.17350217381048189 -1.0402721390217686
3.0895546875 -0.17168555537944474 -1.0403259623335983
3.090703125 -0.16988637137641774 -1.0409202853488997
3.0918515625 -0.1685032673170068 -1.041860099617799
3.093 -0.16795369709607627 -1.0416857081904514
3.0941484375 -0.16638931057815087 -1.0411008618066335
3.095296875 -0.16400120231368182 -1.0419755993274156
3.0964453125 -0.16345278299781757 -1.0429818451082038
3.09759375 -0.16163920636659704 -1.0424449560283466
3.0987421875 -0.16051419236300388 -1.0423446022271963
3.099890625 -0.15962882771594947 -1.0422171747269646
3.1010390625 -0.1591625044258873 -1.042805309135881
3.1021875 -0.15661146629287487 -1.0423598915095762
3.1033359375 -0.1561012236887936 -1.0422749450440383
3.104484375 -0.15566970210365766 -1.043101252472271
3.1056328125 -0.15353931651128022 -1.0423570254444003
3.10678125 -0.1512622926474988 -1.0431795996878974
3.1079296875 -0.15011329743540494 -1.0429122267721866
3.109078125 -0.1474051435088956 -1.0429746964852815
3.1102265625 -0.14679618114173007 -1.0430377066999512
3.111375 -0.1450683207638306 -1.0435194571513993
3.1125234375 -0.14269084522706482 -1.043190546958057
3.113671875 -0.14142895423649168 -1.0432999969804773
3.1148203125 -0.13859746908016218 -1.0439969877594106
3.11596875 -0.13828848170395708 -1.0436042265205232
3.1171171875 -0.1353714068359809 -1.0434286772190817
3.118265625 -0.13430114396138465 -1.0439482274400267
3.1194140625 -0.13340618504500074 -1.0444474185918395
3.1205625 -0.13065613798651277 -1.0452199239624351
3.1217109375 -0.12875175668033745 -1.046132259304862
3.122859375 -0.12656139255497598 -1.0463312994073646
3.1240078125 -0.12654196112072286 -1.046197835317109
3.12515625 -0.12497937610828233 -1.0461366731434696
3.1263046875 -0.12292274524755477 -1.0463765698104677
3.127453125 -0.12096773698415372 -1.0464015600797705
3.1286015625 -0.12047700664656656 -1.0469643788408627
3.12975 -0.11837470645880059 -1.0466784885287992
3.1308984375 -0.11704544235488562 -1.0463976556812755
3.132046875 -0.11474591469677795 -1.0471207422258373
3.1331953125 -0.11324786263661879 -1.047369810630863
3.13434375 -0.11257028984354728 -1.0466955369822193
3.1354921875 -0.11057247349381868 -1.0468999138729824
3.136640625 -0.10884333375002954 -1.0471825355584
3.1377890625 -0.10642682950669757 -1.0479860623332358
3.1389375 -0.10510924444530356 -1.0471424700179977
3.1400859375 -0.10348785150193995 -1.0484895750100105
3.141234375 -0.10163062613780936 -1.0486564276719543
3.1423828125 -0.09958431260260762 -1.0490942668505743
3.14353125 -0.09809411475037738 -1.0492400245228795
3.1446796875 -0.09672468189153517 -1.0499980069113959
3.145828125 -0.09558066432146459 -1.0495541889254332
3.1469765625 -0.09409581325925441 -1.0495895690645063
3.148125 -0.09150283728088013 -1.0498932490314228
3.1492734375 -0.09055831918718624 -1.0500424828679942
3.150421875 -0.08829413178653621 -1.050129045603536
3.1515703125 -0.0865549347437081 -1.049747473763745
3.15271875 -0.08547094807887398 -1.0497303281943746
3.1538671875 -0.08481401007908577 -1.0500795243953416
3.155015625 -0.08185038919348891 -1.0512430137059574
3.1561640625 -0.08059453086857536 -1.0512201718594738
3.1573125 -0.07985933882371885 -1.0509729110894712
3.1584609375 -0.07760707653407592 -1.0507713500660347
3.159609375 -0.07570714449553458 -1.0503263195072612
3.1607578125 -0.07563831554279002 -1.0504818602246335
3.16190625 -0.07306636251430407 -1.050398117590718
3.1630546875 -0.07086645051521959 -1.0501083575919135
3.164203125 -0.06979671159557349 -1.0519138736782274
3.1653515625 -0.06814082393616702 -1.051022024385399
3.1665 -0.06541760982888746 -1.0518486883269955
3.1676484375 -0.06456309765264702 -1.050903151997416
3.168796875 -0.06386701393733299 -1.0518832151228001
3.1699453125 -0.061533472680973596 -1.0517914758368476
3.17109375 -0.060696342291761504 -1.0522780440662234
3.1722421875 -0.058525713931421024 -1.0514084018748941
3.173390625 -0.05657734980520966 -1.0519881996768363
3.1745390625 -0.055536827382017664 -1.0516889076271425
3.1756875 -0.05334283676094169 -1.05223517965495
3.1768359375 -0.05144672751352705 -1.0529317166541456
3.177984375 -0.05039320456529455 -1.0525383375807877
3.1791328125 -0.04814435658723287 -1.052722036812422
3.18028125 -0.047997681780504835 -1.0523827549987896
3.1814296875 -0.04634392761724084 -1.0517896403287206
3.182578125 -0.04552186413792644 -1.0522901520800716
3.1837265625 -0.04450041483148705 -1.0524954238825845
3.184875 -0.04174270882230017 -1.0526987105247003
3.1860234375 -0.040397496933611714 -1.0524461693544964
3.187171875 -0.03862796242195626 -1.0513399592851038
3.1883203125 -0.03814894632100033 -1.0527542398572383
3.18946875 -0.03576796667878362 -1.0519059935186112
3.1906171875 -0.03461180371640786 -1.052524383189083
3.191765625 -0.03267546791266093 -1.0529049897990468
3.1929140625 -0.031108689963999136 -1.0532107247070108
3.1940625 -0.03012707829238498 -1.0533295585289566
3.1952109375 -0.02854036212415554 -1.0526960608146243
3.196359375 -0.026602528620545518 -1.0535634082822312
3.1975078125 -0.024415155049581812 -1.0536924257318383
3.19865625 -0.024416332491603243 -1.0539037087805279
3.1998046875 -0.02265949405689756 -1.0538776858562142
3.200953125 -0.021323146694047272 -1.0537811520564124
3.2021015625 -0.019976940862059173 -1.0533033989085183
3.20325 -0.018165817935781675 -1.0529439177004096
3.2043984375 -0.016082355749431135 -1.05325443532519
3.205546875 -0.014658824544726154 -1.0531608821481233
3.2066953125 -0.012794164808677885 -1.0530555427636088
3.20784375 -0.011153667811994603 -1.0530402629218434
3.2089921875 -0.009628258879133683 -1.0530510381811782
3.210140625 -0.007775479133256366 -1.0529321005891827
3.2112890625 -0.006498669413016689 -1.0533524410521524
3.2124375 -0.0053267973616789865 -1.0528726360563823
3.2135859375 -0.0036345471819093367 -1.0528244625433194
3.214734375 -0.0013107098087471458 -1.053135977375351
3.2158828125 0.0005433296470244153 -1.0529069696434983
3.21703125 0.0016769521017262201 -1.0531047662751054
3.2181796875 0.0025054750074422205 -1.0531418023276924
3.219328125 0.005017668549167589 -1.0533999096265783
3.2204765625 0.006944049163393973 -1.052664117776397
3.221625 0.0072208491576774975 -1.0528868445533448
3.2227734375 0.008922871889537998 -1.052356741479304
3.223921875 0.010515248096924806 -1.0524484838163872
3.2250703125 0.011925870052869825 -1.0519027781954493
3.22621875 0.013936333626336242 -1.0508775775681796
3.2273671875 0.015719110252141538 -1.0519042223309965
3.228515625 0.01652724797580249 -1.0519653679994772
3.2296640625 0.01850934654035069 -1.0513014277593349
3.2308125 0.020165615343003887 -1.0516278234291556
3.2319609375 0.021523849261792377 -1.051197754244896
3.233109375 0.022790461948163004 -1.0517826224362545
3.2342578125 0.0255386450286276 -1.0518380412040023
3.23540625 0.02656099098231235 -1.0514167048564471
3.2365546875 0.027397104042895082 -1.0507877682154474
3.237703125 0.0294012962135011 -1.0507882403489088
3.2388515625 0.031638142426867744 -1.0513607815941843
3.24 0.03305414155688324 -1.0511746958744208
3.2411484375 0.03464709999042928 -1.0513371616233544
3.242296875 0.036697096729159995 -1.0516988265370562
3.2434453125 0.037645007762040356 -1.0509073504322297
3.24459375 0.03922171753896231 -1.051066116480528
3.2457421875 0.04111249493693159 -1.0504971691743703
3.246890625 0.04321988757783973 -1.0505203442690303
3.2480390625 0.04382587744190308 -1.0497693265285937
3.2491875 0.045557680554113356 -1.050402939368726
3.2503359375 0.047581324238402056 -1.0500983880533576
3.251484375 0.04756052692818408 -1.0493242758936365
3.2526328125 0.04964822016229839 -1.0495284062681935
3.25378125 0.051276042880366884 -1.0492804802375826
3.2549296875 0.0526948375815397 -1.0488298977167296
3.256078125 0.05414631346456941 -1.0488440197918063
3.2572265625 0.056246336075153114 -1.0492408130778883
3.258375 0.05796495900596421 -1.0492329996702223
3.2595234375 0.059588661850935476 -1.0488038707966012
3.260671875 0.061379527600780526 -1.0494266575215652
3.2618203125 0.0626484725708335 -1.0487097930293827
3.26296875 0.0636111243847195 -1.0481962509052791
3.2641171875 0.06606310871895352 -1.048219553845868
3.265265625 0.06781266811156791 -1.047783259944958
3.2664140625 0.06851606688532602 -1.0471026927774856
3.2675625 0.06995429826215563 -1.0468830416139803
3.2687109375 0.07134544555149297 -1.047175356983374
3.269859375 0.07291375955468865 -1.047199730799938
3.2710078125 0.07466636985833747 -1.047010888242273
3.27215625 0.0761156046384579 -1.0465559482005578
3.2733046875 0.07762267845716413 -1.0464049528701191
3.274453125 0.07927975298997052 -1.0464825826704964
3.2756015625 0.08103853000868713 -1.046144687495466
3.27675 0.08303459012941852 -1.0454696072919207
3.2778984375 0.08366882476827428 -1.045164456772015
3.279046875 0.08577862960717075 -1.0449413888484727
3.2801953125 0.08745594353238853 -1.044893647897027
3.28134375 0.08970873190214669 -1.0449117308136153
3.2824921875 0.09118805077637845 -1.0450157840585843
3.283640625 0.09229689912935168 -1.0452179837062976
3.2847890625 0.09395160081724857 -1.0447887541288847
3.2859375 0.09558367908046998 -1.0445999552132392
3.2870859375 0.09746625876762843 -1.0443281422526076
3.288234375 0.09907050460194763 -1.0442479540790466
3.2893828125 0.10023131518755969 -1.0440276608670673
3.29053125 0.10115752669413369 -1.0449942566858998
3.2916796875 0.10288735221685921 -1.0442793738574623
3.292828125 0.10396859120190542 -1.0442860395680897
3.2939765625 0.10586894309135203 -1.0441891872655922
3.295125 0.10666289174350473 -1.042961865152663
3.2962734375 0.10738867389127225 -1.042570836691972
3.297421875 0.11025172790120254 -1.0428926105325276
3.2985703125 0.11228280809570379 -1.0434051129270463
3.29971875 0.11298572670162656 -1.0425124716853802
3.3008671875 0.11479812198637161 -1.043323246257988
3.302015625 0.1163513687036692 -1.0417845473970846
3.3031640625 0.11816538932568574 -1.0409179450650763
3.3043125 0.1191968981696102 -1.0417767370199058
3.3054609375 0.1206957402459326 -1.0409968523995112
3.306609375 0.12205953162454627 -1.0419578404596184
3.3077578125 0.12324864534646769 -1.0405416430131131
3.30890625 0.1253847576299562 -1.0411921833210471
3.3100546875 0.1273238452994769 -1.0405182803964959
3.311203125 0.12724074901161575 -1.0405289932673625
3.3123515625 0.13035639377330682 -1.0401589045011366
3.3135 0.13107523960324613 -1.039931377094111
3.3146484375 0.13279955227669787 -1.0402179147372357
3.315796875 0.13400236998320836 -1.0400382346982027
3.3169453125 0.1362745795468121 -1.0390804806780911
3.31809375 0.1377651745880632 -1.0387574145899878
3.3192421875 0.13823300755066392 -1.038251305298113
3.320390625 0.1404798942965538 -1.03788312313892
3.3215390625 0.1420231992159952 -1.0382900307997285
3.3226875 0.14316504505170283 -1.036945141209301
3.3238359375 0.1447015364870416 -1.0381830884923304
3.324984375 0.14655676667748235 -1.0385409455958283
3.3261328125 0.14775531704986328 -1.0378727566865507
3.32728125 0.14966080079155603 -1.0377001156186239
3.3284296875 0.15155588881382615 -1.03754072339417
3.329578125 0.15340645883731618 -1.0368265882016676
3.3307265625 0.15430817680388037 -1.037182411988451
3.331875 0.15603698838020447 -1.037369723880837
3.3330234375 0.15797861232428473 -1.0371836706427238
3.334171875 0.15923067776693628 -1.0367463390030087
3.3353203125 0.16110807900186017 -1.035950793254032
3.33646875 0.16213879274372403 -1.0356778281389163
3.3376171875 0.16349019816716434 -1.0348485081142818
3.338765625 0.16545062343387126 -1.0350234316176388
3.3399140625 0.16642416188877268 -1.0346448890114819
3.3410625 0.16872719285590557 -1.0342251592303184
3.3422109375 0.16947543697672418 -1.0340149572479673
3.343359375 0.17139632898909915 -1.0340647959742206
3.3445078125 0.17318910226461892 -1.0338009580152228
3.34565625 0.1741418955468027 -1.0334336478222441
3.3468046875 0.17558859241742844 -1.0325731569970302
3.347953125 0.17723289984856144 -1.0317900446180617
3.3491015625 0.1782790413106696 -1.0310486235788898
3.35025 0.18035700922431397 -1.0309915535550491
3.3513984375 0.18223281060957136 -1.030787649211278
3.352546875 0.1832736913015849 -1.0299756343413233
3.3536953125 0.18532544678747434 -1.029576206662533
3.35484375 0.18656314816272723 -1.029953858770264
3.3559921875 0.18848927720079423 -1.0294794316525013
3.357140625 0.18940389222063722 -1.0293651324286124
3.3582890625 0.1913416918440035 -1.0288323851194723
3.3594375 0.19383548534550366 -1.0297571064894386
3.3605859375 0.194341462801616 -1.0295683190308447
3.361734375 0.19531190097105638 -1.0290108018594484
3.3628828125 0.19831690196122384 -1.0282727656242845
3.36403125 0.19938949469870146 -1.0273655015693215
3.3651796875 0.20091947728117657 -1.0272774149377575
3.366328125 0.20255822781124214 -1.0274736105906823
3.3674765625 0.20349426490177372 -1.0268857315051974
3.368625 0.20467969139808403 -1.026357718578458
3.3697734375 0.2066345855148334 -1.0264818143936547
3.370921875 0.20881668329937478 -1.0269912505384402
3.3720703125 0.2096194091524801 -1.0250928423117447
3.37321875 0.21126581313824194 -1.0244462871885276
3.3743671875 0.2134114714025161 -1.0240189447725634
3.375515625 0.2144816547355411 -1.0236438582942515
3.3766640625 0.21624352177591566 -1.0238517407649892
3.3778125 0.21724554739876054 -1.0233600921898394
3.3789609375 0.21847381429785404 -1.0227887740083754
3.380109375 0.22102858435416833 -1.0221566212746733
3.3812578125 0.221954368504578 -1.0212666024354449
3.38240625 0.22373678670448371 -1.0210334461456962
3.3835546875 0.22565128972302584 -1.0209620129826777
3.384703125 0.2270933724885149 -1.0202556755673562
3.3858515625 0.2288379345704318 -1.020096997030622
3.387 0.22988475556465437 -1.0200972573496225
3.3881484375 0.23206493816608526 -1.0196969286467537
3.389296875 0.23320853773585043 -1.019607931902935
3.3904453125 0.23432043297671634 -1.0194148728456671
3.39159375 0.23604571964789967 -1.0191424245827143
3.3927421875 0.23744849875726826 -1.0191593189806707
3.393890625 0.23871929346623344 -1.0185905652029594
3.3950390625 0.24049388095403562 -1.018589740380648
3.3961875 0.24225551374067297 -1.0180479710609378
3.3973359375 0.24468217851534477 -1.0180150941525505
3.398484375 0.24646271168280431 -1.017798623070866
3.3996328125 0.24757000642964955 -1.017074143292792
3.40078125 0.2492152200293224 -1.0166913186513475
3.4019296875 0.2502330441826156 -1.0163670335429724
3.403078125 0.2516868390114309 -1.0158156827756486
3.4042265625 0.2539673453469521 -1.015000218323796
3.405375 0.25553651073185324 -1.014652791695507
3.4065234375 0.2562929944285517 -1.014983636864121
3.407671875 0.25820106189082037 -1.0143751841346416
3.4088203125 0.2605362885354952 -1.014252791192728
3.40996875 0.26207205951088863 -1.0137800938622463
3.4111171875 0.26389333348436106 -1.0138109621537827
3.412265625 0.26563473958439865 -1.0128114664230756
3.4134140625 0.26643457252505753 -1.012005823065208
3.4145625 0.2685869882936608 -1.0119904497858783
3.4157109375 0.2703977161928241 -1.0108689804369755
3.416859375 0.2701094963172896 -1.010948026857096
3.4180078125 0.27308814993501473 -1.0101512692421852
3.41915625 0.2744286162002616 -1.0099984162879099
3.4203046875 0.2753880681784348 -1.0099528388065036
3.421453125 0.2777171210374324 -1.0100268722093952
3.4226015625 0.2786301062894212 -1.0090471136397878
3.42375 0.2796576697214902 -1.0080280678398408
3.4248984375 0.28128941511775485 -1.0077390449527819
3.426046875 0.28238061743106824 -1.0082743328535668
3.4271953125 0.2840717414471803 -1.0084496959883202
3.42834375 0.2852766612720237 -1.0082321202912425
3.4294921875 0.2860827134639936 -1.007329291814139
3.430640625 0.28810257951853496 -1.0070444677218198
3.4317890625 0.2888269406151552 -1.0079445978648058
3.4329375 0.29180538790752 -1.006286936586683
3.4340859375 0.29274607736953073 -1.0064418543549456
3.435234375 0.2928605439115752 -1.006540783592317
3.4363828125 0.29461017416420276 -1.0053320780401909
3.43753125 0.2965708041158628 -1.0049037603649325
3.4386796875 0.2981485783736142 -1.0042937731606454
3.439828125 0.29817550460410874 -1.0045896957624563
3.4409765625 0.30107840589495327 -1.0029830901753654
3.442125 0.30237755379478054 -1.0019000732734795
3.4432734375 0.30229625140294436 -1.0011735179077252
3.444421875 0.3047260782700117 -1.0010107853646968
3.4455703125 0.30610689829220983 -1.0008019548080367
3.44671875 0.30739082648006144 -1.0005009327297691
3.4478671875 0.3086898667684187 -1.0004920531610293
3.449015625 0.31007944654131847 -0.9998809768292565
3.4501640625 0.31138112644282273 -0.9988651384219852
3.4513125 0.3129029786834092 -0.9980993083785505
3.4524609375 0.31483179836560105 -0.9976018371082555
3.453609375 0.31641042327956864 -0.9973741496677387
3.4547578125 0.31683413315088355 -0.9971618316538675
3.45590625 0.3186503126603674 -0.9959206931575233
3.4570546875 0.31987422648208563 -0.9952128867569311
3.458203125 0.32147028996650484 -0.9946607945917465
3.4593515625 0.3232339386015576 -0.9947398672125873
3.4605 0.3238602947558449 -0.9939449081765748
3.4616484375 0.3257622141835062 -0.9935149190934941
3.462796875 0.3273263848755841 -0.9932256401167744
3.4639453125 0.3283851967845025 -0.9929075904124314
3.46509375 0.3297552590098002 -0.9924003218896291
3.4662421875 0.33067251984401147 -0.9915798155586473
3.467390625 0.33286611810535693 -0.991105755546336
3.4685390625 0.3342811000468719 -0.9903441457353398
3.4696875 0.33485443188854463 -0.9896031843279454
3.4708359375 0.3368228893846711 -0.9886220604843861
3.471984375 0.3386282387543804 -0.9883455022855779
3.4731328125 0.3395948742810242 -0.9880935227219154
3.47428125 0.34082360861201266 -0.9875906197541107
3.4754296875 0.3424938450731708 -0.9873485792733905
3.476578125 0.34371366927803126 -0.9859766096513731
3.4777265625 0.34515982744828044 -0.9860359137390364
3.478875 0.34706332398022 -0.9859712796664573
3.4800234375 0.34873252213956385 -0.9853725313996973
3.481171875 0.34968063970903274 -0.9840845028292506
3.4823203125 0.3518016826124992 -0.9834105935461662
3.48346875 0.3537575293015101 -0.9827423780845352
3.4846171875 0.3545470901786476 -0.9826348403637727
3.485765625 0.35578359154434414 -0.9825378588816042
3.4869140625 0.35758085954943086 -0.982029420238268
3.4880625 0.35858324832077626 -0.981403049128265
3.4892109375 0.3594628280123088 -0.980473539973477
3.490359375 0.3622688296609957 -0.9788426426773473
3.4915078125 0.3633680590285141 -0.9789998530501495
3.49265625 0.3641957146298884 -0.9791149237217229
3.4938046875 0.36518933497151174 -0.9778028561514533
3.494953125 0.3675895964579907 -0.9780746613191525
3.4961015625 0.3680552429200833 -0.9775283824050004
3.49725 0.3698992735077677 -0.9768820035778536
3.4983984375 0.3713773300830494 -0.9763452538051882
3.499546875 0.3713221054271189 -0.9753544170760085
3.5006953125 0.37385522107076624 -0.9751963742546406
3.50184375 0.37505846105345464 -0.9739230491989593
3.5029921875 0.37692260960479396 -0.9738444200377163
3.504140625 0.3785711457362672 -0.9737154634532144
3.5052890625 0.3798634138590845 -0.9738444248216142
3.5064375 0.38093281577874555 -0.9724981140583333
3.5075859375 0.38183947199260915 -0.9723793358589199
3.508734375 0.38356741586782606 -0.9714913752194984
3.5098828125 0.3856336644542754 -0.9708250034694226
3.51103125 0.3868351101556447 -0.9704763969495076
3.5121796875 0.3885809667573196 -0.969655679665625
3.513328125 0.3902503946404378 -0.9692482873463404
3.5144765625 0.3916317440672324 -0.9685586489836365
3.515625 0.3917609555119727 -0.9672149203310783
3.5167734375 0.39339324346346544 -0.9671002366175183
3.517921875 0.3961218352970487 -0.9662031590465251
3.5190703125 0.3971433684501571 -0.9656730200982887
3.52021875 0.39909076961310663 -0.9650308009183863
3.5213671875 0.40022598404329 -0.9640439267144956
3.522515625 0.4008183858688728 -0.9632798992104907
3.5236640625 0.4029154910203124 -0.9632978271842789
3.5248125 0.4046093908100685 -0.9626586958705468
3.5259609375 0.4055645396915693 -0.9623779510899273
3.527109375 0.40760855069833846 -0.9613498446817075
3.5282578125 0.40883740286955206 -0.9609249413532875
3.52940625 0.4099254210783172 -0.9604194727378182
3.5305546875 0.41126169670598123 -0.9600110528321342
3.531703125 0.41272412720164664 -0.9595188128442655
3.5328515625 0.4141265234904244 -0.9589173756541833
3.534 0.4146709039903156 -0.9580274836273937
3.5351484375 0.41676911445030357 -0.9573428924824824
3.536296875 0.41824203849116887 -0.9570934377673356
3.5374453125 0.41901156569601017 -0.9564706467046746
3.53859375 0.4209082010235846 -0.9557322722865061
3.5397421875 0.42250348088809936 -0.9542938370591433
3.540890625 0.4235259124208884 -0.9539300956706995
3.5420390625 0.42497096470336093 -0.9527066511155449
3.5431875 0.4269272873590103 -0.9519398336932265
3.5443359375 0.42760706572164814 -0.9519768806828246
3.545484375 0.4288172649319997 -0.9513340505096605
3.5466328125 0.4310997146236752 -0.950336645285756
3.54778125 0.43228266775188795 -0.949945042394873
3.5489296875 0.43266366892434666 -0.9498690173151283
3.550078125 0.4345301338208448 -0.9492009901411739
3.5512265625 0.4359546742694665 -0.9486726584702024
3.552375 0.4375378303076164 -0.9475915734263187
3.5535234375 0.4390419766044982 -0.9467525558987138
3.554671875 0.44025603333621854 -0.94622713558037
3.5558203125 0.44155757467912093 -0.9456380326756177
3.55696875 0.44289254548345314 -0.9452684064366125
3.5581171875 0.44438103756179126 -0.9442752574384288
3.559265625 0.44571776824751164 -0.9439690353419267
3.5604140625 0.44699262630720327 -0.9434453970090578
3.5615625 0.44897602538419096 -0.9428133473413216
3.5627109375 0.45067368957741794 -0.9426871571117865
3.563859375 0.45109133526210055 -0.9412290683333634
3.5650078125 0.4530074904136913 -0.9401634503188139
3.56615625 0.45421758493843845 -0.940023351420801
3.5673046875 0.4554319944015701 -0.9395726779888673
3.568453125 0.4573738932366417 -0.9395643256303231
3.5696015625 0.45847495350493106 -0.9379878011847251
3.57075 0.45975328865031484 -0.9377248008799494
3.5718984375 0.46077944534802373 -0.9374331987872564
3.573046875 0.4631443950287069 -0.9359115178200486
3.5741953125 0.46435786412707214 -0.9353451148796588
3.57534375 0.4647527687943761 -0.9344886612927665
3.5764921875 0.46662813846390916 -0.933802481786154
3.577640625 0.46948238402909404 -0.9328224576701276
3.5787890625 0.4693400144476474 -0.9328272111297001
3.5799375 0.47058677763962325 -0.9316510396588842
3.5810859375 0.47338984432116227 -0.9307950739229761
3.582234375 0.4736378947492167 -0.9299539585322438
3.5833828125 0.47499497739329793 -0.9291660023664521
3.58453125 0.4767166949059695 -0.9288022981865197
3.5856796875 0.47867094332560345 -0.9280439263847734
3.586828125 0.4791756948611351 -0.9276617069197215
3.5879765625 0.48070893143867316 -0.9272458202885809
3.589125 0.48276840982886216 -0.925970995134979
3.5902734375 0.48335134382902567 -0.9259959028030997
3.591421875 0.48554464127794467 -0.9249043482996143
3.5925703125 0.48656029325320005 -0.9246020712509868
3.59371875 0.4872865684396174 -0.9236767992407258
3.5948671875 0.48878370389492654 -0.9221439531787258
3.596015625 0.4902336368771187 -0.9212507962520654
3.5971640625 0.4921693571554508 -0.9206176545440227
3.5983125 0.49315669314078847 -0.920781016756194
3.5994609375 0.4942991579926641 -0.9196332527936424
3.600609375 0.49630745872359056 -0.9183573508589499
3.6017578125 0.4965930539757141 -0.917982403227622
3.60290625 0.4989229146635541 -0.917018736544098
3.6040546875 0.49967410063622764 -0.9165183099747864
3.605203125 0.5004381565513215 -0.9157428765576576
3.6063515625 0.501954026204896 -0.9150524761245815
3.6075 0.5034892190241481 -0.9144729288341861
3.6086484375 0.5046696347129782 -0.9140753694780063
3.609796875 0.5062278787970012 -0.9134595549124002
3.6109453125 0.5075586306841161 -0.9123195094808167
3.61209375 0.5093553104118518 -0.9116211478381413
3.6132421875 0.5102582053434015 -0.910969242310425
3.614390625 0.5116544860227821 -0.9104189706437658
3.6155390625 0.5133444852480329 -0.9099430455457129
3.6166875 0.5137449653410248 -0.9089907626312739
3.6178359375 0.5151670955406985 -0.9081209315887941
3.618984375 0.5169984108579179 -0.9077902060486059
3.6201328125 0.5180061259060829 -0.9065936900141858
3.62128125 0.5195948548335079 -0.9060388145229281
3.6224296875 0.5208528927526562 -0.9050844736592321
3.623578125 0.5209651678014904 -0.9038081051746026
3.6247265625 0.5227625786676298 -0.903727229341639
3.625875 0.5240908885694331 -0.9028190797883838
3.6270234375 0.5253977962886979 -0.9017397590692828
3.628171875 0.5257247213310766 -0.9015476958781768
3.6293203125 0.5279200798766877 -0.9004759385206882
3.63046875 0.5285289591859925 -0.8991735896278084
3.6316171875 0.529875577009917 -0.8983975387014143
3.632765625 0.5323872883585146 -0.8988573153089271
3.6339140625 0.533853113580756 -0.8976887525122854
3.6350625 0.5332077915533846 -0.8980539940077266
3.6362109375 0.5347021429099952 -0.8965562225082218
3.637359375 0.5361084104943179 -0.8948708277592855
3.6385078125 0.5368679916765702 -0.8945230608170198
3.63965625 0.5383489787039009 -0.8938483633573024
3.6408046875 0.5392084587303928 -0.8924993283189948
3.641953125 0.541454061462998 -0.892363885987518
3.6431015625 0.5422224441249431 -0.8920543002026239
3.64425 0.544177577960681 -0.8903978379389209
3.6453984375 0.5451134013014146 -0.8894099613677993
3.646546875 0.5455250896228251 -0.8890363373680159
3.6476953125 0.5477110224323221 -0.8879508531837585
3.64884375 0.5493220170069826 -0.8869558311790322
3.6499921875 0.5493943890849327 -0.8862291051769853
3.651140625 0.5504783152174454 -0.885672389736831
3.6522890625 0.5525981679983321 -0.8843933890218224
3.6534375 0.5541651766639145 -0.8838872742783154
3.6545859375 0.5544399064180027 -0.8825523694809754
3.655734375 0.5565868739722382 -0.8819124146520323
3.6568828125 0.5571734894225879 -0.8815431466711036
3.65803125 0.5583624921453304 -0.8806056823160211
3.6591796875 0.5598147205682027 -0.8792481774365892
3.660328125 0.5615950550378972 -0.8786667841472455
3.6614765625 0.5618921874077727 -0.8776339003651517
3.662625 0.5636913343159791 -0.8769137523744723
3.6637734375 0.5652727757925978 -0.8762157995628522
3.664921875 0.5664185481347148 -0.8750987222059743
3.6660703125 0.567211085680581 -0.8743579542156197
3.66721875 0.56894146979791 -0.8736132583345981
3.6683671875 0.5700037784612483 -0.8725281170576131
3.669515625 0.5708739114417939 -0.8719797239119249
3.6706640625 0.5722341647871261 -0.8710155621663214
3.6718125 0.5736568332589193 -0.8703017644710372
3.6729609375 0.5739922356019791 -0.8699068053648269
3.674109375 0.5754708665236262 -0.8690478626192082
3.6752578125 0.5772542910093693 -0.8681153786184009
3.67640625 0.5779117174798208 -0.8670452433819174
3.6775546875 0.5790588278808839 -0.8657113930174343
3.678703125 0.5801752360530046 -0.8651336923074202
3.6798515625 0.5814261855459356 -0.8642474936241994
3.681 0.5821633141277188 -0.8636257213304417
3.6821484375 0.5837695320768364 -0.8633440111569124
3.683296875 0.5855015092975934 -0.862738636605683
3.6844453125 0.5859069985118605 -0.8620489146967325
3.68559375 0.5878203468952875 -0.8613823794556823
3.6867421875 0.5891674299837041 -0.860500189254509
3.687890625 0.5891853341858158 -0.8593958540672497
3.6890390625 0.5907053726368012 -0.8585716496302442
3.6901875 0.5923764026648931 -0.8573093979554155
3.6913359375 0.5925926889401542 -0.8568825056639868
3.692484375 0.5929862809935966 -0.8563177755251553
3.6936328125 0.5953381526210338 -0.8552390092067376
3.69478125 0.5961498637716269 -0.855342263872373
3.6959296875 0.5960029190647602 -0.8543577337147968
3.697078125 0.5973418710811599 -0.8537679996415404
3.6982265625 0.5987844160284641 -0.852752544177791
3.699375 0.5992722875971409 -0.8514267137133567
3.7005234375 0.599901460664104 -0.8506629838393871
3.701671875 0.6026493639342444 -0.8490015009753884
3.7028203125 0.6023108631883937 -0.8489239476047351
3.70396875 0.6036053063852472 -0.8470909691278528
3.7051171875 0.6039322752652566 -0.8465380107241667
3.706265625 0.6053854890510727 -0.8461152624116248
3.7074140625 0.6061003081732411 -0.8444104133614779
3.7085625 0.6071558950014776 -0.8432767140855925
3.7097109375 0.6085806691136182 -0.8435975234967305
3.710859375 0.6089566146126625 -0.8422166354791139
3.7120078125 0.6106625704354807 -0.8416349321755264
3.71315625 0.6109075825137404 -0.840329502594594
3.7143046875 0.6117146080882582 -0.8404381389342696
3.715453125 0.6128535883672578 -0.8393308882253572
3.7166015625 0.6138294454408975 -0.8385281768523278
3.71775 0.6142826678457658 -0.8371749427323738
3.7188984375 0.6149020416937693 -0.8364345277732114
3.720046875 0.6160764342460708 -0.835789413552021
3.7211953125 0.616852305827982 -0.8347220642985158
3.72234375 0.6165175167559725 -0.8344270271401828
3.7234921875 0.6177090203681621 -0.8332197504547836
3.724640625 0.6183642502818688 -0.8325860689337972
3.7257890625 0.6183362621298177 -0.8310116416759817
3.7269375 0.6196386762272694 -0.8296073749622694
3.7280859375 0.6195254187567136 -0.8290653466950952
3.729234375 0.6192334080709185 -0.8282320867311098
3.7303828125 0.6199032100781846 -0.8269196618312855
3.73153125 0.620313277154755 -0.8253942883029225
3.7326796875 0.6203068174388849 -0.8240755151286843
3.733828125 0.6198198104415085 -0.8232846264028073
3.7349765625 0.6202050508458696 -0.8224263686141263
3.736125 0.6202358810786344 -0.8209037372598722
3.7372734375 0.6192842614755033 -0.8192931960941086
3.738421875 0.6189669955954593 -0.8172312478824567
3.7395703125 0.6187672112632792 -0.8153583820301625
3.74071875 0.6171693527044237 -0.8134161370360808
3.7418671875 0.6166493624905535 -0.8110669646893314
3.743015625 0.6156569063416043 -0.8085132077124679
3.7441640625 0.6144747691148591 -0.8055559484560335
3.7453125 0.613158964970601 -0.801588340577273
3.7464609375 0.6126161992652737 -0.7978825870531437
3.747609375 0.611780708892405 -0.7930036651053153
3.7487578125 0.610610687995035 -0.7873450145766799
3.74990625 0.6110200645800556 -0.7815516893297815
3.7510546875 0.6126833640764018 -0.7748121019406329
3.752203125 0.614197148155156 -0.7677643615163949
3.7533515625 0.6182836972417938 -0.7603409920239372
3.7545 0.6231625815835646 -0.753466741246783
3.7556484375 0.62813011383549 -0.7474204717108861
3.756796875 0.6349696550977616 -0.7417168490279125
3.7579453125 0.6432739602495898 -0.7382902008153427
3.75909375 0.6509302837821849 -0.7362104880485312
3.7602421875 0.6583991439212584 -0.7347847564216665
3.761390625 0.6658949793994458 -0.7352089661497566
3.7625390625 0.6720548253629783 -0.735517008583479
3.7636875 0.6773039439669525 -0.7367129943470575
3.7648359375 0.6825363065183941 -0.7380948588723676
3.765984375 0.68674311289718 -0.7399636698537956
3.7671328125 0.6896327792836516 -0.7424767852583554
3.76828125 0.6931841970429302 -0.7438047221778165
3.7694296875 0.695763024190116 -0.7444158858638361
3.770578125 0.6971469957048122 -0.7461138767066123
3.7717265625 0.6992822528535408 -0.7478738024944473
3.772875 0.700407113553853 -0.7483034032787738
3.7740234375 0.7028138778752733 -0.7489719395062804
3.775171875 0.704268435245327 -0.7509191328367298
3.7763203125 0.7053776560478866 -0.7507484111198547
3.77746875 0.707843292314816 -0.7513315866139216
3.7786171875 0.7081591536254107 -0.7527883108699567
3.779765625 0.710362621089143 -0.7526474548199309
3.7809140625 0.7107621804138938 -0.752313122014016
3.7820625 0.7119536523112144 -0.7519510345143007
3.7832109375 0.7128149343315671 -0.752653502675301
3.784359375 0.7133468032671926 -0.7517152575312029
3.7855078125 0.7145606289300457 -0.7521849336411163
3.78665625 0.7149707913011838 -0.751355734186429
3.7878046875 0.7164478567603679 -0.7505780972507838
3.788953125 0.7179114036456378 -0.7509547658038509
3.7901015625 0.7185377576505847 -0.7508075775946912
3.79125 0.7194077489830937 -0.7499160724290578
3.7923984375 0.7203056348392616 -0.7495967104656567
3.793546875 0.7209593927607715 -0.7487339995252076
3.7946953125 0.7216478791882786 -0.7477686109543862
3.79584375 0.7227948633336463 -0.7471021821757358
3.7969921875 0.7233503806654418 -0.7464786699788513
3.798140625 0.7246661714270463 -0.7455490581250139
3.7992890625 0.726341731155058 -0.7447764094918243
3.8004375 0.7267778690211983 -0.7445823821575398
3.8015859375 0.7274481848094184 -0.7433792972891413
3.802734375 0.7289622750367861 -0.7425588585818104
3.8038828125 0.729638277131442 -0.741963922472886
3.80503125 0.7311498432118362 -0.740905475778838
3.8061796875 0.7322450108119813 -0.739707878196735
3.807328125 0.7326612130029215 -0.7394482382680314
3.8084765625 0.7339501210955847 -0.7387323507660115
3.809625 0.7350291099044847 -0.7381021812770387
3.8107734375 0.7358108199556818 -0.7367983479589568
3.811921875 0.7370572247890358 -0.7361501122917985
3.8130703125 0.7383006020953575 -0.7353707511986314
3.81421875 0.739450209970202 -0.7341366653918423
3.8153671875 0.7393503437763259 -0.733958272774755
3.816515625 0.7403972060781966 -0.7326234695880007
3.8176640625 0.7419593578211896 -0.7315454298820041
3.8188125 0.7430819994505211 -0.7308204641755651
3.8199609375 0.7444843170882991 -0.730027908714882
3.821109375 0.7452291766097131 -0.7291177466002204
3.8222578125 0.7459684210637343 -0.7290971366824844
3.82340625 0.7467461996509445 -0.727874179298325
3.8245546875 0.7476537555981592 -0.7266994106998987
3.825703125 0.7493035756148585 -0.7259449914354364
3.8268515625 0.7501236819358746 -0.7246591853354597
3.828 0.7512602853422233 -0.7232467563299569
3.8291484375 0.7524249701300667 -0.722535235615074
3.830296875 0.7529493451824638 -0.7218232433534308
3.8314453125 0.7537573812913638 -0.7207135569212737
3.83259375 0.7554867465895044 -0.7197948237539908
3.8337421875 0.7555439333588762 -0.718513676638501
3.834890625 0.7569305697438876 -0.7186200388511198
3.8360390625 0.7585341601358003 -0.7167831576624005
3.8371875 0.7591917604057101 -0.7154247463582433
3.8383359375 0.7597430333413366 -0.713733405467047
3.839484375 0.7608517388626342 -0.7137536938326486
3.8406328125 0.761471861078731 -0.712456280433744
3.84178125 0.7620057792375932 -0.7112312847431115
3.8429296875 0.7630540267827829 -0.7105648560650308
3.844078125 0.7643955842835854 -0.7091708586606016
3.8452265625 0.7648110381775308 -0.7086110023824741
3.846375 0.7664572128218791 -0.7073493160703128
3.8475234375 0.7671277766286053 -0.7056953467017781
3.848671875 0.7685311706109104 -0.7041628324820315
3.8498203125 0.7694506142045792 -0.7033030032228056
3.85096875 0.7700773350847897 -0.7023471009589819
3.8521171875 0.7714922600720288 -0.7015475063723973
3.853265625 0.7722847356021312 -0.7004668351469205
3.8544140625 0.7733771882519767 -0.6993503530413516
3.8555625 0.7745229498973989 -0.6983857654561574
3.8567109375 0.7742705151530184 -0.6976134561564169
3.857859375 0.7759534836408637 -0.6956449175477541
3.8590078125 0.7774246104700481 -0.6940305111367089
3.86015625 0.7782653354891311 -0.6933997912088602
3.8613046875 0.7799382980903273 -0.6921299163742711
3.862453125 0.7813200440505367 -0.6909323342364371
3.8636015625 0.7819026457629337 -0.6895162978938832
3.86475 0.7825848763524712 -0.6887805835940966
3.8658984375 0.7838083831904087 -0.6874994866894097
3.867046875 0.7851870926724386 -0.6863674065366276
3.8681953125 0.7861201028991806 -0.6856786139941835
3.86934375 0.7872460937212362 -0.6843931111830157
3.8704921875 0.7880502307589411 -0.6830537897940778
3.871640625 0.7887044694941662 -0.6821523173617674
3.8727890625 0.7899579385626088 -0.6807889740951094
3.8739375 0.7905315967586989 -0.6798092571860662
3.8750859375 0.7910076761019708 -0.6789320517499426
3.876234375 0.7927114687783285 -0.6774601486484237
3.8773828125 0.7937340567624623 -0.6758010798824654
3.87853125 0.7947020658472506 -0.6753360373372039
3.8796796875 0.7948254107147587 -0.6739136000654402
3.880828125 0.7963070178390022 -0.6728850795261386
3.8819765625 0.7976694735701112 -0.6716388997604136
3.883125 0.7975739069639872 -0.6708209158809908
3.8842734375 0.7990962263439451 -0.6691561672680006
3.885421875 0.7998193650212756 -0.6681031525175317
3.8865703125 0.8006580335344284 -0.6674233558170473
3.88771875 0.8016505334111694 -0.6670005884832446
3.8888671875 0.8028442341139579 -0.6657597192612968
3.890015625 0.8040983574524151 -0.6644189485084929
3.8911640625 0.8043731108769249 -0.6620735731215786
3.8923125 0.8046310066756723 -0.6633841966569873
3.8934609375 0.8067642583213404 -0.6612245175910938
3.894609375 0.8078938090623136 -0.6595748512238231
3.8957578125 0.8086212227403601 -0.6578109653646067
3.89690625 0.8106153146517509 -0.6563267355698881
3.8980546875 0.8103391302389871 -0.6558285124918939
3.899203125 0.8123775711314877 -0.6550903500274732
3.9003515625 0.8131239870897568 -0.6538226822658127
3.9015 0.8142773941576784 -0.6526592943797497
3.9026484375 0.8150467081502377 -0.6504391202503701
3.903796875 0.8158044023593791 -0.6493827644414929
3.9049453125 0.8169678746321564 -0.6483767174035184
3.90609375 0.8179814551445096 -0.6470748002720935
3.9072421875 0.8190365607523998 -0.6463053451466194
3.908390625 0.8194849737173544 -0.6443394447451296
3.9095390625 0.8204616513354378 -0.6439108502865023
3.9106875 0.8218392960883713 -0.6417170732803081
3.9118359375 0.8225414959133724 -0.6404348932808295
3.912984375 0.8228675510492564 -0.6398565264446745
3.9141328125 0.8251770521134288 -0.6381679507610378
3.91528125 0.8259697820851158 -0.6364793152754032
3.9164296875 0.8257893038403694 -0.6356491865858729
3.917578125 0.8270790414741374 -0.6346750505179162
3.9187265625 0.8287172879407121 -0.6335451448942346
3.919875 0.8296179323490283 -0.6328510235004133
3.9210234375 0.8299387404956112 -0.6319109699278915
3.922171875 0.8319780952777256 -0.6307671619363389
3.9233203125 0.8321111915008403 -0.6295349228115402
3.92446875 0.8329574413540609 -0.6283816918128653
3.9256171875 0.8348858679620821 -0.6264445849321094
3.926765625 0.836341904116435 -0.6252643065920627
3.9279140625 0.8364421623277338 -0.6239047003472162
3.9290625 0.837204308511428 -0.622521414991213
3.9302109375 0.8386536401191624 -0.6209958627635008
3.931359375 0.8401104189661612 -0.6195758702026399
3.9325078125 0.8400797662628755 -0.6185613784663546
3.93365625 0.8414682623416933 -0.6173931021308081
3.9348046875 0.8427156696313793 -0.6159129077711999
3.935953125 0.8425413669853072 -0.6148484668978431
3.9371015625 0.8439978845978701 -0.6131223634491583
3.93825 0.8453694866552831 -0.6119675859430966
3.9393984375 0.8454915585761577 -0.6107488061943274
3.940546875 0.8469649797438424 -0.6089893609431729
3.9416953125 0.848003033748655 -0.6075454777145681
3.94284375 0.8481315364471552 -0.6068665423191777
3.9439921875 0.8488494098470709 -0.6053452906138685
3.945140625 0.8499742077775915 -0.6036523298917318
3.9462890625 0.8507358930441982 -0.6023145220298907
3.9474375 0.8512534552087582 -0.6014464407138792
3.9485859375 0.8523869502140111 -0.6005740456475224
3.949734375 0.853753975462228 -0.5990631917524758
3.9508828125 0.853637719904782 -0.5981749376073706
3.95203125 0.8551481688683564 -0.5970196719578298
3.9531796875 0.8560243212279794 -0.5954231858871779
3.954328125 0.8563382345976795 -0.5938092206353385
3.9554765625 0.8577077847618931 -0.5926297738156823
3.956625 0.859106295968668 -0.5917359309780548
3.9577734375 0.8600565469169958 -0.5911623794028267
3.958921875 0.8607292451251775 -0.5894957085968544
3.9600703125 0.8623127649286335 -0.5880007476042168
3.96121875 0.8633105084710857 -0.5868942938757717
3.9623671875 0.8639190186010034 -0.5850425044952661
3.963515625 0.8654191301938813 -0.5840211010641909
3.9646640625 0.865843677262517 -0.5833341580854983
3.9658125 0.8667115040877249 -0.5813159092179597
3.9669609375 0.8678054935599778 -0.5809953051099737
3.968109375 0.8691658654285451 -0.5793341757283837
3.9692578125 0.8695290429628334 -0.5782648581244314
3.97040625 0.8710994533078058 -0.5763393515985549
3.9715546875 0.871195856715705 -0.5752926067926278
3.972703125 0.8719032980428321 -0.574225586587641
3.9738515625 0.872699155255688 -0.5729574563840962
3.975 0.8740620522970572 -0.5714018043261441
3.9761484375 0.8763738414462627 -0.568945900587349
3.977296875 0.8752330296463502 -0.5690799518245564
3.9784453125 0.877182947138853 -0.5673433136811401
3.97959375 0.8777359458826386 -0.5662896312798236
3.9807421875 0.8780637492735748 -0.5656849340297767
3.981890625 0.8788411693566923 -0.5635839707659454
3.9830390625 0.8803479615723058 -0.5622432120429983
3.9841875 0.8795435595157375 -0.5617554300246899
3.9853359375 0.8814783775738435 -0.5601206888814925
3.986484375 0.8825303556360254 -0.5585871991248508
3.9876328125 0.8837882261177553 -0.558235287411244
3.98878125 0.8838501444495085 -0.5566734263144808
3.9899296875 0.884878940413266 -0.5551707502268899
3.991078125 0.8856260105037328 -0.5540509405599381
3.9922265625 0.8862745168742174 -0.5530624864452472
3.993375 0.8871252847705174 -0.5511634840952552
3.9945234375 0.8882725136456308 -0.5493387317897479
3.995671875 0.8889054986110257 -0.548078179675731
3.9968203125 0.889855737283073 -0.5472693825152921
3.99796875 0.8911984681577984 -0.5453841612813737
3.9991171875 0.892722910664625 -0.5433936606459284
4.000265625 0.8924058194389907 -0.5418935254601074
4.0014140625 0.8934831988827723 -0.5407051297485999
4.0025625 0.8951310482935331 -0.5390864240850632
4.0037109375 0.8952111421213226 -0.5384307899963309
4.004859375 0.8972833651747542 -0.5365927045180012
4.0060078125 0.8976272744873858 -0.5351972452210172
4.00715625 0.8980729472604706 -0.5341687353713521
4.0083046875 0.8990420336077402 -0.5320062358759099
4.009453125 0.9001816459371748 -0.5310137010963709
4.0106015625 0.9007385060114765 -0.5298458510109778
4.01175 0.9009673625639241 -0.5283608024006949
4.0128984375 0.9020072996797059 -0.5271895221240743
4.014046875 0.9026643579722171 -0.5256990658550931
4.0151953125 0.9030037280520173 -0.5248548023894626
4.01634375 0.9042199932731376 -0.5233432713481406
4.0174921875 0.9046606150442824 -0.5224688644048714
4.018640625 0.9052811705084571 -0.5216229818803345
4.0197890625 0.9064959262392042 -0.5198252992948404
4.0209375 0.9067476221168643 -0.5180165429693806
4.0220859375 0.9071450603646032 -0.5173709581698342
4.023234375 0.9080518804556315 -0.5159137131105196
4.0243828125 0.9088824566654279 -0.5148763912218686
4.02553125 0.9093441258552916 -0.5129430781936519
4.0266796875 0.9095102800439687 -0.511432482162969
4.027828125 0.9109982160757353 -0.5099351403251422
4.0289765625 0.9122029667815755 -0.5086785829422631
4.030125 0.9120544019179353 -0.5078286462191628
4.0312734375 0.9129407828566806 -0.5054753477271594
4.032421875 0.9140148349920935 -0.5035871602277051
4.0335703125 0.9145401894268885 -0.5028656803109917
4.03471875 0.9152713426605592 -0.5019700631618579
4.0358671875 0.9160479557982336 -0.49971601028024193
4.037015625 0.9167298924222625 -0.4989354888001435
4.0381640625 0.9175921288056622 -0.4980399104772373
4.0393125 0.9180053859350028 -0.49638567156528635
4.0404609375 0.9191841121238551 -0.4947599538168395
4.041609375 0.9196694238414644 -0.49339983688663896
4.0427578125 0.9201849228432405 -0.49181566066125704
4.04390625 0.9211166413207823 -0.4902534170502895
4.0450546875 0.9214089827195189 -0.4891613389678478
4.046203125 0.9231193873668488 -0.4872968697757801
4.0473515625 0.9243779246359931 -0.485751839299182
4.0485 0.9237126968484743 -0.4855589909914074
4.0496484375 0.9244353228437812 -0.48377823056986435
4.050796875 0.9251043222875601 -0.4827746064226199
4.0519453125 0.9262884816726844 -0.4811807196310014
4.05309375 0.9267289104917258 -0.4798940806806412
4.0542421875 0.9277737066396754 -0.4782110171132275
4.055390625 0.9286462469241927 -0.47727996445802784
4.0565390625 0.9286977584013159 -0.47601770783554354
4.0576875 0.9299919632315481 -0.4737485947163363
4.0588359375 0.9308516051662887 -0.4725429657051415
4.059984375 0.9309790513621736 -0.47192504895116133
4.0611328125 0.9319329464409585 -0.4708421724012583
4.06228125 0.933023542552216 -0.4691697151280217
4.0634296875 0.9337198458215612 -0.46777067131801997
4.064578125 0.9347523461171756 -0.46643372045529363
4.0657265625 0.9349658555658165 -0.4646163490169307
4.066875 0.9356871108728015 -0.46280456138528137
4.0680234375 0.9359246987814374 -0.46173823539321
4.069171875 0.9375181457006732 -0.45978329505187543
4.0703203125 0.9384663245361228 -0.45815095123874483
4.07146875 0.9386202170601167 -0.45734751255848705
4.0726171875 0.9399033727959256 -0.4553319710146925
4.073765625 0.9405402255863045 -0.4537516733999556
4.0749140625 0.9408553334079663 -0.4524921161267909
4.0760625 0.9422575012569316 -0.451383194942966
4.0772109375 0.9429055711073798 -0.44976101536605256
4.078359375 0.9437829331250722 -0.4477730004006416
4.0795078125 0.9445208389015365 -0.44712912660172943
4.08065625 0.9447979802763027 -0.4463080326352146
4.0818046875 0.9453247538898595 -0.44423531260104504
4.082953125 0.9459313824600859 -0.44267618182238233
4.0841015625 0.9467307971165624 -0.4406041655017564
4.08525 0.9469556372654516 -0.4399108170467717
4.0863984375 0.9471415338235819 -0.4397850344166343
4.087546875 0.9488657024157318 -0.43737692852976096
4.0886953125 0.9497547358579366 -0.43668544181354085
4.08984375 0.9500706673013125 -0.43593361427984284
4.0909921875 0.9505597900595132 -0.4338570673408315
4.092140625 0.9517611178635932 -0.4321718042083823
4.0932890625 0.952065354353157 -0.43194980342657013
4.0944375 0.9528341271973921 -0.42974011170597104
4.0955859375 0.9536749621115471 -0.4280166062119905
4.096734375 0.9537371745228109 -0.4263752054485048
4.0978828125 0.9536854841482267 -0.4254580282783522
4.09903125 0.9545292691818099 -0.42365134964863116
4.1001796875 0.9556746142359731 -0.4216389966308177
4.101328125 0.9557203999173902 -0.42081811468498853
4.1024765625 0.956475717487805 -0.41958354723158725
4.103625 0.957077372915716 -0.41788735148723655
4.1047734375 0.9567588505886868 -0.41652867298864926
4.105921875 0.9587525596693491 -0.4144260034485963
4.1070703125 0.9592349107789401 -0.4124765947870217
4.10821875 0.9601581747875386 -0.410626725645846
4.1093671875 0.960870753255556 -0.40985126558332335
4.110515625 0.9617024120108785 -0.40660350240470067
4.1116640625 0.9625063565489841 -0.4062377644219697
4.1128125 0.9619329420825968 -0.4066728396834982
4.1139609375 0.9630987973292526 -0.40377095993504053
4.115109375 0.9637710108795484 -0.4020009846449042
4.1162578125 0.9637382026422303 -0.40018470438859766
4.11740625 0.9646283406432121 -0.39905379165497806
4.1185546875 0.9649970702381352 -0.3979385170514079
4.119703125 0.9654363965611874 -0.39600334189382624
4.1208515625 0.9664224510255505 -0.3943232980075035
4.122 0.9664222592648546 -0.3935512278449136
4.1231484375 0.967138702306004 -0.39242092232499726
4.124296875 0.9679380778119091 -0.39118071046391373
4.1254453125 0.9682609831289171 -0.38956779473643083
4.12659375 0.9693800873005919 -0.3877864587465665
4.1277421875 0.9690197014387117 -0.3870186377563619
4.128890625 0.9703065345938698 -0.38551471797183967
4.1300390625 0.9713229749370897 -0.38403482739962763
4.1311875 0.9713910461495112 -0.3821448182647595
4.1323359375 0.972281449419729 -0.38027575982237677
4.133484375 0.9732962224937487 -0.378415505342091
4.1346328125 0.9740284470420846 -0.37719131593201577
4.13578125 0.9749398039167783 -0.3764546249979105
4.1369296875 0.9754662004540412 -0.373806618221473
4.138078125 0.9752556231207417 -0.37254035796800616
4.1392265625 0.9753387668909622 -0.37147647061288147
4.140375 0.9772763282517415 -0.368757846405861
4.1415234375 0.9783512844977961 -0.36738357710878544
4.142671875 0.9781432806376524 -0.3669794896378821
4.1438203125 0.9783098482964734 -0.36517717774920044
4.14496875 0.978993075470251 -0.3636032054906298
4.1461171875 0.9797576268006519 -0.361987963592115
4.147265625 0.9807474451923341 -0.36004838240763426
4.1484140625 0.9815203005948313 -0.35846194486731286
4.1495625 0.9826574780131571 -0.35656708919858104
4.1507109375 0.982048125840937 -0.35535373780531704
4.151859375 0.9829532962120933 -0.35417160061358743
4.1530078125 0.984083735941001 -0.3522662884502497
4.15415625 0.9835305191855743 -0.3520045295509669
4.1553046875 0.9842234551751343 -0.35043431321059715
4.156453125 0.9840134629197047 -0.3484860299047828
4.1576015625 0.984982010236183 -0.34658721935688963
4.15875 0.9856438305998404 -0.34539943288254343
4.1598984375 0.9868327435805431 -0.34377222473653873
4.161046875 0.9860300363750344 -0.34292303088700227
4.1621953125 0.9866592876916029 -0.3418697810693644
4.16334375 0.9871471306848754 -0.34028903571976005
4.1644921875 0.987918610441594 -0.33880288844090883
4.165640625 0.9874815072455108 -0.33823816213505414
4.1667890625 0.988984929387717 -0.33663341824109294
4.1679375 0.9897809606854463 -0.3342253012664641
4.1690859375 0.9885561199267286 -0.3337125591555887
4.170234375 0.9902946210008596 -0.3318501341754988
4.1713828125 0.991325125888676 -0.32966113140312214
4.17253125 0.9926140325895682 -0.327165951945058
4.1736796875 0.992572363049386 -0.3270732374987809
4.174828125 0.9926091596910728 -0.3250831852508187
4.1759765625 0.9938686688090443 -0.3223220003786747
4.177125 0.9935931563367416 -0.3216685037116416
4.1782734375 0.9940610467037742 -0.3209711104433711
4.179421875 0.9944808555820418 -0.31933718940579936
4.1805703125 0.9941819026733166 -0.31700779332514445
4.18171875 0.9953438631596648 -0.3151524276943922
4.1828671875 0.9966688852901522 -0.31482083817239953
4.184015625 0.9975499348150731 -0.3118176762457362
4.1851640625 0.9968906549377112 -0.3108711949205482
4.1863125 0.9972352186934554 -0.3087531226868286
4.1874609375 0.9973347570757947 -0.30794789981123627
4.188609375 0.9986833519337617 -0.3072652518625193
4.1897578125 0.998005281685822 -0.3047544345236949
4.19090625 0.9989058078386551 -0.30250307852866776
4.1920546875 0.9988242385919783 -0.30209032437672706
4.193203125 0.999001248185818 -0.3000881016008115
4.1943515625 1.0006797430253775 -0.29818163872785053
4.1955 1.0006462876641382 -0.2966753243985009
4.1966484375 1.0005133317992057 -0.2951999470847825
4.197796875 1.0018134844746232 -0.2928887277062677
4.1989453125 1.0022102237478 -0.29237801165148264
4.20009375 1.003102441861777 -0.2901170873923163
4.2012421875 1.004028400079491 -0.28857987790035355
4.202390625 1.003867327212596 -0.28741725946165797
4.2035390625 1.0041210071109297 -0.2860149806136326
4.2046875 1.0047472957340107 -0.2836202625918862
4.2058359375 1.0061276875941556 -0.2808851342892513
4.206984375 1.0054631280992474 -0.27984546203406974
4.2081328125 1.0068334735967432 -0.2776733936172353
4.20928125 1.0063480012787118 -0.27604527398467327
4.2104296875 1.0066063868762016 -0.275465481402696
4.211578125 1.0075952323993214 -0.27481291905248695
4.2127265625 1.0082580608868157 -0.273421065790587
4.213875 1.0084859956580756 -0.27182630366199356
4.2150234375 1.0092438056512345 -0.2697547424680958
4.216171875 1.0102211154177818 -0.26668491988395854
4.2173203125 1.0100867883649032 -0.2649662118750234
4.21846875 1.0093852103807417 -0.2641167284662216
4.2196171875 1.0107190205153074 -0.26234238783062797
4.220765625 1.0110310438194698 -0.26069747510221336
4.2219140625 1.0116251065828528 -0.2593490904766397
4.2230625 1.01159976848942 -0.25772154639742195
4.2242109375 1.0123758329136054 -0.2561869275724937
4.225359375 1.0132345959920181 -0.25464320244305744
4.2265078125 1.013544430224638 -0.2521548621501617
4.22765625 1.0133259760034694 -0.25184818096150197
4.2288046875 1.013561843318742 -0.2509260185211135
4.229953125 1.0139449076285616 -0.2500271501273584
4.2311015625 1.01522589792311 -0.24843011608801022
4.23225 1.0157631046614402 -0.24610898700601935
4.2333984375 1.0154458579770806 -0.2453325229656373
4.234546875 1.0159925174562594 -0.24328029414239394
4.2356953125 1.016371918174849 -0.2422743570941585
4.23684375 1.0169612352938047 -0.24104753479925342
4.2379921875 1.0174152996128725 -0.23914572265838757
4.239140625 1.018377969005501 -0.2365495146952336
4.2402890625 1.0181753397063509 -0.2354733852054282
4.2414375 1.0178676553038633 -0.23486256487075954
4.2425859375 1.0189134444648045 -0.23272981559973918
4.243734375 1.019601014486256 -0.23102498439912644
4.2448828125 1.0194867545502848 -0.22984019672864409
4.24603125 1.019519614098734 -0.22813558541124485
4.2471796875 1.0195461053035157 -0.22588141706475462
4.248328125 1.0202543420550558 -0.22514027725983007
4.2494765625 1.0209825746909436 -0.22322069323131416
4.250625 1.0210201902975997 -0.2215899031401241
4.2517734375 1.021394634481804 -0.22083736007834695
4.252921875 1.0221164248918768 -0.2192327947276165
4.2540703125 1.022873175105964 -0.21671179905009216
4.25521875 1.0231551085774206 -0.2155684298881627
4.2563671875 1.0235687735017427 -0.21383097289727326
4.257515625 1.0237325618625501 -0.21271291676784873
4.2586640625 1.0244174302001154 -0.21108143451381492
4.2598125 1.0249075798776577 -0.20966578037096645
4.2609609375 1.0254850365602095 -0.20779695128819076
4.262109375 1.0267105259486005 -0.2062331420997957
4.2632578125 1.0267039829853375 -0.20496470022544827
4.26440625 1.0276092852188237 -0.20366134304537592
4.2655546875 1.0272783985878868 -0.20120862117044724
4.266703125 1.0286389899894626 -0.20029413531061085
4.2678515625 1.028704863691615 -0.19818462739046527
4.269 1.028494549962062 -0.19778806875955157
4.2701484375 1.0283411977783754 -0.19471902604286973
4.271296875 1.029618042459448 -0.1934493289236604
4.2724453125 1.0303137631320358 -0.19197066391330841
4.27359375 1.030098651471225 -0.190066796250166
4.2747421875 1.0302586264752218 -0.18762590719510217
4.275890625 1.030667777736793 -0.1862100628824832
4.2770390625 1.0307832800963368 -0.18479747903581367
4.2781875 1.0316511085567157 -0.18337647029402498
4.2793359375 1.031957758729869 -0.18171009574797004
4.280484375 1.032231369125956 -0.18071203516573803
4.2816328125 1.0326428182007479 -0.17836280628110104
4.28278125 1.0326360011927096 -0.17766976329745454
4.2839296875 1.0326216631611194 -0.1765170971759195
4.285078125 1.0336121412604 -0.17459771499002852
4.2862265625 1.0334997712385343 -0.17324959429510572
4.287375 1.0332892174508865 -0.17216064253482943
4.2885234375 1.0343687847261158 -0.16882553771837572
4.289671875 1.033574632253678 -0.16804301064580085
4.2908203125 1.034299348513711 -0.16701784035784284
4.29196875 1.0349373558200476 -0.16449037593236102
4.2931171875 1.0357331833316714 -0.16319221937320622
4.294265625 1.0350024696954874 -0.16181910653138246
4.2954140625 1.0357421577029644 -0.1594997668907966
4.2965625 1.0358208763999954 -0.15899135123941716
4.2977109375 1.0358627893834838 -0.15737263095207282
4.298859375 1.0356930602819683 -0.15517208157106113
4.3000078125 1.0351666760891258 -0.15282066667577185
4.30115625 1.0351314051823133 -0.15304605154567197
4.3023046875 1.037079684505696 -0.15023711331956086
4.303453125 1.036980189030166 -0.14808599798512895
4.3046015625 1.0362754409435209 -0.14715328108678433
4.30575 1.0361292757128069 -0.14523709468252252
4.3068984375 1.0373431083160436 -0.1426376885709189
4.308046875 1.0375670535414079 -0.14239168697271254
4.3091953125 1.036685478206244 -0.1418420139427845
4.31034375 1.036917783490622 -0.13845329268247328
4.3114921875 1.0375290946633502 -0.1376377300916034
4.312640625 1.0370920871278395 -0.13644326181505567
4.3137890625 1.0388372831793975 -0.133109357044921
4.3149375 1.0387978911265217 -0.13396117256587847
4.3160859375 1.03731127419463 -0.1322031388828217
4.317234375 1.038646186764588 -0.12995769126069495
4.3183828125 1.0371460538799815 -0.13042790184764197
4.31953125 1.0385498832614863 -0.12799466536641263
4.3206796875 1.039326101735807 -0.12526900361239837
4.321828125 1.0384097033397892 -0.12453878162356863
4.3229765625 1.0388109114463127 -0.12174748803779861
4.324125 1.039165734508702 -0.12129191307389137
4.3252734375 1.0387806461229736 -0.12020985606381895
4.326421875 1.0410245230961537 -0.11835233863709949
4.3275703125 1.040764301516601 -0.11665988398603866
4.32871875 1.0407790083836341 -0.11482276793613294
4.3298671875 1.0414017069432453 -0.11250651154771107
4.331015625 1.0409702018626925 -0.10993869273611498
4.3321640625 1.0414111950191194 -0.1095922883745939
4.3333125 1.0412201136874026 -0.10818762877864116
4.3344609375 1.0417819396433854 -0.10659059664203896
4.335609375 1.0415513182641911 -0.10610804349904207
4.3367578125 1.0424676793398642 -0.10310259795417492
4.33790625 1.0427058645095202 -0.1018980869162901
4.3390546875 1.0417365295668732 -0.10192949969900611
4.340203125 1.0428153969033425 -0.09898137076501473
4.3413515625 1.0433019690886827 -0.09677974576340032
4.3425 1.0422394067976013 -0.09665345736630304
4.3436484375 1.043514695952885 -0.09326549287931934
4.344796875 1.0440831797251768 -0.09145907842980378
4.3459453125 1.0437265629499521 -0.09005796161776725
4.34709375 1.0440418691681037 -0.08710994989742055
4.3482421875 1.0438695195365215 -0.08529525468879273
4.349390625 1.0441167977845112 -0.08471135133324825
4.3505390625 1.044061550555003 -0.08275112293951936
4.3516875 1.0447048807053285 -0.08098206743956538
4.3528359375 1.0449726739834186 -0.07939629208417887
4.353984375 1.0443251032996508 -0.07725837588764778
4.3551328125 1.0465176574517212 -0.07527152783071261
4.35628125 1.0460002186346395 -0.07477234554064738
4.3574296875 1.0458279104611907 -0.07338357359125669
4.358578125 1.0467578277152882 -0.07106464409385332
4.3597265625 1.0464490026143194 -0.0692629321089952
4.360875 1.0466596192624202 -0.0673402639533065
4.3620234375 1.0468172642045126 -0.06576638032247173
4.363171875 1.047708865849027 -0.06547059774646474
4.3643203125 1.0476188982203145 -0.06236566626343257
4.36546875 1.04669373571319 -0.06080658051156343
4.3666171875 1.0472508978007722 -0.05920504891162512
4.367765625 1.0467845152025776 -0.0568990913867132
4.3689140625 1.0462059663620948 -0.055899349789420794
4.3700625 1.0457191350097705 -0.05432046543608263
4.3712109375 1.0459819211256027 -0.051610787969007144
4.372359375 1.0457417411069287 -0.05006409626840397
4.3735078125 1.0463224641244835 -0.05066858015047834
4.37465625 1.0467221389930794 -0.04820916434868755
4.3758046875 1.0463374875620146 -0.046111696960601384
4.376953125 1.0455879188507844 -0.04620929624125583
4.3781015625 1.0469163943884947 -0.04363090100179792
4.37925 1.0466175835426914 -0.04101163518058745
4.3803984375 1.0469431488057863 -0.04207587084185821
4.381546875 1.0468946294343606 -0.038491646407999625
4.3826953125 1.0465904357634463 -0.036966176397963346
4.38384375 1.0456192666661408 -0.03645707775004009
4.3849921875 1.0463516535970754 -0.03409094839518417
4.386140625 1.0464916186580846 -0.03165261001201372
4.3872890625 1.0456011340694311 -0.03146406698360496
4.3884375 1.0456078650465903 -0.029634993869601972
4.3895859375 1.046695528477036 -0.027126868653123276
4.390734375 1.0468629675002101 -0.026765797903648136
4.3918828125 1.0486601902261001 -0.02413665896264905
4.39303125 1.047875799848381 -0.022656685620075695
4.3941796875 1.0483116068044445 -0.022004305019536624
4.395328125 1.0476455276056027 -0.019219754472865044
4.3964765625 1.047836971684247 -0.018058458418982487
4.397625 1.0482075977867265 -0.017259895693445354
4.3987734375 1.0475851025332135 -0.015652800971341835
4.399921875 1.048094775956626 -0.013588791407372042
4.4010703125 1.0484432558355583 -0.012165754173215998
4.40221875 1.0479623194218062 -0.010516563414918412
4.4033671875 1.0480989625666732 -0.009686844563968941
4.404515625 1.048028391083619 -0.008186186688864824
4.4056640625 1.0482569101291137 -0.005670384050805222
4.4068125 1.048244964059608 -0.005084462936092521
4.4079609375 1.048840169919895 -0.00327294572497977
4.409109375 1.04963231735028 -0.001169022432510436
4.4102578125 1.0495753840578517 -0.00013224533423247808
4.41140625 1.0493742129716939 0.001991332268116014
4.4125546875 1.0494415295097594 0.004404722772523961
4.413703125 1.049382094751754 0.0056768346816834445
4.4148515625 1.0500600347356936 0.0066203715456136375
4.416 1.0503115544500297 0.008960987387021974
4.4171484375 1.0505211180437426 0.011365291655747511
4.418296875 1.0503594580984719 0.013031369013093735
4.4194453125 1.0508442750633855 0.015135321242372851
4.42059375 1.0510334517675863 0.017345186164701043
4.4217421875 1.0510069492819738 0.017727942626103332
4.422890625 1.0499000650272605 0.020039746340174233
4.4240390625 1.0503601101792914 0.022595134040328438
4.4251875 1.050292294283141 0.02322113488328977
4.4263359375 1.0505128670295236 0.025342434575772413
4.427484375 1.0507877901178382 0.026851646879525334
4.4286328125 1.0497387420677757 0.028886147120710637
4.42978125 1.0501100163560746 0.02974816382038123
4.4309296875 1.0504534895577173 0.03271146207120729
4.432078125 1.0510517827494208 0.034117832447770766
4.4332265625 1.0511479610011143 0.03480567511781847
4.434375 1.0499115564129786 0.037633955749782094
4.4355234375 1.0498324920282367 0.0396836552475965
4.436671875 1.049752135895867 0.04118038993099023
4.4378203125 1.049612183604554 0.04244967540700324
4.43896875 1.0492910438029106 0.044195355172721454
4.4401171875 1.0486773638905376 0.04661145798076646
4.441265625 1.0486479497203793 0.048042623858102346
4.4424140625 1.0482373174373893 0.05010097612749995
4.4435625 1.0486060336561516 0.050665458875147736
4.4447109375 1.0486697725923178 0.05194514643304937
4.445859375 1.048745056154909 0.05573155516679412
4.4470078125 1.0487052245833732 0.05812446744097012
4.44815625 1.0477311113018533 0.05789720212192784
4.4493046875 1.0471127701510132 0.06040865765392098
4.450453125 1.0475576082289773 0.06186739853652681
4.4516015625 1.0458715982862696 0.06262177105538898
4.45275 1.0468308888361735 0.06522883583615874
4.4538984375 1.046206733154879 0.06686299801711942
4.455046875 1.0462105037633784 0.06789707780933596
4.4561953125 1.0453471773329674 0.0685552955136313
4.45734375 1.0459160171694832 0.07044034759094187
4.4584921875 1.0447676027338408 0.0730477615155499
4.459640625 1.0449785180994968 0.07374226081408067
4.4607890625 1.0447241491505443 0.07518529826893172
4.4619375 1.0453453838298317 0.07765317004481151
4.4630859375 1.0460200311583738 0.07792423550878971
4.464234375 1.0462592187678859 0.07958988277469894
4.4653828125 1.04575597609132 0.08300236016262416
4.46653125 1.0454464996953061 0.08270860718168312
4.4676796875 1.0461547176508987 0.08478243340261381
4.468828125 1.0463153547044608 0.08632578144391778
4.4699765625 1.0459186839904717 0.08710790574059996
4.471125 1.045727476420833 0.08848650055146574
4.4722734375 1.0445866771142585 0.09145293407085292
4.473421875 1.0454928161392165 0.0928319142655662
4.4745703125 1.04565382106406 0.09413839654722414
4.47571875 1.0456933120779413 0.0964646628263621
4.4768671875 1.0463801983226004 0.09797170717495118
4.478015625 1.0463986345612222 0.09877678898493267
4.4791640625 1.046015348851061 0.10158222122217844
4.4803125 1.0462539316946489 0.10289800814549957
4.4814609375 1.0459095031831684 0.10386093432640073
4.482609375 1.0453737722284222 0.10507643055771582
4.4837578125 1.0454027333538716 0.10683891904639373
4.48490625 1.0455062623269185 0.10870274127809182
4.4860546875 1.0450215345077103 0.10950709551494203
4.487203125 1.0453727081801465 0.11106482952364832
4.4883515625 1.04559098341162 0.11341858666949056
4.4895 1.04480420129675 0.11405413512740156
4.4906484375 1.0455148094210371 0.11674324327889068
4.491796875 1.0451591691418332 0.11885510481012582
4.4929453125 1.0448327955344503 0.11915115648847474
4.49409375 1.0445337312272045 0.12164888190033363
4.4952421875 1.0449129598403302 0.12283512150422382
4.496390625 1.0445628088333812 0.12389595805057207
4.4975390625 1.0434722904917404 0.1256219258226846
4.4986875 1.0443451767876257 0.12817754733318415
4.4998359375 1.0435166750086373 0.12915413337620987
4.500984375 1.0433706577852666 0.13049211749442877
4.5021328125 1.0427156635866657 0.13389062901545806
4.50328125 1.0433510717315948 0.13557095660462254
4.5044296875 1.0429740838445656 0.13709547274892
4.505578125 1.0421574446792206 0.14030534183573692
4.5067265625 1.0438028370702535 0.14169615064805294
4.507875 1.0423729185549324 0.1431779770532419
4.5090234375 1.0425504022988332 0.14493930293147872
4.510171875 1.0430822633363892 0.1471580400259177
4.5113203125 1.0410255758464997 0.14807366935373764
4.51246875 1.042411244426729 0.15063735036726547
4.5136171875 1.040864673542288 0.15323081354422918
4.514765625 1.04065209675694 0.15386451300303272
4.5159140625 1.0394917389410558 0.15624961230370146
4.5170625 1.0394423841071485 0.15727817563858754
4.5182109375 1.0398823276498323 0.15795765454446536
4.519359375 1.039104268736584 0.15920725862714516
4.5205078125 1.0377666090285587 0.1619950230218999
4.52165625 1.0378932476885567 0.16305916476486154
4.5228046875 1.037186143475978 0.16450403508064546
4.523953125 1.0377650117117656 0.16716988811054034
4.5251015625 1.0358246678314913 0.1678834787244995
4.52625 1.0366768022726773 0.17108843227323692
4.5273984375 1.0360294263613286 0.17252424345515552
4.528546875 1.0355694510939597 0.17386004848277892
4.5296953125 1.0356604089489185 0.17567238372967608
4.53084375 1.0356131107176454 0.17646492750968146
4.5319921875 1.0348415434758094 0.17902596098156937
4.533140625 1.034842585957858 0.18069587084169247
4.5342890625 1.0339854074642334 0.18041916277728032
4.5354375 1.0345739241628096 0.1835261327085004
4.5365859375 1.0349947390126903 0.18469747535120057
4.537734375 1.0339217912374492 0.18510489976031658
4.5388828125 1.0340704977405357 0.18694670875550148
4.54003125 1.0339443468128726 0.18787532724396727
4.5411796875 1.0331157133673217 0.19047020007255955
4.542328125 1.0341970426814302 0.19189641526713
4.5434765625 1.034312465678412 0.19335021850823397
4.544625 1.0330719259760874 0.19654710698348993
4.5457734375 1.0328187999594571 0.19686195600796436
4.546921875 1.0329634874034914 0.19926309778824164
4.5480703125 1.0327269131743082 0.2013493184658627
4.54921875 1.0333442840466964 0.2025202563912206
4.5503671875 1.03270573590664 0.20503732864575228
4.551515625 1.0321319342666557 0.2064595695352911
4.5526640625 1.0308987963962206 0.20695106982762704
4.5538125 1.0314306777288318 0.20921210706943968
4.5549609375 1.0313631091300013 0.210586473108212
4.556109375 1.0309941948879453 0.2118647072550696
4.5572578125 1.0304612198121175 0.21310679856972545
4.55840625 1.02950638625058 0.21520855519437293
4.5595546875 1.0305661715653118 0.21700177629493017
4.560703125 1.029987532725249 0.2177751798153937
4.5618515625 1.0300710787313208 0.22006779810653498
4.563 1.0296243640214748 0.2215677256599851
4.5641484375 1.029598304623749 0.22283651380310038
4.565296875 1.0299179359045925 0.22464532022129907
4.5664453125 1.0295927117053854 0.226721072122527
4.56759375 1.0294862652064443 0.22827246712151839
4.5687421875 1.03004747107683 0.22950077346082315
4.569890625 1.0285097220894428 0.23183965502856002
4.5710390625 1.027997733941432 0.23267027336902313
4.5721875 1.0279239424078654 0.23439222747390764
4.5733359375 1.0281472529380637 0.23702269962626296
4.574484375 1.0283204265678116 0.23890740571593402
4.5756328125 1.028152880711797 0.23989068378156486
4.57678125 1.0277833859549326 0.24162523944772094
4.5779296875 1.0276447162531526 0.24340261369023497
4.579078125 1.0257648880014367 0.24543578381809958
4.5802265625 1.0259544606816013 0.24681288013544264
4.581375 1.0256318676674847 0.2487637085770722
4.5825234375 1.0242934751978139 0.250838359071345
4.583671875 1.0244049515300193 0.25278470514410445
4.5848203125 1.023150955801619 0.25442585640169707
4.58596875 1.0217386419282908 0.25682000460372933
4.5871171875 1.020259659085613 0.2578433197360992
4.588265625 1.020101406571831 0.2608015005371112
4.5894140625 1.0200810096629502 0.26148208783695853
4.5905625 1.0191536991482335 0.26189007429146444
4.5917109375 1.0188088993435307 0.2648237183703992
4.592859375 1.0180142294901575 0.266551151126039
4.5940078125 1.017628689647775 0.26853846017523536
4.59515625 1.0173192026779538 0.2692723680701004
4.5963046875 1.0170144760100523 0.27091815296941446
4.597453125 1.0159901769831463 0.2733052249550727
4.5986015625 1.0152269089551447 0.27353436250641505
4.59975 1.0146394491552682 0.27621753658918197
4.6008984375 1.0143169757757047 0.2783379056706422
4.602046875 1.014218743452872 0.2790670521425335
4.6031953125 1.0133418380573795 0.28122965980692816
4.60434375 1.0128604320040617 0.2840891306412689
4.6054921875 1.0129100954387267 0.2846161778517153
4.606640625 1.0128368467521112 0.2870960651116649
4.6077890625 1.0132701100369068 0.28770019403757446
4.6089375 1.01247579498617 0.2881690638200073
4.6100859375 1.0119327365043453 0.29020516193675155
4.611234375 1.0109521007151683 0.2920013168310787
4.6123828125 1.011028891303136 0.29330993962830615
4.61353125 1.0112771216398582 0.29375325915731504
4.6146796875 1.0109149004904239 0.2963998448842619
4.615828125 1.0103713603692397 0.29851051337211343
4.6169765625 1.0108945229595654 0.2995420225286353
4.618125 1.010128997000775 0.3019826012358909
4.6192734375 1.0094168184924883 0.3030471306595273
4.620421875 1.0085718452468881 0.3037619463213816
4.6215703125 1.007962312266489 0.30537628907985126
4.62271875 1.0076183756892054 0.3075278668460842
4.6238671875 1.0073914023649893 0.3103179082960586
4.625015625 1.0070955535367485 0.31152679010136075
4.6261640625 1.0071182927298215 0.31320466137011294
4.6273125 1.0064475326004945 0.31452747616956006
4.6284609375 1.005807810340927 0.31493590540905936
4.629609375 1.0050804346534095 0.3180410060786966
4.6307578125 1.0047579693984838 0.3193783788616923
4.63190625 1.0046909804846935 0.3190677801124258
4.6330546875 1.0040707542179255 0.3218441004765015
4.634203125 1.0041435313862046 0.324183969555901
4.6353515625 1.0033761518894413 0.3260143907377465
4.6365 1.0027028874535837 0.32702434776104505
4.6376484375 1.002741924522302 0.3280528566128921
4.638796875 1.0018321116942932 0.32933330097834634
4.6399453125 1.0011459836131202 0.33080835025854444
4.64109375 1.0012752235023366 0.3334876194402402
4.6422421875 1.000508195250078 0.3345254728542791
4.643390625 1.0003499136243819 0.33444516428306126
4.6445390625 1.000533273746822 0.33697308783328855
4.6456875 0.9990750695962447 0.3396154519847865
4.6468359375 0.9982852310666386 0.34095793138570424
4.647984375 0.9982247641824298 0.3430432409094748
4.6491328125 0.9983774166148527 0.34519012279341765
4.65028125 0.9972619258729802 0.34694710822364483
4.6514296875 0.9959519638087584 0.3485519673691184
4.652578125 0.9955715055014369 0.3511034818231047
4.6537265625 0.9947800664906269 0.3522858032156985
4.654875 0.9940147530804343 0.35324069491527843
4.6560234375 0.9931860135365366 0.3550671079619575
4.657171875 0.9924667641605912 0.35784286733585235
4.6583203125 0.9915762030783892 0.358372658477506
4.65946875 0.991305139887336 0.3604473849731235
4.6606171875 0.9909716333571945 0.36226165539914057
4.661765625 0.9905912459406193 0.36297768260287366
4.6629140625 0.9895668625418941 0.36545068820479276
4.6640625 0.9892418782797822 0.36764143520149417
4.6652109375 0.9886157501108485 0.36848285316759594
4.666359375 0.9883952500135649 0.3698637464103541
4.6675078125 0.9876506597202346 0.3711010657032495
4.66865625 0.9870476936057815 0.3729029880123292
4.6698046875 0.9865379364731766 0.3744221392392211
4.670953125 0.985184110045068 0.37602105419806187
4.6721015625 0.9846511966220383 0.37850853759166003
4.67325 0.9844836503256867 0.37985241446307183
4.6743984375 0.9835467154919166 0.38096363343889983
4.675546875 0.982957505160938 0.3836487364116907
4.6766953125 0.9831227802012585 0.3854409979932988
4.67784375 0.9823816614221597 0.387244320519301
4.6789921875 0.9824524691164823 0.38828165009312343
4.680140625 0.9810646885748286 0.39029547010037285
4.6812890625 0.9798717636365173 0.39125283327727367
4.6824375 0.97885309399609 0.3943777791180157
4.6835859375 0.979092877146283 0.3961345833366852
4.684734375 0.9791395491893741 0.39536646921140906
4.6858828125 0.9775040225007627 0.3982242597409418
4.68703125 0.9779170233720779 0.39984617644435716
4.6881796875 0.9768977549604789 0.4011642735047284
4.689328125 0.9767307914551899 0.4031814310930826
4.6904765625 0.9764967961349412 0.4049823768260231
4.691625 0.9757932009586063 0.4065903310348818
4.6927734375 0.9743810312356669 0.40739487797539414
4.693921875 0.9734174199093784 0.40963112903045285
4.6950703125 0.9725806898077876 0.4113537561243212
4.69621875 0.9724375505478624 0.4131587851208788
4.6973671875 0.9718623620492058 0.4148033289792194
4.698515625 0.9712918106700141 0.416652457070681
4.6996640625 0.9704417164154379 0.417019469136546
4.7008125 0.970236952743419 0.41844829473353945
4.7019609375 0.9695088174704993 0.4209868581819511
4.703109375 0.9686201691807953 0.4220731832350913
4.7042578125 0.9668455501640278 0.4240841211047329
4.70540625 0.9674622759803104 0.4259420003026503
4.7065546875 0.9651858818441158 0.4273603383795431
4.707703125 0.9651242329459582 0.428398454655074
4.7088515625 0.9661205439687996 0.4295773214087445
4.71 0.9652532618449882 0.4309682669982584
4.7111484375 0.9640246337513998 0.43258671363770007
4.712296875 0.9637667097792227 0.43452140341396106
4.7134453125 0.9633266475051756 0.4366107775230207
4.71459375 0.9623748082514478 0.43852322927890575
4.7157421875 0.9612727691539142 0.4404481132294456
4.716890625 0.9608146289711608 0.44323375273025756
4.7180390625 0.9588184693041022 0.4439443995156423
4.7191875 0.9592105206900116 0.4445011830766675
4.7203359375 0.9593589255421481 0.4470310242463051
4.721484375 0.9571352232640987 0.448392125111207
4.7226328125 0.9559489759105115 0.4492855125696977
4.72378125 0.9549531045515323 0.45170418085890834
4.7249296875 0.9547925229005076 0.45345207226233447
4.726078125 0.954212601256039 0.4545986293491345
4.7272265625 0.9534195944266713 0.4557808806951972
4.728375 0.9532494877673445 0.4572821817879377
4.7295234375 0.9522268848296058 0.4580773207911246
4.730671875 0.9510671941525617 0.4605636566853559
4.7318203125 0.9511145706713393 0.46236160147333427
4.73296875 0.950364429950821 0.46301598096911667
4.7341171875 0.948922324659777 0.464390997273227
4.735265625 0.9489892720742877 0.4669650099840813
4.7364140625 0.9485276471906859 0.46848419646426054
4.7375625 0.9468005327016522 0.4686203138944202
4.7387109375 0.9459048618155965 0.47004151594090926
4.739859375 0.9453030802013254 0.4729610405372279
4.7410078125 0.94388517932629 0.473306959629767
4.74215625 0.94405242190248 0.47654160302534104
4.7433046875 0.9431126627529394 0.47812777559912545
4.744453125 0.9435537670520273 0.4786150264074383
4.7456015625 0.9406157404778808 0.48002429450156453
4.74675 0.9396358017095817 0.4811668239018558
4.7478984375 0.9388587403538207 0.48391038758403143
4.749046875 0.9382770149094406 0.4829004985292377
4.7501953125 0.9383083672727281 0.4867623456219685
4.75134375 0.9379571811694607 0.48887387408968885
4.7524921875 0.9368741558862261 0.4900461808629452
4.753640625 0.9362975738999282 0.49169814244525134
4.7547890625 0.9347804291867807 0.4932055875363924
4.7559375 0.9347107319483217 0.49426984180407696
4.7570859375 0.9335947710368557 0.4951591899320052
4.758234375 0.9332459847598582 0.4972722450600381
4.7593828125 0.9314268796166602 0.49957877711795273
4.76053125 0.9305829643830937 0.4993397936383895
4.7616796875 0.9307165718849675 0.5019989447625821
4.762828125 0.9304431261102583 0.5033310747836833
4.7639765625 0.9294674872673518 0.5040258776523299
4.765125 0.9294440202927676 0.5055159474439198
4.7662734375 0.9279259406591037 0.5074553720332494
4.767421875 0.9271132108537266 0.5083669539091328
4.7685703125 0.9262649682980253 0.509936026882644
4.76971875 0.9253255167586756 0.511828898541274
4.7708671875 0.9241491458412021 0.5137121187812937
4.772015625 0.9237195882680587 0.5142117177953581
4.7731640625 0.9227913528766618 0.5157519165594553
4.7743125 0.9228071766172208 0.5177510122229979
4.7754609375 0.9211683327858885 0.5183109979474271
4.776609375 0.9195896124097817 0.5209010051965666
4.7777578125 0.9184722458422135 0.5230861187991156
4.77890625 0.9186855832987939 0.5233824892291252
4.7800546875 0.9187085874897409 0.5249629859279432
4.781203125 0.9169579637638474 0.5261009363923992
4.7823515625 0.9161855119050328 0.5277097941287537
4.7835 0.9143791479157444 0.5300552253128045
4.7846484375 0.9139887164332534 0.5320050098896768
4.785796875 0.9138179727802717 0.5329524346483421
4.7869453125 0.9123712651138717 0.5339747483310348
4.78809375 0.9108129354119805 0.5369394420929778
4.7892421875 0.9107034148694199 0.538341181633605
4.790390625 0.9093252944782213 0.5389737794738279
4.7915390625 0.9081776987411243 0.5407028380767946
4.7926875 0.9077206121318396 0.5430647044004016
4.7938359375 0.9067687285334898 0.5439031436995335
4.794984375 0.9055482287826498 0.5445659999354564
4.7961328125 0.9037475315242534 0.5480617827265457
4.79728125 0.9031445923453955 0.5499718933853452
4.7984296875 0.9030759317829558 0.5508883910572866
4.799578125 0.90238363530378 0.5526429142545699
4.8007265625 0.9017951410695478 0.5539493609869415
4.801875 0.9006466397745656 0.5545554037428564
4.8030234375 0.8980509439992815 0.5559625901230112
4.804171875 0.8969850571352431 0.5565512717626613
4.8053203125 0.8962470785671788 0.5579488156527393
4.80646875 0.8950343088235581 0.5598019923561695
4.8076171875 0.8938081130553485 0.5615227210566525
4.808765625 0.8937267005424905 0.5628566432027471
4.8099140625 0.8918491480200064 0.5654807009770786
4.8110625 0.8915903506789152 0.5667521933223217
4.8122109375 0.8900231362673964 0.5674110715563604
4.813359375 0.888628752051142 0.5686984340681929
4.8145078125 0.8891986210095563 0.5697532789249651
4.81565625 0.887557700777113 0.572343258908663
4.8168046875 0.8866056128774424 0.5739017058508757
4.817953125 0.8860555051200364 0.5752125402206567
4.8191015625 0.8848769593344035 0.576370254657971
4.82025 0.884523142873374 0.5772716615821878
4.8213984375 0.8830548907226649 0.579315859259346
4.822546875 0.882325131098427 0.5812756249230253
4.8236953125 0.881179903993656 0.5809361451155185
4.82484375 0.8795865085457758 0.5837582036143528
4.8259921875 0.879099619811709 0.5855759565941286
4.827140625 0.8778017404377694 0.5862627312028688
4.8282890625 0.8770440675473512 0.5877270676776747
4.8294375 0.8766286577862072 0.5887938535670689
4.8305859375 0.8751997491181305 0.5911848135309302
4.831734375 0.8744037424292752 0.5920099664131645
4.8328828125 0.8728780847197569 0.5940377222716078
4.83403125 0.8721716720950956 0.5950224726231831
4.8351796875 0.8716583581545254 0.5962689323291214
4.836328125 0.8701399126615061 0.5965271637278513
4.8374765625 0.8692903273564712 0.5989870905946362
4.838625 0.8682751277638258 0.5999471435150465
4.8397734375 0.8668155619511694 0.6030669803500336
4.840921875 0.8669145009867468 0.6042630897648416
4.8420703125 0.8660134642370615 0.6057569147913915
4.84321875 0.8643584354153759 0.6071441752245506
4.8443671875 0.8638872369443698 0.6082162777313108
4.845515625 0.8631028908818412 0.6108810264409373
4.8466640625 0.8613241802062349 0.6105544642310506
4.8478125 0.8606261933018086 0.6132480763086685
4.8489609375 0.8601140972324139 0.6153902959327913
4.850109375 0.8585961016725234 0.615195458499538
4.8512578125 0.8580073115227317 0.6167517957240419
4.85240625 0.857209611247718 0.6183314926453843
4.8535546875 0.8560389864810303 0.6185707025616013
4.854703125 0.8553420514139123 0.6217507501760777
4.8558515625 0.8537172644567941 0.6237355266596607
4.857 0.8531324649369134 0.625539323881941
4.8581484375 0.851631765984912 0.6255189423419282
4.859296875 0.8505881026878033 0.626635038804635
4.8604453125 0.8493361758108904 0.6287269021907015
4.86159375 0.848308946341205 0.6300690748334076
4.8627421875 0.8485062977337852 0.6318674830313097
4.863890625 0.8467798686576037 0.6343926371944145
4.8650390625 0.8452152283226015 0.6350092326979556
4.8661875 0.8421736673260037 0.6363805990059823
4.8673359375 0.8420931858083686 0.6375262205936456
4.868484375 0.8394885164380671 0.6381463062179036
4.8696328125 0.838837226863246 0.6407339055688139
4.87078125 0.8383840769045933 0.6428940009640909
4.8719296875 0.836297688484845 0.6437106801032895
4.873078125 0.8355931277005045 0.643782155366915
4.8742265625 0.8348636479926955 0.6459217352573463
4.875375 0.8321989569173838 0.6476381118095755
4.8765234375 0.8311482922433219 0.6472492488609262
4.877671875 0.8305444385941803 0.6490583700364839
4.8788203125 0.8292962576127506 0.6503191931979742
4.87996875 0.8281647948687928 0.6519695823499472
4.8811171875 0.8268533490089373 0.6521373949265505
4.882265625 0.8263516000528701 0.654608188746408
4.8834140625 0.825585232204576 0.6562823610060289
4.8845625 0.8236054066328092 0.6566994215538183
4.8857109375 0.8220628166100374 0.6581501739994734
4.886859375 0.821589950053726 0.6605235534934106
4.8880078125 0.8208643584884503 0.6594627350520217
4.88915625 0.8201139105282264 0.6619152807448729
4.8903046875 0.8184712641422915 0.6637686039221349
4.891453125 0.8186048950008915 0.6642552924742291
4.8926015625 0.8171757495202632 0.6650179040310817
4.89375 0.8152062997455605 0.6674889986834653
4.8948984375 0.8148346430056304 0.6682359929783788
4.896046875 0.8132239496295286 0.6699303197877067
4.8971953125 0.8124567811793257 0.6716098162651944
4.89834375 0.8115550061104256 0.6740057295732371
4.8994921875 0.8105651176112384 0.6753785044831961
4.900640625 0.8091732542534826 0.6758384423311251
4.9017890625 0.8078815883975916 0.6769256189079802
4.9029375 0.8061930162984171 0.6777026908036584
4.9040859375 0.8054321148512054 0.6801301159673518
4.905234375 0.8040995490262286 0.6811564306539919
4.9063828125 0.8032522201265231 0.6829338852855142
4.90753125 0.8013406398012632 0.683716905611241
4.9086796875 0.8007236817066365 0.6866178783641933
4.909828125 0.7997014622738234 0.6871877973200136
4.9109765625 0.7990658623654336 0.6883381746718436
4.912125 0.797683081727486 0.69029833757059
4.9132734375 0.7968628632109935 0.6915750686870797
4.914421875 0.79576330597712 0.6923275413868217
4.9155703125 0.7944327355595927 0.693966466930485
4.91671875 0.7922294987134629 0.6955367588347564
4.9178671875 0.7918873738695077 0.6959791166191429
4.919015625 0.7902301708857529 0.6961142288083052
4.9201640625 0.7893637658153501 0.6983842416424708
4.9213125 0.7889433833576538 0.6993938228308976
4.9224609375 0.7870995153004052 0.7004928260313398
4.923609375 0.7855733684094826 0.7026829448356291
4.9247578125 0.7847459504811019 0.7032812561927242
4.92590625 0.7836192206835648 0.7036072528198021
4.9270546875 0.7816073572919914 0.7064951716865892
4.928203125 0.7814769766979164 0.7080452775267562
4.9293515625 0.7802943217288942 0.7094022752659903
4.9305 0.7809803115864609 0.7105028378588096
4.9316484375 0.777886492497109 0.7125470920802297
4.932796875 0.7764754603716184 0.7130414388273452
4.9339453125 0.7748624158363211 0.7155172976126707
4.93509375 0.7728997510021092 0.7176288012918755
4.9362421875 0.7737188929939114 0.717097015150453
4.937390625 0.7722219294792744 0.7179323091325946
4.9385390625 0.7707941596632562 0.7208999063260445
4.9396875 0.7687905926170803 0.7220097712368957
4.9408359375 0.767304378534683 0.7229142850902877
4.941984375 0.7675694404756118 0.7245519059877482
4.9431328125 0.7663744981171853 0.7260143462886234
4.94428125 0.765484595548207 0.7273708685233651
4.9454296875 0.763204048186418 0.7291065667357259
4.946578125 0.7609597147888965 0.7294584859070354
4.9477265625 0.7605386991485766 0.7315325983782203
4.948875 0.7591656747974553 0.7325753218978753
4.9500234375 0.7567233111201133 0.7342934838123186
4.951171875 0.7553039641377123 0.7352895157707293
4.9523203125 0.7543431313064601 0.7368017743049882
4.95346875 0.753573078153047 0.7379868005606776
4.9546171875 0.7530346389636209 0.7383379311346344
4.955765625 0.7510542913667047 0.7383588390520976
4.9569140625 0.7504124148104417 0.7389358114519496
4.9580625 0.7482344029412449 0.7409078901020979
4.9592109375 0.7472998896499459 0.7431088323337662
4.960359375 0.7477036828735133 0.7431368175964922
4.9615078125 0.7452796920511058 0.7439263389642552
4.96265625 0.7426496756290452 0.7455608405807214
4.9638046875 0.7421465170594211 0.7463182198978958
4.964953125 0.7406508489132482 0.7478315297062359
4.9661015625 0.7395292592000496 0.7496863284793847
4.96725 0.7383277351321399 0.7500759460563134
4.9683984375 0.7365596885045553 0.7532613591178849
4.969546875 0.7353672998011156 0.7541356513995404
4.9706953125 0.7337483224845501 0.7543291040214543
4.97184375 0.7321312418893895 0.7559424259493774
4.9729921875 0.7313992165174632 0.7576239107310601
4.974140625 0.730391131716573 0.757324164586516
4.9752890625 0.728985257342423 0.7593309556465526
4.9764375 0.728353155863162 0.7615424597465776
4.9775859375 0.726501987820646 0.7622359442944004
4.978734375 0.7244859945686086 0.762827727512553
4.9798828125 0.723864200694336 0.7645199676211925
4.98103125 0.7221850894915689 0.7660715536223137
4.9821796875 0.7207315294675852 0.7660666441422641
4.983328125 0.719617328213137 0.7686787666784705
4.9844765625 0.7182239566421393 0.7684920190594607
4.985625 0.7166533012082926 0.7699256045420002
4.9867734375 0.7148431260435347 0.7718953233886601
4.987921875 0.7131526260490019 0.7724855670776599
4.9890703125 0.7134028809500726 0.7735486652807859
4.99021875 0.7126650538232893 0.7749595522044981
4.9913671875 0.7107539467828834 0.7778491721612474
4.992515625 0.709473401792639 0.7781500253292712
4.9936640625 0.7093250191013234 0.778541547392682
4.9948125 0.7072875003788597 0.7811117266387368
4.9959609375 0.7062076195814391 0.780823618859077
4.997109375 0.7043654952166384 0.7826560167643865
4.9982578125 0.7034124470561242 0.7840079073516448
4.99940625 0.7022899980575772 0.7858218258182511
5.0005546875 0.7005565804552797 0.7858364590241764
5.001703125 0.7001413029019772 0.7871913525950764
5.0028515625 0.6975949409872322 0.7883302305187705
5.004 0.6952510819765794 0.7904302207758371
5.0051484375 0.6928772043516179 0.792407318195119
5.006296875 0.6917100341144661 0.7927163890546559
5.0074453125 0.6904658225073571 0.7932645638664335
5.00859375 0.6897149786333924 0.7941995749438168
5.0097421875 0.6881826676239964 0.7966938354894905
5.010890625 0.6869447273498224 0.7971765915315994
5.0120390625 0.6860543327958025 0.7975693516228027
5.0131875 0.685153292422526 0.8006190500405722
5.0143359375 0.6834368357058964 0.8003792457142811
5.015484375 0.6810532404806848 0.8018126125081496
5.0166328125 0.6789992594145884 0.8038226782826222
5.01778125 0.6782947371763862 0.8038616287182015
5.0189296875 0.6778287435525658 0.8044164090551275
5.020078125 0.6760739959625146 0.8064330026601538
5.0212265625 0.6740230799971061 0.808583079441056
5.022375 0.6719438330078753 0.8086871853188905
5.0235234375 0.6716432067777208 0.8097644168673915
5.024671875 0.6702356334056226 0.8115067939400991
5.0258203125 0.6691623436250609 0.8121719444618364
5.02696875 0.6679117271781082 0.813419836105608
5.0281171875 0.6664542462455187 0.8142068923198875
5.029265625 0.6653038897619633 0.8157452872274841
5.0304140625 0.6637386876124405 0.8166746115104102
5.0315625 0.6619374759557728 0.8158585088919904
5.0327109375 0.660022847749312 0.8169119870773258
5.033859375 0.6581021051936409 0.8195469506692186
5.0350078125 0.6579795362173818 0.8186493435007767
5.03615625 0.6565910379730692 0.819898631243785
5.0373046875 0.654356783207613 0.8217659806860121
5.038453125 0.6535622007690197 0.8211019292824087
5.0396015625 0.6518917123986391 0.8223803903957743
5.04075 0.6508434043933917 0.8237791191642091
5.0418984375 0.6487536730138265 0.824864257602367
5.043046875 0.6486761974233842 0.8261580091081565
5.0441953125 0.6458047411763002 0.8273610388908219
5.04534375 0.6441576765663157 0.8288426192658122
5.0464921875 0.6419199710994317 0.8297375714205599
5.047640625 0.6405240212043111 0.8310982878522964
5.0487890625 0.6389095519593833 0.8322500881467048
5.0499375 0.6382984272656143 0.8328806794983038
5.0510859375 0.6371968052718164 0.8345273694192245
5.052234375 0.6347764273784678 0.8365036781835917
5.0533828125 0.6332382404324381 0.8376827351903917
5.05453125 0.6322376919439197 0.8391507695069246
5.0556796875 0.6320886900330482 0.8391056431648058
5.056828125 0.6293561270608679 0.8403749524387748
5.0579765625 0.6288932041352716 0.8409631697777581
5.059125 0.6265273438393405 0.842565029587406
5.0602734375 0.62620796999351 0.8436504782517087
5.061421875 0.6252039476796861 0.8428245959711873
5.0625703125 0.62350074548926 0.8460660326852392
5.06371875 0.6214268032652862 0.8467071697274902
5.0648671875 0.6213330571754437 0.8469705282650912
5.066015625 0.6190246013451689 0.8474308905785268
5.0671640625 0.6182122323816592 0.8492979573573651
5.0683125 0.6160333100153601 0.8498594740847405
5.0694609375 0.6139855888076785 0.8519145135000533
5.070609375 0.6119506152791522 0.8526960258207955
5.0717578125 0.6114588134207988 0.853760537103179
5.07290625 0.6114189419545044 0.8542629157765524
5.0740546875 0.6095946724724285 0.8555060014595286
5.075203125 0.6067083507865729 0.8578658379413455
5.0763515625 0.6047910384891857 0.8580346145032742
5.0775 0.6034026379911318 0.8596944961707681
5.0786484375 0.6024121028731507 0.8609026115699945
5.079796875 0.6017158023578548 0.861436053977872
5.0809453125 0.5989702734936144 0.863039795540329
5.08209375 0.5976079962611687 0.8645159783683297
5.0832421875 0.595850111919138 0.8653442295109036
5.084390625 0.5948776578711101 0.8650274375098425
5.0855390625 0.5944559843007411 0.8656440179629237
5.0866875 0.5916763409911538 0.8670163480395948
5.0878359375 0.5905693493548071 0.867474593618097
5.088984375 0.5893976410882577 0.8691734721122726
5.0901328125 0.5862298318355341 0.8707908676638159
5.09128125 0.5869852936816446 0.8709817117613786
5.0924296875 0.5845766742998229 0.8710609488869099
5.093578125 0.5832999639430058 0.8729888431799008
5.0947265625 0.5805489156093797 0.8733739460790491
5.095875 0.5797861090087802 0.8746168185688612
5.0970234375 0.57846366573731 0.8743929762876541
5.098171875 0.5766561191589832 0.8764686738488334
5.0993203125 0.5751299284474534 0.8775090518439151
5.10046875 0.5732577062308778 0.8783111630661534
5.1016171875 0.5712378539457753 0.8786362212439495
5.102765625 0.5712219280105992 0.8795467882956974
5.1039140625 0.5683008336696697 0.8803132058218429
5.1050625 0.5666683170016393 0.8820607780829399
5.1062109375 0.5656041607604635 0.8825374351042136
5.107359375 0.5626082385836794 0.8835650237724777
5.1085078125 0.5627171156973497 0.8847516882515437
5.10965625 0.5626855602476167 0.8845420887718067
5.1108046875 0.5607749741067725 0.8859305693563433
5.111953125 0.5595254697683848 0.8867418614986192
5.1131015625 0.5575551064822282 0.8882623120651559
5.11425 0.5548788851056347 0.888687249277039
5.1153984375 0.5542117159912806 0.8897550094325015
5.116546875 0.5517668824657428 0.8902111560140815
5.1176953125 0.5504869879463765 0.8903250301752184
5.11884375 0.548121110726417 0.89153656163003
5.1199921875 0.5457815920636837 0.8934148230301183
5.121140625 0.5447918603724063 0.8929789600675428
5.1222890625 0.5426732488185404 0.8949071624299888
5.1234375 0.5412882105803254 0.8959786103532943
5.1245859375 0.5406683850263361 0.8969578462740727
5.125734375 0.5389015647231516 0.8982488007351839
5.1268828125 0.5373327691025307 0.8991014354980396
5.12803125 0.5357004073505551 0.8997650527467345
5.1291796875 0.5351571142996819 0.9001502803879076
5.130328125 0.5310336078029482 0.9014627031249967
5.1314765625 0.5298667623109432 0.9027074930089474
5.132625 0.5298938162668183 0.9024433233945797
5.1337734375 0.5268284052500992 0.9047206471608407
5.134921875 0.5252796826713426 0.90578479609896
5.1360703125 0.524635372017783 0.9070977643855098
5.13721875 0.5238439265604125 0.9085216264595593
5.1383671875 0.5214563812085117 0.9089904035793395
5.139515625 0.5201813188956287 0.9099979527115855
5.1406640625 0.5199891868538254 0.9096842102467853
5.1418125 0.5170553070602298 0.9123733195916737
5.1429609375 0.5152468068429873 0.9137239078269337
5.144109375 0.5149177121686384 0.9131309090807748
5.1452578125 0.5126721919419335 0.9139633764294584
5.14640625 0.5113084444099558 0.915718644735212
5.1475546875 0.5103152010244576 0.9163943907321339
5.148703125 0.5090339612616692 0.9168354102744217
5.1498515625 0.5079879315341966 0.9191792618078345
5.151 0.5063595490719688 0.9188396895064312
5.1521484375 0.5051567485657111 0.9188549560346324
5.153296875 0.5023904060053439 0.9202391965855858
5.1544453125 0.5008331631997448 0.920979435508216
5.15559375 0.49999420601475075 0.9210027235488452
5.1567421875 0.49834634667645994 0.9213559354052874
5.157890625 0.4963479493733699 0.9233151374787775
5.1590390625 0.49512600929073247 0.9243807278764418
5.1601875 0.4929256296398182 0.9244998884576081
5.1613359375 0.4921113321756677 0.9255716198605783
5.162484375 0.491063576419706 0.9259217017386321
5.1636328125 0.4888791539006201 0.9267928117658576
5.16478125 0.4849767367387141 0.9285703786136664
5.1659296875 0.4838660887337473 0.9282736460181664
5.167078125 0.4831351163951366 0.9290486249036795
5.1682265625 0.4830052643796091 0.9300277438396206
5.169375 0.4805914609863272 0.9308796099935944
5.1705234375 0.47922859317050714 0.9308508179058449
5.171671875 0.4766063178529397 0.9324948984867338
5.1728203125 0.47522386325374744 0.9341044784461394
5.17396875 0.47477022174869615 0.9335178056876534
5.1751171875 0.47289654231884837 0.9347081041217203
5.176265625 0.4700211701523408 0.9358585112170998
5.1774140625 0.46842730920166764 0.9373647404375413
5.1785625 0.46527919504639503 0.9383275971122778
5.1797109375 0.4634529567114507 0.9387172994144618
5.180859375 0.4622271322535753 0.9391652410866668
5.1820078125 0.46123060164468793 0.9405877000080607
5.18315625 0.4590875626239656 0.9415153864087566
5.1843046875 0.45782394811836885 0.9424394006419153
5.185453125 0.45623433405174135 0.9426883812041958
5.1866015625 0.45432839664354285 0.9438133931325269
5.18775 0.4522710102272126 0.9440550922393798
5.1888984375 0.4500355814703698 0.9451795160493196
5.190046875 0.44877582339111244 0.946056196928183
5.1911953125 0.44639730788097026 0.9470589517737235
5.19234375 0.4452090551220545 0.9480225072205122
5.1934921875 0.4440519091395716 0.9476674838848427
5.194640625 0.4423847394315384 0.9480666961946883
5.1957890625 0.4407694561739057 0.9497880455766284
5.1969375 0.4392683775033325 0.9497722758342927
5.1980859375 0.43776701553685654 0.9505804708601454
5.199234375 0.4354345240756143 0.9527070559490542
5.2003828125 0.4344019961346304 0.952232874306403
5.20153125 0.43231197934947285 0.954004237995733
5.2026796875 0.4307357266760341 0.9542578230070963
5.203828125 0.4297554232411252 0.955284940858497
5.2049765625 0.4273704664219048 0.9549807348312936
5.206125 0.42544856419506205 0.9558730881089531
5.2072734375 0.4243354157515781 0.9570903136415237
5.208421875 0.4219402945782176 0.9571246421888862
5.2095703125 0.42231918636725974 0.9584433641915943
5.21071875 0.42006311342066877 0.9581869462752789
5.2118671875 0.41925585421583306 0.9583870113253778
5.213015625 0.41758642390478473 0.9609157992849724
5.2141640625 0.41454812761070675 0.9618582356390417
5.2153125 0.4133472980298448 0.9621489303995879
5.2164609375 0.4116774409063306 0.9633158303827665
5.217609375 0.4096484990112611 0.9638733458242293
5.2187578125 0.40866208368012097 0.9638132249409896
5.21990625 0.40710595573959246 0.9644037396651195
5.2210546875 0.4056240964725327 0.9654521399895964
5.222203125 0.404926482536257 0.9652598072257663
5.2233515625 0.4037410737042654 0.9658832244264127
5.2245 0.4005820569351245 0.9661514429547445
5.2256484375 0.3982477753627804 0.9671901569456499
5.226796875 0.39724538127293724 0.9673508151619515
5.2279453125 0.39570143748220193 0.968496371536262
5.22909375 0.39446931312897116 0.9694190161604882
5.2302421875 0.3915462681126321 0.9692108388988108
5.231390625 0.38991956463531574 0.9706604692241602
5.2325390625 0.3890391762752054 0.9712071968824089
5.2336875 0.38755232733253353 0.9718056567906577
5.2348359375 0.38437898433485984 0.9727127847462063
5.235984375 0.38308604545693326 0.9742419016086487
5.2371328125 0.38088752481321997 0.974237553166471
5.23828125 0.3807179775353915 0.9741960783439848
5.2394296875 0.37836337614250765 0.975394870415816
5.240578125 0.37727581812457733 0.9758809284354031
5.2417265625 0.3755669170300298 0.9762672750961316
5.242875 0.3729213954620535 0.9763592197564248
5.2440234375 0.3709489977166666 0.9776652084071106
5.245171875 0.3703977758759035 0.9765593970929505
5.2463203125 0.3678059902780826 0.9777624184566929
5.24746875 0.3654059734748834 0.9789248694197146
5.2486171875 0.3657337407117968 0.9803924547668419
5.249765625 0.36481177461046005 0.9807794687329874
5.2509140625 0.36171008980922276 0.9821791567637801
5.2520625 0.3599092176388592 0.9828333210686474
5.2532109375 0.35806401946017485 0.9821632364430657
5.254359375 0.35603262865628843 0.9843015290004182
5.2555078125 0.3545927901868961 0.9849544910827648
5.25665625 0.35319451886820385 0.9858081876159521
5.2578046875 0.35163700978730283 0.9860385957433268
5.258953125 0.34896212378666325 0.9867541561666541
5.2601015625 0.34689190044137436 0.9873735125141078
5.26125 0.34603432037686815 0.9873762507679337
5.2623984375 0.34390887156421734 0.9891049827449614
5.263546875 0.3425829401492904 0.9895499991900083
5.2646953125 0.34093602365405606 0.9901521288182098
5.26584375 0.33786348047830045 0.9901791312273888
5.2669921875 0.3362031758258102 0.989780509133977
5.268140625 0.3354178390066683 0.9905705728466022
5.2692890625 0.3331360761873169 0.9916059336417961
5.2704375 0.3308636914066104 0.9921279595436588
5.2715859375 0.33007475743199693 0.9936074946454009
5.272734375 0.32965342197069863 0.994646624616025
5.2738828125 0.3270485760225971 0.9954239044873094
5.27503125 0.3255195896830463 0.9960256128271258
5.2761796875 0.32468178977770135 0.9948429941657069
5.277328125 0.32138732755925803 0.9956301727682928
5.2784765625 0.31975818371069903 0.9958358758285007
5.279625 0.3180852924515959 0.9963798470076984
5.2807734375 0.3161316013234726 0.9972096878121466
5.281921875 0.3147300136587148 0.9979109908422783
5.2830703125 0.31349527088782714 0.9975768269615911
5.28421875 0.3118182705105852 0.9982032401624715
5.2853671875 0.3102756972891183 0.9996523494500684
5.286515625 0.30843697916824653 1.0006427948291572
5.2876640625 0.3070642747874567 1.0000820479105843
5.2888125 0.3039110672155855 1.0016834643272192
5.2899609375 0.3030309452814666 1.0020996232372605
5.291109375 0.3014647363112849 1.0016863098428892
5.2922578125 0.2997973559173618 1.0025338455107082
5.29340625 0.2988580176414483 1.002052548449273
5.2945546875 0.297398953103699 1.0016973027822886
5.295703125 0.2947358563221011 1.0021988495059178
5.2968515625 0.2924091926095683 1.0049539718693465
5.298 0.2900773690336813 1.004170645741787
5.2991484375 0.2894592285338687 1.0054828518575685
5.300296875 0.28767318640632666 1.005274164391826
5.3014453125 0.28525311918019874 1.0056114468869095
5.30259375 0.28422022776463784 1.0058282213473604
5.3037421875 0.28207524619203184 1.006546414502552
5.304890625 0.2811712713156436 1.0066246285208817
5.3060390625 0.27961085257692864 1.0071362218674627
5.3071875 0.27732521916668773 1.0076381917941981
5.3083359375 0.27480839707818633 1.0085711833804158
5.309484375 0.2720972328642711 1.0087147765201188
5.3106328125 0.27153634686050987 1.0094762951622414
5.31178125 0.27021693138520625 1.0084896084337238
5.3129296875 0.26820625364365647 1.0104168697595963
5.314078125 0.2665650687537846 1.0120646376125055
5.3152265625 0.264848219582582 1.0108239877661902
5.316375 0.2631791968251008 1.011932107776475
5.3175234375 0.26213247261024786 1.011231957227357
5.318671875 0.257762002216514 1.0118409168706473
5.3198203125 0.25868196526593956 1.012526588652395
5.32096875 0.2544388882809617 1.0138390177822343
5.3221171875 0.2530320678227589 1.014084425222009
5.323265625 0.25101605309986913 1.0142549789742519
5.3244140625 0.25105493299770143 1.014782573099192
5.3255625 0.24830508984388366 1.0154582333209743
5.3267109375 0.24575403638653787 1.0151321633001813
5.327859375 0.245204757094867 1.0159867163220333
5.3290078125 0.24220911845014964 1.016546655268275
5.33015625 0.24061890478382847 1.0163362263679077
5.3313046875 0.2388589327126401 1.016779543708974
5.332453125 0.23763747814888628 1.0184206556728175
5.3336015625 0.23635098405502886 1.0186065543507379
5.33475 0.23364676191744171 1.0197609645684713
5.3358984375 0.23307474096519776 1.0193569561814624
5.337046875 0.22873434378646387 1.0188739178819681
5.3381953125 0.22862902182322664 1.020050507034534
5.33934375 0.22677253611374915 1.0212263846727785
5.3404921875 0.225768128918997 1.0208659528296635
5.341640625 0.22295385269518186 1.0213902337488658
5.3427890625 0.22039595664184014 1.0222082983619443
5.3439375 0.21995013575689537 1.021483743878037
5.3450859375 0.21816304330002306 1.0229614274281722
5.346234375 0.21612817240344942 1.0228014521922721
5.3473828125 0.2161169505930685 1.0227382501424018
5.34853125 0.21370771949331277 1.0236007890899907
5.3496796875 0.2121405866987343 1.024906009215657
5.350828125 0.20790757631866266 1.0251293449340895
5.3519765625 0.20775785176112724 1.025610991563332
5.353125 0.20642405221111138 1.025673656924972
5.3542734375 0.2037896075901988 1.0251688187692374
5.355421875 0.2022035346959651 1.0254410881307319
5.3565703125 0.2006360268812395 1.026073010929858
5.35771875 0.19874634616121684 1.026807006256817
5.3588671875 0.19897449761854985 1.0258497973969753
5.360015625 0.19613376734985616 1.0271957090731478
5.3611640625 0.19456991682700917 1.0273043988319468
5.3623125 0.1930114651430636 1.0266223079669152
5.3634609375 0.1893500906244998 1.0276172184439523
5.364609375 0.18727620228746097 1.027845975128978
5.3657578125 0.18701378388062387 1.028083718455238
5.36690625 0.18475569971765976 1.0287789462694779
5.3680546875 0.18260006179662347 1.0292276612895672
5.369203125 0.1810861192772953 1.0308045765751475
5.3703515625 0.1798645270656122 1.0306522684926256
5.3715 0.1774618911935676 1.0308177045527755
5.3726484375 0.17508210495444773 1.0322772724537013
5.373796875 0.17491412456765937 1.032443379112518
5.3749453125 0.17054241432098766 1.0307462463817982
5.37609375 0.1696111528820502 1.0325223708623819
5.3772421875 0.1684073100446693 1.0314633807776288
5.378390625 0.1673565421344631 1.0327451390902629
5.3795390625 0.1649253850424186 1.0339151845742633
5.3806875 0.16275720620740175 1.0341641116939937
5.3818359375 0.16145007829195948 1.0337538184610162
5.382984375 0.15963148804434615 1.0343025022629837
5.3841328125 0.15641279300390196 1.034069452179776
5.38528125 0.1554927442150359 1.0344311497628076
5.3864296875 0.15316867692382424 1.0347585915164694
5.387578125 0.15156312252155185 1.0350086124353644
5.3887265625 0.15080491567144602 1.0342476204907878
5.389875 0.14841668123742785 1.0344928743397301
5.3910234375 0.14676286694930646 1.0354394117761059
5.392171875 0.14314410092413604 1.0347738571252696
5.3933203125 0.14165234145082492 1.0353064536369974
5.39446875 0.14162842309966622 1.0360590809515346
5.3956171875 0.13868715562152903 1.0357038392209876
5.396765625 0.13787682451135652 1.0361022381630363
5.3979140625 0.13499047654339466 1.0367030491992768
5.3990625 0.1339366998502139 1.0365406288604875
5.4002109375 0.13114346705444904 1.0355612912624375
5.401359375 0.13048505514225217 1.0364204131290822
5.4025078125 0.12783317622006837 1.03758443656146
5.40365625 0.1260200822783395 1.0372966852640244
5.4048046875 0.12328244655383003 1.0373291943241294
5.405953125 0.1213911232766001 1.0377081336759877
5.4071015625 0.12063768128701599 1.0370885278410626
5.40825 0.1175823775127959 1.0374980619467413
5.4093984375 0.11701691368501943 1.037585923170845
5.410546875 0.1138599809191723 1.0388487820171701
5.4116953125 0.11364905829998131 1.0386039775209572
5.41284375 0.11033015349933004 1.0374886416951918
5.4139921875 0.10752885822914074 1.03862521100724
5.415140625 0.10726344097707391 1.038535723030329
5.4162890625 0.10471384413123588 1.0388726282524854
5.4174375 0.10312809172360923 1.0389795011404916
5.4185859375 0.10173943910370253 1.0394291617951337
5.419734375 0.09908038083323345 1.038823036567465
5.4208828125 0.09761389223772285 1.0412133838693107
5.42203125 0.09476121790722654 1.0407784536487343
5.4231796875 0.09459028559082622 1.041305436854599
5.424328125 0.09389949264585379 1.0416191827544048
5.4254765625 0.0905026839059976 1.04109409847143
5.426625 0.0897446999031768 1.0412853474074417
5.4277734375 0.08557559525584726 1.0416795301767043
5.428921875 0.08421574415384554 1.0423085786424628
5.4300703125 0.08344508631454825 1.0423288739815486
5.43121875 0.08124979218031558 1.044163439319613
5.4323671875 0.07955528424622364 1.0435058186220987
5.433515625 0.07853684123850632 1.042519528851055
5.4346640625 0.07709171874395274 1.043108642109075
5.4358125 0.07477138695896263 1.0432666254329048
5.4369609375 0.07165601601961528 1.0428183043620631
5.438109375 0.07057898399501293 1.0439446627721676
5.4392578125 0.06870300696776209 1.043222554038257
5.44040625 0.06654555305971652 1.0431343775512694
5.4415546875 0.0662415297137855 1.042583117097747
5.442703125 0.06384064758117801 1.0432821303033784
5.4438515625 0.061986585816843555 1.0425555660326495
5.445 0.059373702193131914 1.0434017371113664
5.4461484375 0.05683775679531273 1.0435637212668152
5.447296875 0.0553741653907151 1.044063566120253
5.4484453125 0.0543255609442638 1.0434218879400725
5.44959375 0.05184298970619119 1.0436110625579713
5.4507421875 0.04999003405415946 1.0444975718695513
5.451890625 0.048059128691516156 1.0442780606810356
5.4530390625 0.04636303070022969 1.0438559735326574
5.4541875 0.044045987966698424 1.0434957252968116
5.4553359375 0.04176766444401873 1.0440519043281418
5.456484375 0.04032432778841165 1.044236858567556
5.4576328125 0.038030030954577014 1.0443571377543783
5.45878125 0.03560911722499226 1.0442230580919472
5.4599296875 0.03514906204627787 1.0445927178752332
5.461078125 0.033462489497141104 1.04507826361501
5.4622265625 0.030049624680325702 1.0451174309510278
5.463375 0.027841004875839154 1.0456516864321894
5.4645234375 0.027735940704912906 1.0456927126575823
5.465671875 0.025484672005508024 1.0456279363331389
5.4668203125 0.023319389337831016 1.0454268782668314
5.46796875 0.022467033576928697 1.0450244554124324
5.4691171875 0.020028803024602547 1.0456103511187027
5.470265625 0.017263040676383408 1.0464962901233883
5.4714140625 0.01574406078169864 1.0453766690571815
5.4725625 0.013396298355837777 1.0454471755524994
5.4737109375 0.01151576415071473 1.0448241804870975
5.474859375 0.009634494549083612 1.0446620578551322
5.4760078125 0.008143369035176783 1.0456994379157083
5.47715625 0.0063063622534402924 1.0462900873256322
5.4783046875 0.0049790014891241685 1.0453829640172847
5.479453125 0.0034059053984409685 1.0447518200185884
5.4806015625 0.001306712206513863 1.046241964200136
5.48175 -0.0007484716611824566 1.0451967514143636
5.4828984375 -0.0019697853128967727 1.0445812778511907
5.484046875 -0.00331540959699151 1.045617166737458
5.4851953125 -0.005603983328936406 1.045705291987555
5.48634375 -0.00735590069558879 1.0450060975042068
5.4874921875 -0.00939926956375518 1.0452269535533902
5.488640625 -0.011724955511042731 1.0443778553945178
5.4897890625 -0.012921670274341976 1.043603864630984
5.4909375 -0.014200239752266114 1.0436865302870146
5.4920859375 -0.01645798726619408 1.044618921951348
5.493234375 -0.018355180738896804 1.04644121640867
5.4943828125 -0.019474970843844894 1.045486851546185
5.49553125 -0.02238555461886544 1.0467892208432923
5.4966796875 -0.023057377510713947 1.0459542930838335
5.497828125 -0.02625315807360207 1.0433003228702407
5.4989765625 -0.02844048860404886 1.0439976045230748
5.500125 -0.031793972760461676 1.0436646466239896
5.5012734375 -0.031801223662456524 1.0444384475195476
5.502421875 -0.03337493831321792 1.0435732735292076
5.5035703125 -0.035143115402377176 1.0443906282394055
5.50471875 -0.03722893426352422 1.0448003923613494
5.5058671875 -0.03880885688385913 1.0434653303215926
5.507015625 -0.04192094065677394 1.0432305665995165
5.5081640625 -0.043401466138649786 1.042892339688596
5.5093125 -0.0454365734881741 1.041928882812993
5.5104609375 -0.048409273757158214 1.043162595311998
5.511609375 -0.05013825311808025 1.041979160733749
5.5127578125 -0.04972969674283233 1.0416765987016685
5.51390625 -0.052458005062351314 1.0413609735606066
5.5150546875 -0.05549294857088902 1.039792257407937
5.516203125 -0.05698186993848646 1.0413786176050408
5.5173515625 -0.059132624846216106 1.0407417584986776
5.5185 -0.060672054738413986 1.040826938821094
5.5196484375 -0.06436823725731423 1.0400377166511972
5.520796875 -0.0634561062433367 1.039940237757488
5.5219453125 -0.0680822285939546 1.0399671806608912
5.52309375 -0.06861255339576706 1.0405669282255565
5.5242421875 -0.07092852612576594 1.039817502618484
5.525390625 -0.07302235915090341 1.0395079200513055
5.5265390625 -0.07569893872135218 1.0403303715109893
5.5276875 -0.07697744840873662 1.0398389012991491
5.5288359375 -0.08098286893153755 1.040104719978562
5.529984375 -0.08324321792550243 1.0404844107397413
5.5311328125 -0.08440660294824505 1.0403112166786135
5.53228125 -0.08582150915975931 1.041151566560566
5.5334296875 -0.08830391843787352 1.0419603967323507
5.534578125 -0.09095195503552932 1.0411790472218327
5.5357265625 -0.09116989994440183 1.0403371281390528
5.536875 -0.09343641957795278 1.0411323196624422
5.5380234375 -0.09582243797747309 1.041256234536391
5.539171875 -0.09886587018274294 1.040546083647691
5.5403203125 -0.10199844353738916 1.041314490537328
5.54146875 -0.10297163352141961 1.0416603729789604
5.5426171875 -0.10551318642743338 1.0421750710279007
5.543765625 -0.10677538082965571 1.0414394594641154
5.5449140625 -0.10867422749005615 1.040924557267882
5.5460625 -0.10993441954614001 1.0419991963970765
5.5472109375 -0.11206265745733118 1.0402113143020186
5.548359375 -0.1146851930087 1.0411236116159455
5.5495078125 -0.11651518277793882 1.0413667051688484
5.55065625 -0.11769181480807057 1.0417754785182123
5.5518046875 -0.12013569627580067 1.0416603981235628
5.552953125 -0.12179194964258831 1.0421372628662056
5.5541015625 -0.12191965373007961 1.0416944455831283
5.55525 -0.12381879928960263 1.041488425016646
5.5563984375 -0.1263394603631661 1.0415282741137015
5.557546875 -0.1269712925498358 1.0425758203482198
5.5586953125 -0.12794211512035755 1.0423064337294572
5.55984375 -0.1302528246291296 1.0414774986700006
5.5609921875 -0.13226534034625645 1.0420075708642955
5.562140625 -0.13227290279895443 1.0410473486148148
5.5632890625 -0.13500754126253134 1.0414568924600403
5.5644375 -0.13656675522526004 1.0417287999154812
5.5655859375 -0.1388934054038753 1.0399876388839964
5.566734375 -0.14008636438602717 1.040939581258467
5.5678828125 -0.14294297815780954 1.039883571798523
5.56903125 -0.1437967189858475 1.0391295221660204
5.5701796875 -0.1463514260593758 1.0383365609752495
5.571328125 -0.1481080794136411 1.0390364512162549
5.5724765625 -0.1502565108727123 1.039323131054119
5.573625 -0.15261484551014917 1.039916877077328
5.5747734375 -0.1542835132660663 1.0390181282492634
5.575921875 -0.1560711729974914 1.0373619844112676
5.5770703125 -0.1580026869643383 1.0366519328073973
5.57821875 -0.1607984071573328 1.0364882655735546
5.5793671875 -0.1618021390749838 1.0365082325501047
5.580515625 -0.16298951511398319 1.0357670909718064
5.5816640625 -0.16427854730404495 1.0355418537122667
5.5828125 -0.16878068202509156 1.0346936661294281
5.5839609375 -0.1698506008326125 1.0344184436772148
5.585109375 -0.1709023978860471 1.0348018414532507
5.5862578125 -0.1724685814586011 1.0352565583459168
5.58740625 -0.17506222892122106 1.0352003483858454
5.5885546875 -0.1761935627202375 1.0343573786498235
5.589703125 -0.1779019143189706 1.0341374183807917
5.5908515625 -0.18118456457144969 1.0339770841967169
5.592 -0.18267139006036043 1.0336194367006901
5.5931484375 -0.1850751614590429 1.0328250394697873
5.594296875 -0.18700753001151718 1.033932957373813
5.5954453125 -0.18752589047592688 1.0338106875893107
5.59659375 -0.18939347278617807 1.0323529404752916
5.5977421875 -0.19152792086638076 1.0329257265073466
5.598890625 -0.19552188084394298 1.0323249388072193
5.6000390625 -0.195605146561519 1.0311228002688202
5.6011875 -0.19992941211263443 1.0319577978059347
5.6023359375 -0.20017682081808408 1.031528124114352
5.603484375 -0.2009715443003396 1.0295884472259946
5.6046328125 -0.20298164336553187 1.0301875586898117
5.60578125 -0.20572092617124832 1.030430054074055
5.6069296875 -0.20903651648978272 1.0307469750028981
5.608078125 -0.2096894518599266 1.0297118371462846
5.6092265625 -0.21311668943696077 1.0283568705171864
5.610375 -0.2148120891910733 1.0283990874152094
5.6115234375 -0.21467014777322008 1.0283980726938473
5.612671875 -0.21811603281399528 1.029123213729508
5.6138203125 -0.2184287814179557 1.0279693958230667
5.61496875 -0.2197329093099064 1.0273043467121543
5.6161171875 -0.22112733629809 1.027653269327922
5.617265625 -0.22463640371771343 1.0277110525567217
5.6184140625 -0.2263830249262229 1.0263573528182972
5.6195625 -0.22802704270369828 1.026156204726243
5.6207109375 -0.23025329501327577 1.0251837157088413
5.621859375 -0.23167562863037489 1.0253591678494858
5.6230078125 -0.23235751804179866 1.0249970282416143
5.62415625 -0.23541428979684206 1.0249056523515256
5.6253046875 -0.23633660232961465 1.0239721877004488
5.626453125 -0.23775155648539437 1.0228683058887817
5.6276015625 -0.23926893910526403 1.023383961388274
5.62875 -0.2419338580365311 1.0230909251504112
5.6298984375 -0.2438901817656654 1.0231441400499441
5.631046875 -0.2460953299858995 1.0230356277773378
5.6321953125 -0.24717305917280433 1.022681933718866
5.63334375 -0.2488432688230707 1.0219413275027287
5.6344921875 -0.2504395322406838 1.0219639548883923
5.635640625 -0.25300588810901126 1.0211284775069076
5.6367890625 -0.2549618934350012 1.0209843287628346
5.6379375 -0.25546911936948424 1.0201239144091274
5.6390859375 -0.25749183871812475 1.0199308305204298
5.640234375 -0.26095220054945545 1.0192478657351574
5.6413828125 -0.26135715416772465 1.0199107770970453
5.64253125 -0.26392001259416914 1.0196543819051724
5.6436796875 -0.2658141743994956 1.0183321825370877
5.644828125 -0.2668561976081345 1.0181770957611558
5.6459765625 -0.2691099655872852 1.017284438767088
5.647125 -0.27157141565301707 1.0166362087281031
5.6482734375 -0.27376066833184337 1.0159900358546732
5.649421875 -0.2753547093041166 1.0145309872592982
5.6505703125 -0.2769013584846183 1.014547556293608
5.65171875 -0.27822051513117363 1.0140450134393737
5.6528671875 -0.2796770898180463 1.0139587194009163
5.654015625 -0.2822064086452488 1.0124064468342084
5.6551640625 -0.2845633812600491 1.0131531370630729
5.6563125 -0.28516205973004705 1.0123179973264071
5.6574609375 -0.2876582372120411 1.0114833569214579
5.658609375 -0.28928442221325423 1.0115234210889337
5.6597578125 -0.29136019303689614 1.0109536605481775
5.66090625 -0.2921728239897253 1.0108622127262819
5.6620546875 -0.2961698688072096 1.0101007592849551
5.663203125 -0.29747868663400834 1.009658731648637
5.6643515625 -0.2995320528962964 1.0080344019711178
5.6655 -0.3010847582930975 1.0088582153565664
5.6666484375 -0.30347732790868415 1.0083883180240096
5.667796875 -0.30363179311187954 1.0090296872295503
5.6689453125 -0.30570704576080704 1.0086086930073113
5.67009375 -0.3085879483060964 1.0080100222073458
5.6712421875 -0.3095514689085833 1.005933824985225
5.672390625 -0.31320556595487575 1.0051687323094936
5.6735390625 -0.31461095063455663 1.005632610680911
5.6746875 -0.3168918389280313 1.005104306785105
5.6758359375 -0.31805998611753367 1.00458816861128
5.676984375 -0.32008351248010214 1.0044251754506532
5.6781328125 -0.32221209317712546 1.004242077433105
5.67928125 -0.3230459411853578 1.0032564205575267
5.6804296875 -0.3253951773988545 1.0030732745597903
5.681578125 -0.32733358848788163 1.0022144264823616
5.6827265625 -0.3280473706500695 1.0017435912701713
5.683875 -0.32981163870266916 1.0015647838260022
5.6850234375 -0.3327990659206807 1.001336156572193
5.686171875 -0.3338518817569007 1.000973227742235
5.6873203125 -0.3354581255425377 1.0004927081049984
5.68846875 -0.33841688481441734 0.9985837911982088
5.6896171875 -0.33926435129100085 0.9980997531695518
5.690765625 -0.3405210698570045 0.9974114241361822
5.6919140625 -0.3435538250191624 0.9957567068908929
5.6930625 -0.34513594024588146 0.995730508377245
5.6942109375 -0.3470796565949538 0.9960842192951004
5.695359375 -0.34884806657016176 0.9962084888745651
5.6965078125 -0.3523366957966141 0.9954483105882859
5.69765625 -0.35307312732959617 0.9946816251870614
5.6988046875 -0.3558981597919243 0.9949562307854053
5.699953125 -0.3566538158552421 0.9922982429951264
5.7011015625 -0.35827396156455893 0.9922868232322855
5.70225 -0.35924701684501914 0.9916644181526136
5.7033984375 -0.3623835965671982 0.9918438565381802
5.704546875 -0.36340927595902145 0.991976668167975
5.7056953125 -0.3648926360141681 0.9906691688751974
5.70684375 -0.3679126475547916 0.989933847352563
5.7079921875 -0.3694016599698164 0.9891294313081073
5.709140625 -0.3709338638999503 0.9879413269532359
5.7102890625 -0.3729952484229445 0.9875871291888652
5.7114375 -0.3750698556354453 0.986681979063526
5.7125859375 -0.37547369944185116 0.9856020302207774
5.713734375 -0.3781891493065562 0.9852773687117762
5.7148828125 -0.38002136898191263 0.9850474698002477
5.71603125 -0.38210278449358853 0.9852153338864408
5.7171796875 -0.38396900465896433 0.9843222210335386
5.718328125 -0.38658858657665124 0.9843977224330785
5.7194765625 -0.3894973900404246 0.9830073996733126
5.720625 -0.3891670162225932 0.9829415339329735
5.7217734375 -0.39143553840989725 0.9814606786354968
5.722921875 -0.39293587193561474 0.9808391077254874
5.7240703125 -0.39469511290234666 0.9797933395158767
5.72521875 -0.39693424777641806 0.9784917373563142
5.7263671875 -0.397337970105043 0.9777737605865732
5.727515625 -0.4001318945549587 0.9763749521212226
5.7286640625 -0.4023614045758363 0.9756901295368202
5.7298125 -0.4039034130557694 0.9761660075914478
5.7309609375 -0.4061710310566708 0.9761813746099168
5.732109375 -0.40732146889519183 0.9749443076889444
5.7332578125 -0.4099653926669413 0.9745935045193301
5.73440625 -0.4122063035875061 0.9735612330496829
5.7355546875 -0.4134119969321576 0.9730303422784299
5.736703125 -0.4145839597646285 0.9712718407778507
5.7378515625 -0.41694486853894425 0.9718289148311802
5.739 -0.4168943400293628 0.9716126053616305
5.7401484375 -0.4191545127480163 0.9709326606856684
5.741296875 -0.42122093041130637 0.9686464540815987
5.7424453125 -0.42314638198562576 0.9686398889164411
5.74359375 -0.4228300213194094 0.9680007342526035
5.7447421875 -0.4258110173193025 0.9686980611811948
5.745890625 -0.42862269703724293 0.9663234510364311
5.7470390625 -0.4279661528484171 0.9661247986437788
5.7481875 -0.43107338627796676 0.9656244239354758
5.7493359375 -0.4332999888043655 0.9641767032783268
5.750484375 -0.43371438651472927 0.9637167143134565
5.7516328125 -0.43676872241119313 0.9636584789837961
5.75278125 -0.43850251756844805 0.9629161130428205
5.7539296875 -0.44051900530930754 0.9617599604010186
5.755078125 -0.44119482456554904 0.9604415830550088
5.7562265625 -0.44363704889915684 0.9593687349058744
5.757375 -0.4450017547906896 0.9587644617413503
5.7585234375 -0.44509562144340603 0.957847679495734
5.759671875 -0.44784523321631897 0.9565002643447842
5.7608203125 -0.4502713962321143 0.9560690697499525
5.76196875 -0.4505046224763993 0.9543719024666216
5.7631171875 -0.45262927884371146 0.9545123407210886
5.764265625 -0.45546338634382677 0.953101932207201
5.7654140625 -0.4567868891193927 0.9527076430613141
5.7665625 -0.45864053839557756 0.9526303019345186
5.7677109375 -0.4607968716673538 0.9518645642307145
5.768859375 -0.462914468427167 0.9506139583553935
5.7700078125 -0.462871553078591 0.948930265997018
5.77115625 -0.4653676132622414 0.9484723999770734
5.7723046875 -0.46721001897377734 0.9470939916580763
5.773453125 -0.46836744585908985 0.9458701866947741
5.7746015625 -0.4714004608646848 0.9463466705204951
5.77575 -0.472632027305393 0.9450784056372481
5.7768984375 -0.47334330388479073 0.9442065579550375
5.778046875 -0.4764213392481438 0.9437635038593273
5.7791953125 -0.47929395246930384 0.9437006337650747
5.78034375 -0.4808628474636322 0.9423436329161204
5.7814921875 -0.4818809465400813 0.9415528750012462
5.782640625 -0.48443318550773795 0.9406741362866264
5.7837890625 -0.4860808645120458 0.9395997850058896
5.7849375 -0.48683463266084337 0.9383683032014428
5.7860859375 -0.4883436068650777 0.9372277862530926
5.787234375 -0.49076917552332083 0.9365244865685248
5.7883828125 -0.49104165127903954 0.935535667486854
5.78953125 -0.49424347087941434 0.9335981928923865
5.7906796875 -0.49600701557445337 0.9335331798613765
5.791828125 -0.4965691961194551 0.932919014798763
5.7929765625 -0.4986356219886903 0.9324254779223233
5.794125 -0.4993190993702842 0.9311298308904067
5.7952734375 -0.5008147520727833 0.9303466389811429
5.796421875 -0.5029369058707328 0.9290071715258256
5.7975703125 -0.5042429214458461 0.9274079429354116
5.79871875 -0.5070566276875531 0.9258868878720254
5.7998671875 -0.5077067052336622 0.9260348249642267
5.801015625 -0.5106252514904528 0.9253792356375233
5.8021640625 -0.5127616811906683 0.9251990231394449
5.8033125 -0.5131712449514076 0.9231905631722946
5.8044609375 -0.5151334731109752 0.922949827449554
5.805609375 -0.5170343403935843 0.9222503471938628
5.8067578125 -0.5184670778561961 0.9203253040185813
5.80790625 -0.520605788935114 0.9194426596845858
5.8090546875 -0.5234221124564674 0.9191896519819782
5.810203125 -0.5252946524398987 0.9184812974642521
5.8113515625 -0.5272829587047616 0.9188781203034736
5.8125 -0.528698680035327 0.9170011424295857
5.8136484375 -0.5300986087022199 0.9162538992611138
5.814796875 -0.5307807632561201 0.9149709909377277
5.8159453125 -0.5342359104737174 0.9141089106608623
5.81709375 -0.5352947888200906 0.9127159563908704
5.8182421875 -0.5368693201260248 0.9119682868366954
5.819390625 -0.5388016951087757 0.9115093502518968
5.8205390625 -0.5410576653086081 0.9105026703888739
5.8216875 -0.542580359893699 0.9098724041185918
5.8228359375 -0.5425002715422306 0.9086697257680598
5.823984375 -0.5449981732962502 0.9080879351374825
5.8251328125 -0.5463335114486878 0.9067595382689708
5.82628125 -0.5480035561796175 0.9054077449173333
5.8274296875 -0.5507536794304938 0.9042253976736796
5.828578125 -0.5524069967163734 0.9046468997834114
5.8297265625 -0.5526926690273959 0.9026540343656895
5.830875 -0.554206564320862 0.9014328366035723
5.8320234375 -0.5567828454584637 0.9003788324288067
5.833171875 -0.5571956740614479 0.9000398837029098
5.8343203125 -0.5587383426278665 0.8992179042364522
5.83546875 -0.5606643294772341 0.8977033004588404
5.8366171875 -0.5634485891126331 0.8959247366372693
5.837765625 -0.5633124433046108 0.8954534314594287
5.8389140625 -0.5648693196969615 0.8944199826601733
5.8400625 -0.5672089974405975 0.8945304618963396
5.8412109375 -0.5670129382780416 0.8933100687683196
5.842359375 -0.5701199533909377 0.8913809240814599
5.8435078125 -0.5719055929458683 0.890723505804328
5.84465625 -0.573676789439078 0.8900830003099554
5.8458046875 -0.5769317959472776 0.8889488724585421
5.846953125 -0.5785167771565117 0.8885812217379124
5.8481015625 -0.5804616291002576 0.887274430179631
5.84925 -0.5803759791992936 0.8872437994873861
5.8503984375 -0.5839187130134011 0.8853921653028309
5.851546875 -0.5850272753884376 0.8845087766935338
5.8526953125 -0.5853245336871147 0.8840598336183267
5.85384375 -0.5871552195002465 0.8826301520966097
5.8549921875 -0.5891810180505626 0.8805884356572596
5.856140625 -0.5903427076078411 0.8794571698868565
5.8572890625 -0.5927544819949303 0.8780227989201577
5.8584375 -0.59458696791295 0.8767865275328885
5.8595859375 -0.59452691340374 0.8758632435413868
5.860734375 -0.5955414806222148 0.8744991962893532
5.8618828125 -0.5974829411419174 0.8729841122135028
5.86303125 -0.599698866366193 0.8720928043430708
5.8641796875 -0.6012016995925223 0.8717264157731069
5.865328125 -0.6034226667619061 0.8696005354738763
5.8664765625 -0.6049561201612006 0.8676073383944285
5.867625 -0.6050574774603728 0.8661853960743741
5.8687734375 -0.6079889943651307 0.8651646043653309
5.869921875 -0.6094853050888109 0.8652554520713877
5.8710703125 -0.6102660767584103 0.8630731069242177
5.87221875 -0.6118559182643728 0.8620371827578024
5.8733671875 -0.6130348375784221 0.8612060693456173
5.874515625 -0.6139926488111609 0.8596980134748398
5.8756640625 -0.6160976599155444 0.8594115578178051
5.8768125 -0.617553625766181 0.8582691586346323
5.8779609375 -0.6187870135090168 0.8559851948707805
5.879109375 -0.6207571595103203 0.855237701734469
5.8802578125 -0.6240971911985501 0.8519489947807724
5.88140625 -0.6260976501330322 0.8517887839665337
5.8825546875 -0.626504507009633 0.8495539643618696
5.883703125 -0.6287714613451512 0.8492385699266973
5.8848515625 -0.6298644598298299 0.8474839623840023
5.886 -0.6312877818927954 0.8469202449677365
5.8871484375 -0.6334302993621098 0.8455634198080676
5.888296875 -0.6351947386137359 0.8444361407645319
5.8894453125 -0.6359109487497743 0.8433020407462597
5.89059375 -0.6371970386070422 0.842201168708209
5.8917421875 -0.6402049215673549 0.8403206529101124
5.892890625 -0.6422370827749513 0.8389284849703458
5.8940390625 -0.6444387649843903 0.8381839448254208
5.8951875 -0.6450616543558836 0.8368470237600775
5.8963359375 -0.6464959302777242 0.8354988876598856
5.897484375 -0.6491512784609819 0.8349971552652227
5.8986328125 -0.6501791433379652 0.8318508076476104
5.89978125 -0.6536535732756741 0.8309226681148425
5.9009296875 -0.6535269945150921 0.8304956359355626
5.902078125 -0.6553590657278364 0.830101608927455
5.9032265625 -0.6568453755937518 0.8277902725623416
5.904375 -0.6583246469199472 0.8276256387127178
5.9055234375 -0.6596340414410158 0.8251200005134105
5.906671875 -0.6612379708847007 0.8232252256619992
5.9078203125 -0.6635010784122704 0.8225791460846784
5.90896875 -0.6636328727309697 0.8219060883143339
5.9101171875 -0.6665950153659577 0.821088796572413
5.911265625 -0.6679775957645133 0.8205632496965911
5.9124140625 -0.6685552982431235 0.8202794795666285
5.9135625 -0.6716640884776975 0.8186356327376532
5.9147109375 -0.6742761061702461 0.8166861437234593
5.915859375 -0.6750434423274997 0.8153352784112995
5.9170078125 -0.6768079504828888 0.8144025098814796
5.91815625 -0.6786504250624159 0.8144854167533768
5.9193046875 -0.6811471747655929 0.812294441883429
5.920453125 -0.6821772221789857 0.8137000592723442
5.9216015625 -0.6841083732346455 0.8109062275495388
5.92275 -0.686308539642162 0.8090673687896306
5.9238984375 -0.6865414290563194 0.8087603151224994
5.925046875 -0.6889728097878038 0.8055499120827587
5.9261953125 -0.6908818958030556 0.8048200650601569
5.92734375 -0.6924266242710055 0.8040753391939341
5.9284921875 -0.6944609758713741 0.8034887411622736
5.929640625 -0.6974031612373675 0.8020582656760453
5.9307890625 -0.6976298030408786 0.8013597605514691
5.9319375 -0.6996517697984963 0.7994403933007831
5.9330859375 -0.6986165461967488 0.7994582709818481
5.934234375 -0.703281309165886 0.7967339178827721
5.9353828125 -0.7031885050568585 0.7956581487589347
5.93653125 -0.7043948625637865 0.7928598004004185
5.9376796875 -0.7058352001939837 0.7917084722353929
5.938828125 -0.7068246327174472 0.7912258174299768
5.9399765625 -0.7092476551677696 0.788942952121372
5.941125 -0.7113948113542989 0.7891933784886168
5.9422734375 -0.7126565208606239 0.7879923306727461
5.943421875 -0.713223072845715 0.7868949958919677
5.9445703125 -0.715933352771276 0.7854047994184987
5.94571875 -0.7170199471841414 0.78353499280105
5.9468671875 -0.7178129795762714 0.7826202097585293
5.948015625 -0.7194690191447823 0.7816457394329741
5.9491640625 -0.7205956914697889 0.779490309414727
5.9503125 -0.7213585368603728 0.7782433732130203
5.9514609375 -0.723795222234962 0.777506060078677
5.952609375 -0.7255258990814757 0.7766161216809536
5.9537578125 -0.7270843012382752 0.7748440704589287
5.95490625 -0.7286357303658968 0.7732778613451105
5.9560546875 -0.7294192836563351 0.7730265159971585
5.957203125 -0.7296118781960844 0.7721459900716083
5.9583515625 -0.7305245386139425 0.7712447961446588
5.9595 -0.7344025011030306 0.7701804916051124
5.9606484375 -0.7356405961251622 0.7686921196074461
5.961796875 -0.7376305014288747 0.7670710941030675
5.9629453125 -0.738512778810686 0.7665065778131741
5.96409375 -0.7399411205734898 0.7649962694350904
5.9652421875 -0.7416044552927784 0.7639552401820199
5.966390625 -0.7427633519389625 0.7628785347223485
5.9675390625 -0.7440217291176758 0.7617701387183319
5.9686875 -0.7448735635901647 0.7587270401952503
5.9698359375 -0.7458345486932553 0.7567203355481908
5.970984375 -0.7490152602789756 0.7555640194993549
5.9721328125 -0.7486790846477355 0.7547336600180186
5.97328125 -0.7493235815035271 0.7540264576312008
5.9744296875 -0.7520136007434035 0.7520467610454924
5.975578125 -0.7531900870806957 0.7515145496912998
5.9767265625 -0.7540613279349162 0.7508439746112109
5.977875 -0.7557481183967625 0.7490468648491262
5.9790234375 -0.7571081341528307 0.747406470555299
5.980171875 -0.7589787557282616 0.7454443146573506
5.9813203125 -0.7610577119541209 0.7442797582944622
5.98246875 -0.7629807899011414 0.7426097244582799
5.9836171875 -0.7642000473420382 0.7413194173307194
5.984765625 -0.7647381074080023 0.7396266935084241
5.9859140625 -0.7663584706953415 0.7386636347047938
5.9870625 -0.7679772958275487 0.7380491337634547
5.9882109375 -0.7693126596537991 0.7358649169873989
5.989359375 -0.7703107611040081 0.7348942429708887
5.9905078125 -0.7724261853392473 0.7337336921857024
5.99165625 -0.7731347423216035 0.7309631815403581
5.9928046875 -0.7762108040129183 0.7312449971223246
5.993953125 -0.7772394123941726 0.7288191075756825
5.9951015625 -0.777569270171379 0.7270806786164106
5.99625 -0.77852610410446 0.725214053501807
5.9973984375 -0.7802293465617945 0.7243391474000003
5.998546875 -0.7830503622128501 0.723643474121396
5.9996953125 -0.7841943918244595 0.7214276783612291
6.00084375 -0.785812039983829 0.7189625630613228
6.0019921875 -0.7878647731098777 0.7182701743499547
6.003140625 -0.7891835597486891 0.7172990126732232
6.0042890625 -0.7911586081434426 0.7150652755277394
6.0054375 -0.7930419382494986 0.712821223909796
6.0065859375 -0.7921436328317715 0.7125530524524332
6.007734375 -0.7944582032604609 0.711545025328032
6.0088828125 -0.7959307427323821 0.7101300823382959
6.01003125 -0.7974427829399588 0.709079701812988
6.0111796875 -0.7994041840925834 0.707563252389233
6.012328125 -0.8005917473710964 0.706435932301978
6.0134765625 -0.8024715086386267 0.704733763041325
6.014625 -0.8027140281964505 0.7041148791066038
6.0157734375 -0.8046125008793241 0.7026102992943711
6.016921875 -0.8067686842946766 0.7002844025585467
6.0180703125 -0.8071292508282651 0.6987060112417047
6.01921875 -0.8084076147875956 0.6985610643073334
6.0203671875 -0.809711566970239 0.6967891375252591
6.021515625 -0.8102565399528128 0.6948633617397325
6.0226640625 -0.8134507435852661 0.6922829620872747
6.0238125 -0.8143473578137788 0.6928489582606567
6.0249609375 -0.815506004959566 0.6903197093418231
6.026109375 -0.8171927460883699 0.6895190068521937
6.0272578125 -0.817801194951693 0.6874502192102013
6.02840625 -0.8211824765138755 0.6858044090832534
6.0295546875 -0.8205051733911286 0.6843737879307066
6.030703125 -0.8226647020472283 0.6820212752098092
6.0318515625 -0.8238191523234646 0.6797805718874892
6.033 -0.8235758961200861 0.680401497325969
6.0341484375 -0.8266621566310028 0.6774813729203302
6.035296875 -0.8285509425673263 0.6761152100353041
6.0364453125 -0.8291297108361062 0.6748572825241014
6.03759375 -0.8298434042329051 0.6735186061348296
6.0387421875 -0.8310378056768958 0.6719753955436333
6.039890625 -0.8331983783234947 0.670094460784382
6.0410390625 -0.8333174939491931 0.670023756598506
6.0421875 -0.835380300895039 0.6686811941162856
6.0433359375 -0.837280411684229 0.6674647709226268
6.044484375 -0.8364853611899659 0.6672129330313586
6.0456328125 -0.8381180512560112 0.6654253965199421
6.04678125 -0.840411148480261 0.6637152426996161
6.0479296875 -0.8403843909768167 0.6633774999925584
6.049078125 -0.8417868899445629 0.6616415854209672
6.0502265625 -0.8424310358675628 0.6598605584110235
6.051375 -0.8432765053382529 0.6574572728280228
6.0525234375 -0.8452223229966371 0.6570262387889185
6.053671875 -0.8453171131952781 0.6556972546300659
6.0548203125 -0.8474528532490088 0.6535412568885237
6.05596875 -0.847217544268533 0.652687209145337
6.0571171875 -0.848813317117793 0.6499932152723089
6.058265625 -0.8514080819849419 0.648332708679064
6.0594140625 -0.8516370155522446 0.6469969798944528
6.0605625 -0.8530896844887997 0.645209894214061
6.0617109375 -0.8540982238101853 0.6433022972435984
6.062859375 -0.8561189271188916 0.6420646942927772
6.0640078125 -0.8573879342505744 0.6415581161930232
6.06515625 -0.8584802407614072 0.6397743053774557
6.0663046875 -0.8593501724821917 0.6383027329415079
6.067453125 -0.8603085895080385 0.6380263585961881
6.0686015625 -0.8602523167651848 0.6369717532550478
6.06975 -0.8627237198384352 0.6334051799583664
6.0708984375 -0.8629673425483387 0.6315766396387466
6.072046875 -0.8647919479961126 0.6292011227285537
6.0731953125 -0.8660813389800214 0.6282326631027941
6.07434375 -0.8654126807862409 0.6257557534471829
6.0754921875 -0.867690147571198 0.623677921730706
6.076640625 -0.8703092840698192 0.6234830191859764
6.0777890625 -0.8713802540443472 0.6205582658032337
6.0789375 -0.8708697715109884 0.61883985238862
6.0800859375 -0.87148973893452 0.6170641766573941
6.081234375 -0.8729944733768753 0.6170737021435119
6.0823828125 -0.8757871298480171 0.6155534576996016
6.08353125 -0.8767424933215447 0.6135389144641438
6.0846796875 -0.877181513597763 0.6100210103247856
6.085828125 -0.8784484668788416 0.6099591394748354
6.0869765625 -0.880395256369049 0.6083006511618394
6.088125 -0.882110800945012 0.6070315432283011
6.0892734375 -0.8815239444309274 0.6066187815906726
6.090421875 -0.8823641028856567 0.6039037686744063
6.0915703125 -0.8832191701593917 0.6019263279414458
6.09271875 -0.8850903919106039 0.5996727062648173
6.0938671875 -0.8873151881399057 0.5971936750231674
6.095015625 -0.8872251320539265 0.595169348034655
6.0961640625 -0.8889223679892808 0.5935717885417325
6.0973125 -0.8892561709344233 0.5931502632910518
6.0984609375 -0.8911591731543634 0.5917474502265209
6.099609375 -0.8931143635075929 0.5879771306050725
6.1007578125 -0.8930222999897559 0.5886710540595209
6.10190625 -0.8928905858484866 0.5862628296768527
6.1030546875 -0.8947384525025325 0.5845930151777604
6.104203125 -0.8953100981052866 0.5823911427044026
6.1053515625 -0.8973993999941896 0.5797943599123186
6.1065 -0.8969899969645405 0.5779086264476585
6.1076484375 -0.898579397905426 0.5769560010104344
6.108796875 -0.8993626763064566 0.5747764651577296
6.1099453125 -0.8999646653689461 0.5723480161801208
6.11109375 -0.9022349713071582 0.5706995092800917
6.1122421875 -0.9036645542022201 0.5691544106264905
6.113390625 -0.9037735918289928 0.566873105277965
6.1145390625 -0.9050665354703572 0.5647431288407494
6.1156875 -0.9043127117054474 0.5640408597179575
6.1168359375 -0.906761911203203 0.5607989002186565
6.117984375 -0.9094032316938704 0.5588166216799819
6.1191328125 -0.9096395760911619 0.5586924996245473
6.12028125 -0.9102390552869234 0.5559633005583234
6.1214296875 -0.9114460153436459 0.5554390971486964
6.122578125 -0.9131111283809629 0.5522796158043517
6.1237265625 -0.9142380648966503 0.5504693798840858
6.124875 -0.9162182396393461 0.547594562478662
6.1260234375 -0.9172298184644687 0.5460282784321887
6.127171875 -0.9174450268911458 0.5452167429698694
6.1283203125 -0.9198306533251168 0.5436832515514403
6.12946875 -0.9222975886272196 0.5414679397731798
6.1306171875 -0.9234003987364562 0.5400251609444837
6.131765625 -0.9240866995359563 0.5384668623430795
6.1329140625 -0.9253070876544712 0.5378917383952939
6.1340625 -0.9253922373318754 0.5365316331695238
6.1352109375 -0.9277998568101107 0.533747016965562
6.136359375 -0.9300940970883993 0.5325989572608166
6.1375078125 -0.9293888376684603 0.5308063334782114
6.13865625 -0.930625772649556 0.5293256835575582
6.1398046875 -0.9319411185752259 0.5272877523108531
6.140953125 -0.9337666487553962 0.5246879793088242
6.1421015625 -0.9345930027975762 0.5240685408364565
6.14325 -0.9358467534148763 0.52161986902691
6.1443984375 -0.9373892351009365 0.5196709873491411
6.145546875 -0.9387560222104533 0.5174165361027181
6.1466953125 -0.9407922372089503 0.5149578480195411
6.14784375 -0.9431659914519738 0.5125877657929212
6.1489921875 -0.9428807437867215 0.5123073421332388
6.150140625 -0.9441226451660706 0.5114268285500438
6.1512890625 -0.9459866511433025 0.5092875987849499
6.1524375 -0.9461678281232363 0.5081093964909634
6.1535859375 -0.9483915503384333 0.5060560935307117
6.154734375 -0.9504517475061078 0.5033860435901898
6.1558828125 -0.9507063529983052 0.5017259229395216
6.15703125 -0.9510048626547126 0.5014526372019761
6.1581796875 -0.9521073545551892 0.5003303056517348
6.159328125 -0.9551715291046217 0.49766564108028183
6.1604765625 -0.9546276882455602 0.4968413007921949
6.161625 -0.955444950988911 0.49572247537880476
6.1627734375 -0.9566456476715514 0.4936469783483746
6.163921875 -0.9572538289051633 0.49210358220330164
6.1650703125 -0.9593596001030911 0.490523444523042
6.16621875 -0.9604058188672973 0.4893516030404254
6.1673671875 -0.9595631138022569 0.4873658824774909
6.168515625 -0.9612296018139208 0.48458637985957886
6.1696640625 -0.962069926081343 0.4836908895254275
6.1708125 -0.9652294849543328 0.4811346262093432
6.1719609375 -0.9656023135893494 0.48102186593732355
6.173109375 -0.9668312391651966 0.4792745623279868
6.1742578125 -0.9677574094820932 0.47655160629484145
6.17540625 -0.9687050635050319 0.47593045744314044
6.1765546875 -0.9688123553451514 0.47481559199050516
6.177703125 -0.970062533160017 0.47298830319521845
6.1788515625 -0.9699670077378886 0.4722663791994472
6.18 -0.9693254270301821 0.47047139819138417
6.1811484375 -0.9700729097945817 0.4685821156377206
6.182296875 -0.9705016616333837 0.4663754543980433
6.1834453125 -0.9726020340075219 0.46505110469517574
6.18459375 -0.9730780476684298 0.4637222220827664
6.1857421875 -0.9733982668437514 0.4613962445721457
6.186890625 -0.9733228431144153 0.4604518345789855
6.1880390625 -0.9741768284522285 0.460120791742486
6.1891875 -0.9768490474258155 0.45822777175035323
6.1903359375 -0.9782518050770539 0.4562248034114691
6.191484375 -0.9753640546447025 0.45430257718845896
6.1926328125 -0.9775654833503407 0.45208416191433853
6.19378125 -0.9789675553251656 0.450713677773333
6.1949296875 -0.9811806303910987 0.44838701997033437
6.196078125 -0.9815252436614501 0.4481508219924093
6.1972265625 -0.9816192631348089 0.44658846436431454
6.198375 -0.9826141233289405 0.44504581116271114
6.1995234375 -0.9831278700684268 0.44248796384072836
6.200671875 -0.9855438991372562 0.4408808315464681
6.2018203125 -0.986254357361418 0.4392196931077606
6.20296875 -0.9858624796821266 0.43744710801403147
6.2041171875 -0.9863966312475099 0.4354578362712939
6.205265625 -0.9878563216193934 0.43431894205086236
6.2064140625 -0.9885684526785155 0.4344855351443009
6.2075625 -0.9888016493699034 0.4317315883674326
6.2087109375 -0.9887572027809872 0.42870563159958164
6.209859375 -0.9881727797987692 0.42670712230910224
6.2110078125 -0.989096330861559 0.42563213076250705
6.21215625 -0.9898054993317489 0.4222017501383714
6.2133046875 -0.9917303647561417 0.421025229964146
6.214453125 -0.9922354970735263 0.42032397949237854
6.2156015625 -0.9920102318701388 0.41840949438519487
6.21675 -0.9928926201439706 0.4165547310240838
6.2178984375 -0.9916059359896588 0.41567744961908404
6.219046875 -0.9944628789565466 0.41285855373625274
6.2201953125 -0.9932054157232967 0.410693948806501
6.22134375 -0.9929908176460089 0.409716939085441
6.2224921875 -0.9952507028100226 0.40783951750105074
6.223640625 -0.9959932417950585 0.40652825326225567
6.2247890625 -0.9969553783837093 0.40487080275681764
6.2259375 -0.9970289119086971 0.40319786649149936
6.2270859375 -0.9970975542829588 0.4005215856074002
6.228234375 -0.9981069592170576 0.3979737138466566
6.2293828125 -0.9983964535203012 0.3956594729298594
6.23053125 -1.0013512044906667 0.3929191489632877
6.2316796875 -1.0022190203901422 0.3917965247110541
6.232828125 -1.0014175856010374 0.3910393776502339
6.2339765625 -1.0020570615568163 0.3879473763866078
6.235125 -1.003108155754555 0.385475908000014
6.2362734375 -1.0047745903577543 0.38212915813520854
6.237421875 -1.0044709421055507 0.38121977907326937
6.2385703125 -1.0058864537472278 0.37684036258553055
6.23971875 -1.005557672782268 0.3763448518760758
6.2408671875 -1.0058279562469914 0.3741074040081778
6.242015625 -1.0069949228700823 0.37193523382435867
6.2431640625 -1.008319896061225 0.36944279040664324
6.2443125 -1.009138249704423 0.3698640693443368
6.2454609375 -1.009474669463279 0.36676332814971985
6.246609375 -1.0095230842411815 0.3654001407532782
6.2477578125 -1.009991508298503 0.3646551445164647
6.24890625 -1.0112915874318729 0.3623886740292921
6.2500546875 -1.01138814931628 0.3624563668352609
6.251203125 -1.0107391633896352 0.36111353805564916
6.2523515625 -1.0105754994247633 0.3597222221200054
6.2535 -1.0102711521630137 0.35841457736668014
6.2546484375 -1.0117971460525523 0.35405657316238004
6.255796875 -1.0109144271669035 0.353471239313476
6.2569453125 -1.0113452681703383 0.35241125522507794
6.25809375 -1.0123174515289994 0.3502085209290751
6.2592421875 -1.0118590989321532 0.347498810002953
6.260390625 -1.0130077171512673 0.3454780332810486
6.2615390625 -1.0126554074075769 0.34196613782285695
6.2626875 -1.0130387127997338 0.341401846344038
6.2638359375 -1.013642074933274 0.3385049928217935
6.264984375 -1.0130963310924916 0.3364395714374108
6.2661328125 -1.0155588646279807 0.33297335207972595
6.26728125 -1.0156877374992 0.330761026732168
6.2684296875 -1.0160647902406463 0.3279352152127728
6.269578125 -1.0177826179669955 0.3244666403292837
6.2707265625 -1.0182484933586249 0.3239329769812758
6.271875 -1.0213410041970552 0.3199360037801954
6.2730234375 -1.02189137502826 0.3171149858160804
6.274171875 -1.0221484673770425 0.31551330029709235
6.2753203125 -1.0212828234736118 0.31324865485265824
6.27646875 -1.0214513671411838 0.31116578895333347
6.2776171875 -1.0225397207684763 0.307700032909991
6.278765625 -1.0253460550662015 0.305537727608504
6.2799140625 -1.0265480983547417 0.30245461301374954
6.2810625 -1.0268278488877653 0.3015692392268497
6.2822109375 -1.0263851049108423 0.3003213103933815
6.283359375 -1.0286004163904752 0.29691088824005635
6.2845078125 -1.030792402597384 0.29481210590512485
6.28565625 -1.0278237036993907 0.2944732545635668
6.2868046875 -1.0291096171879555 0.29156904649037435
6.287953125 -1.0305744682586389 0.2889059582974463
6.2891015625 -1.0318368059319618 0.2875674392066065
6.29025 -1.0358133799506404 0.2847254986116865
6.2913984375 -1.0339893185785525 0.2833598925872815
6.292546875 -1.0348687153049807 0.28207149786364755
6.2936953125 -1.0351579241387556 0.28095350359640725
6.29484375 -1.0372732075705104 0.27781926670912616
6.2959921875 -1.040665316624178 0.2751641799588236
6.297140625 -1.039906918899985 0.27484500082170216
6.2982890625 -1.0393054663016825 0.27214571635335366
6.2994375 -1.0402807318902672 0.2700187526002141
6.3005859375 -1.0404341370582133 0.26925723932484796
6.301734375 -1.0432330149624318 0.2653130455668058
6.3028828125 -1.0439873948741383 0.26376032343171146
6.30403125 -1.0444668529905152 0.26312163759942236
6.3051796875 -1.0437875613066114 0.26078197323029395
6.306328125 -1.0434823445859125 0.2589300846921728
6.3074765625 -1.0431489609753581 0.2569999420114635
6.308625 -1.0453932436375264 0.25589793923332865
6.3097734375 -1.0452673641876975 0.2520301184790481
6.310921875 -1.0459892702625615 0.25081333135049133
6.3120703125 -1.0452586296782034 0.2501925402780098
6.31321875 -1.045113366470059 0.2469008418454284
6.3143671875 -1.0462991699273902 0.24361654250784165
6.315515625 -1.0453173521406758 0.2429085894749231
6.3166640625 -1.0454654380508137 0.24048658572615317
6.3178125 -1.046229084277695 0.23953982304257732
6.3189609375 -1.0468064035041473 0.23713883797517854
6.320109375 -1.049050568318129 0.23373523413721736
6.3212578125 -1.0482631838995602 0.23231160142427104
6.32240625 -1.048689015667865 0.23024858561189424
6.3235546875 -1.0488122275360052 0.22845085183892044
6.324703125 -1.0492033968710945 0.2270688972309735
6.3258515625 -1.0520534233423318 0.22416553489397545
6.327 -1.0516661083628662 0.22397364196151667
6.3281484375 -1.0525411157921143 0.2197376022617686
6.329296875 -1.0527177246124655 0.2196106925802491
6.3304453125 -1.051219227543469 0.2180947340384441
6.33159375 -1.0535668694403553 0.21591644959927242
6.3327421875 -1.0536751043023276 0.2152683951521176
6.333890625 -1.0529204031887647 0.212280614791789
6.3350390625 -1.0537072586263208 0.20904863703336712
6.3361875 -1.0535890890103725 0.20926027714729434
6.3373359375 -1.0549309379899765 0.205579352172196
6.338484375 -1.0561059762355522 0.2052469428782906
6.3396328125 -1.0546483945249685 0.20293094153495855
6.34078125 -1.0531605444594152 0.20076044048352887
6.3419296875 -1.0547570085342861 0.19903753523968665
6.343078125 -1.056699884098405 0.19686547432753734
6.3442265625 -1.057061921128664 0.19581311800751738
6.345375 -1.057169436160519 0.1923683707280069
6.3465234375 -1.056663719720902 0.1910286601157725
6.347671875 -1.0570786984449205 0.18806098748417366
6.3488203125 -1.0561741122584796 0.18645187279789666
6.34996875 -1.058860698994831 0.18436056252393054
6.3511171875 -1.0582538963870785 0.18306799398014947
6.352265625 -1.0588403366012606 0.18102749462869036
6.3534140625 -1.05886347946095 0.178275982595978
6.3545625 -1.0596878599672184 0.17442888052696334
6.3557109375 -1.0624069802052096 0.17133694377033887
6.356859375 -1.0615419027856752 0.17121766872755828
6.3580078125 -1.061987198325726 0.1685872446235997
6.35915625 -1.0628842902793678 0.16565002317745012
6.3603046875 -1.063239189165568 0.1637833382801446
6.361453125 -1.0656931841721995 0.16057131877250955
6.3626015625 -1.0633263233320482 0.1598744302259782
6.36375 -1.0646919958941965 0.15749043469563917
6.3648984375 -1.0636023040513538 0.15661199151840027
6.366046875 -1.0651417780022496 0.15336799030159443
6.3671953125 -1.066416318072373 0.14934928657279928
6.36834375 -1.0676599743120372 0.14908771369866183
6.3694921875 -1.0679649299083027 0.14801267238606472
6.370640625 -1.0662153028054302 0.14708032825613454
6.3717890625 -1.0670513487173963 0.14510670522529426
6.3729375 -1.0673655705417049 0.14251544026190463
6.3740859375 -1.0676502058417867 0.13876842285905916
6.375234375 -1.0674590026077138 0.13695502251620198
6.3763828125 -1.0664048737543432 0.13637517556581896
6.37753125 -1.0689574562613393 0.13264986423776812
6.3786796875 -1.0673392091670078 0.1278536647795283
6.379828125 -1.0680249445466623 0.12667302443159512
6.3809765625 -1.067885821978942 0.12673452365380455
6.382125 -1.0679145454224306 0.12419417497242018
6.3832734375 -1.0690267795748851 0.12238463062120658
6.384421875 -1.0687606188186014 0.12021040303337603
6.3855703125 -1.0699871219352128 0.11625191575956695
6.38671875 -1.0699344514113192 0.11677306915757163
6.3878671875 -1.0694888853977262 0.11534421694799707
6.389015625 -1.0691612198816083 0.11407459687386702
6.3901640625 -1.0706453977855956 0.1107638628599667
6.3913125 -1.0721181093866763 0.10780497386227152
6.3924609375 -1.0727444917039646 0.10520929072636297
6.393609375 -1.0723005146092712 0.10421880677215475
6.3947578125 -1.0696710415027175 0.09990152077750471
6.39590625 -1.0717507713522751 0.10042341851182993
6.3970546875 -1.0730119586996858 0.09652136222675992
6.398203125 -1.073108337840896 0.09473979450167219
6.3993515625 -1.0730727286443247 0.09370068760248343
6.4005 -1.0726625820525715 0.09223667473566943
6.4016484375 -1.0738358935016 0.09020298307010276
6.402796875 -1.074425287193959 0.0902946540268519
6.4039453125 -1.0735329245555834 0.08730298796680178
6.40509375 -1.0760139298277818 0.08246050509812328
6.4062421875 -1.0746317331468997 0.08219364022857574
6.407390625 -1.0742512312373944 0.08064963087990001
6.4085390625 -1.0754578764421774 0.07856467996219066
6.4096875 -1.0753900924356106 0.07650666964970902
6.4108359375 -1.0772228202644747 0.07186680598466587
6.411984375 -1.0761054751842607 0.07071850196888033
6.4131328125 -1.0769583574311372 0.07074803177686648
6.41428125 -1.076838804640036 0.06790637072807215
6.4154296875 -1.0783819222153452 0.066635383289632
6.416578125 -1.078597717720969 0.06204390760545647
6.4177265625 -1.0781917367872553 0.06018090248608561
6.418875 -1.0769222637943547 0.058992230215931044
6.4200234375 -1.0787139893525635 0.056638340124771674
6.421171875 -1.0784465443638291 0.0559858637478504
6.4223203125 -1.0805514061397337 0.05229324987142964
6.42346875 -1.0819311362188448 0.04996493767599214
6.4246171875 -1.0819735429482655 0.04916210749250688
6.425765625 -1.083002803161586 0.04527097441066208
6.4269140625 -1.0833617572686929 0.044045149812239254
6.4280625 -1.0830435724437428 0.04120560509229937
6.4292109375 -1.0854077573606058 0.038217536143327846
6.430359375 -1.0854621193177312 0.0378546029111127
6.4315078125 -1.0857954724872927 0.036614572393654315
6.43265625 -1.0851982682196706 0.03386746223567283
6.4338046875 -1.0865918975523103 0.031702743579235027
6.434953125 -1.0876530353692175 0.028773829228322917
6.4361015625 -1.086979148022509 0.027340226740762003
6.43725 -1.087787623135627 0.026371480623814114
6.4383984375 -1.0878675353526555 0.023841321428205553
6.439546875 -1.0882161116578644 0.0247433691492297
6.4406953125 -1.0889222732854908 0.01939879311649187
6.44184375 -1.0889900302049897 0.01945170731412585
6.4429921875 -1.089185633249186 0.019599619315130407
6.444140625 -1.0893738727219457 0.01636728868187698
6.4452890625 -1.0882299338191421 0.013630495349061716
6.4464375 -1.0870772932767232 0.008235036569520848
6.4475859375 -1.0857782433747605 0.008648598626176868
6.448734375 -1.0858642351322865 0.006717683846568456
6.4498828125 -1.0841465697738577 0.005069517105556781
6.45103125 -1.0840413396883817 0.004599766291485591
6.4521796875 -1.0850446777765133 0.0023585681785562584
6.453328125 -1.0855398819186697 -0.0008027974557659467
6.4544765625 -1.084532132090451 -0.002197564690207904
6.455625 -1.0851344328820096 -0.002986782923011494
6.4567734375 -1.0847725803938228 -0.006314722350730939
6.457921875 -1.0857243574586821 -0.008456619894327777
6.4590703125 -1.0868835551814122 -0.00975192882703002
6.46021875 -1.0871533052575097 -0.011804867594367552
6.4613671875 -1.0863494705886187 -0.013524577068131205
6.462515625 -1.0871370739737725 -0.014517451097283196
6.4636640625 -1.084872140894074 -0.018105483517227683
6.4648125 -1.0870291262434129 -0.02173332277564624
6.4659609375 -1.0853337191395225 -0.02148634097105742
6.467109375 -1.0842543168645589 -0.02293698030611918
6.4682578125 -1.0854902776712512 -0.02395491696812585
6.46940625 -1.084344371667492 -0.0258788046051662
6.4705546875 -1.0876602164328055 -0.028180992571968877
6.471703125 -1.0872832081197554 -0.029508984608741573
6.4728515625 -1.0885581598209746 -0.029696146839310433
6.474 -1.0878621675891427 -0.030951087357099588
6.4751484375 -1.0893383581379064 -0.0338732949587118
6.476296875 -1.0896111018799006 -0.036841560730221934
6.4774453125 -1.088747665249377 -0.037117661236438115
6.47859375 -1.088986805956196 -0.037272226167358535
6.4797421875 -1.0883963583214895 -0.03886746180430292
6.480890625 -1.0880973779970784 -0.03883633347323051
6.4820390625 -1.0899609120008769 -0.0420362918013108
6.4831875 -1.0906642379745728 -0.043308150912366034
6.4843359375 -1.0914065695135156 -0.04460958180061722
6.485484375 -1.0897689027526967 -0.046473428204807765
6.4866328125 -1.0884913421915217 -0.04890533089527477
6.48778125 -1.0879025006903542 -0.05385784095384416
6.4889296875 -1.086957397629882 -0.05407005113316049
6.490078125 -1.086012846425866 -0.055155624950671
6.4912265625 -1.085123283020062 -0.05964603268984653
6.492375 -1.083284726779826 -0.061303519949941154
6.4935234375 -1.085324732304634 -0.0634288573459676
6.494671875 -1.0856734409168731 -0.06530297724114442
6.4958203125 -1.0828216114116556 -0.0670289783282464
6.49696875 -1.0831559631709786 -0.07051492164700304
6.4981171875 -1.0825297033447943 -0.07191217202794484
6.499265625 -1.083372449583579 -0.0744804577972989
6.5004140625 -1.0828664862481183 -0.07855018652640394
6.5015625 -1.0830581274067907 -0.07846864991197386
6.5027109375 -1.083352033165723 -0.08012631053385841
6.503859375 -1.0823293456011547 -0.08235580148957397
6.5050078125 -1.083669383591414 -0.08466961687758295
6.50615625 -1.084984726532496 -0.0904007801214483
6.5073046875 -1.083736095240028 -0.09153402387761159
6.508453125 -1.082780941608909 -0.09408175121544156
6.5096015625 -1.0834491214440949 -0.09592434834363954
6.51075 -1.0816489978244985 -0.09830647755748027
6.5118984375 -1.0857032603675396 -0.10318214922179167
6.513046875 -1.0860301897144358 -0.10375631707918684
6.5141953125 -1.0861071916364857 -0.10404398290559774
6.51534375 -1.0844105468496135 -0.10588457469420315
6.5164921875 -1.0855702972358423 -0.10683164580562879
6.517640625 -1.087657119282766 -0.1094740518154323
6.5187890625 -1.087018159092804 -0.1104007689484392
6.5199375 -1.0875468383514104 -0.11248504486968174
6.5210859375 -1.0857882941760397 -0.1136225534460075
6.522234375 -1.0833198664980905 -0.11515140059440794
6.5233828125 -1.0854182619057546 -0.11609332060974108
6.52453125 -1.084013678418814 -0.1185590635616384
6.5256796875 -1.0824804397849903 -0.12081084312967635
6.526828125 -1.0807461259344813 -0.12143655575087353
6.5279765625 -1.0803497559572928 -0.12491672378398913
6.529125 -1.0795442232430081 -0.12767102849333528
6.5302734375 -1.0810378116764094 -0.12909813180371138
6.531421875 -1.0778028469303194 -0.1298925002578517
6.5325703125 -1.078447333769449 -0.1329540212087843
6.53371875 -1.0778937541641957 -0.13475607291505307
6.5348671875 -1.0792627252663094 -0.13875217983641286
6.536015625 -1.0800585619742304 -0.14148387214441727
6.5371640625 -1.0783085378445336 -0.14079318356104228
6.5383125 -1.0787492132765961 -0.14191062169260701
6.5394609375 -1.0771839208372838 -0.14455844099851994
6.540609375 -1.0784683200668796 -0.14657671640993308
6.5417578125 -1.0793060920049535 -0.14703479359333851
6.54290625 -1.0788248088565011 -0.14728223501794102
6.5440546875 -1.0767415696498956 -0.148752610031186
6.545203125 -1.07508356619814 -0.150826620326462
6.5463515625 -1.0754086581057496 -0.15433398283769445
6.5475 -1.075427931519431 -0.15720420758306192
6.5486484375 -1.0743373296172474 -0.15759587085219465
6.549796875 -1.0717691783046146 -0.15899909385044883
6.5509453125 -1.0708914729942651 -0.16060145644795598
6.55209375 -1.0711217710269452 -0.1632411550458546
6.5532421875 -1.0715444505935325 -0.16593009611675635
6.554390625 -1.0712183099877877 -0.16673907836033164
6.5555390625 -1.0713512312309128 -0.16916892323832933
6.5566875 -1.0707785987434244 -0.1709665943714011
6.5578359375 -1.0683751154794205 -0.17060191120678136
6.558984375 -1.0685164032071783 -0.1737286198250536
6.5601328125 -1.0676285423483507 -0.1757015538083806
6.56128125 -1.0665706209928953 -0.17791978237799402
6.5624296875 -1.0645363024045424 -0.179847586546504
6.563578125 -1.0654586567935969 -0.18327249833911585
6.5647265625 -1.0657712462268831 -0.18415251990665724
6.565875 -1.0655458654599663 -0.18707372050791332
6.5670234375 -1.0639816898413583 -0.18920337011939958
6.568171875 -1.062512914958141 -0.19082005516906775
6.5693203125 -1.0629508496230367 -0.1930772512403351
6.57046875 -1.0622353199942998 -0.19566165126470225
6.5716171875 -1.062160924272579 -0.1986115670977058
6.572765625 -1.060203073663582 -0.19861165831000233
6.5739140625 -1.0605599836994732 -0.2024139783038206
6.5750625 -1.0604659670460104 -0.20353473782098658
6.5762109375 -1.060227125171033 -0.20670422976540254
6.577359375 -1.0616975840970095 -0.2101158888094427
6.5785078125 -1.0616794162916252 -0.21098747019326775
6.57965625 -1.0590942674756592 -0.21421452001823751
6.5808046875 -1.0574188779929885 -0.2160526072060951
6.581953125 -1.0583609615502096 -0.21845539026223873
6.5831015625 -1.0594982509558208 -0.22179387814021145
6.58425 -1.0584973263368076 -0.22363168743672046
6.5853984375 -1.0571565880682712 -0.22582158291466692
6.586546875 -1.057102768931842 -0.22739342581613156
6.5876953125 -1.0563241538005594 -0.2297214594383846
6.58884375 -1.0562313409049677 -0.23306073541159564
6.5899921875 -1.0570476399406536 -0.23544791612963473
6.591140625 -1.0556393346222808 -0.2367378315435656
6.5922890625 -1.0558570303791552 -0.241770785936022
6.5934375 -1.0544218469830466 -0.24252856333755946
6.5945859375 -1.053657580305595 -0.24394774442722497
6.595734375 -1.054811557954042 -0.24692216785534063
6.5968828125 -1.0544700191480536 -0.24740650686870358
6.59803125 -1.0529421164523143 -0.24817430895423045
6.5991796875 -1.0534846171720043 -0.2512609331796931
6.600328125 -1.0526556630727464 -0.2534869590739651
6.6014765625 -1.0532883223661451 -0.2552948555084828
6.602625 -1.0506414761164244 -0.25882164978694844
6.6037734375 -1.0515084461684818 -0.25776782817529054
6.604921875 -1.051148422598302 -0.25958598559949586
6.6060703125 -1.049908595290459 -0.26173442004207315
6.60721875 -1.0503466146908742 -0.26459746318763977
6.6083671875 -1.0480455097428885 -0.26543471826759857
6.609515625 -1.0464951008824885 -0.26511403786215926
6.6106640625 -1.0458127268651882 -0.26762687109117445
6.6118125 -1.0460199633709149 -0.2697454893567097
6.6129609375 -1.045079355927761 -0.27277185261691017
6.614109375 -1.0439312501795532 -0.2758470809870705
6.6152578125 -1.0441801760169651 -0.2777253027345061
6.61640625 -1.042809959298615 -0.2781194059590715
6.6175546875 -1.0417189955597401 -0.28008949750310197
6.618703125 -1.044384721296863 -0.28357140494353184
6.6198515625 -1.0428229317086564 -0.28401878115016366
6.621 -1.0429352469565194 -0.2852622838328893
6.6221484375 -1.0434430487412933 -0.2862319017988878
6.623296875 -1.0435272910612348 -0.2865759169157785
6.6244453125 -1.0435050116352707 -0.2907077950153569
6.62559375 -1.0428124131315377 -0.29469819949120546
6.6267421875 -1.0416869029365006 -0.2962588294531849
6.627890625 -1.0421717775649455 -0.2969145340101713
6.6290390625 -1.0397868162365473 -0.2997177852030027
6.6301875 -1.040108984795119 -0.2999581461424669
6.6313359375 -1.0388411423008883 -0.3025977136785397
6.632484375 -1.0397494931295999 -0.3047383065175878
6.6336328125 -1.0373619707233508 -0.30765387210931017
6.63478125 -1.038256638940063 -0.31016467880401216
6.6359296875 -1.0356017209155552 -0.3124850897414652
6.637078125 -1.0372622713993886 -0.3171356511499648
6.6382265625 -1.037415934192417 -0.31782715489289226
6.639375 -1.0363053156160342 -0.31959544595507056
6.6405234375 -1.0355171856232186 -0.32094029597375734
6.641671875 -1.0361807287042046 -0.323182763097024
6.6428203125 -1.0363412919252446 -0.3251528256508748
6.64396875 -1.033164463020469 -0.32461450140414144
6.6451171875 -1.0343478531666923 -0.3265839694554873
6.646265625 -1.034096873567052 -0.3291592474243736
6.6474140625 -1.033579431823506 -0.32927175882692666
6.6485625 -1.0313341849704367 -0.33234143560449236
6.6497109375 -1.0322590204538291 -0.3343269250424182
6.650859375 -1.0318210199374729 -0.3347089796364746
6.6520078125 -1.0307191129482347 -0.33714545983023175
6.65315625 -1.0296351432240796 -0.3390737024108796
6.6543046875 -1.0285495234647577 -0.3407849181528186
6.655453125 -1.0273355805514313 -0.34397462078582014
6.6566015625 -1.0271753249177373 -0.3462477781201125
6.65775 -1.0255920911428305 -0.34774521753428367
6.6588984375 -1.0247650132232997 -0.3499072883551328
6.660046875 -1.024940662568025 -0.35303810159504995
6.6611953125 -1.0218659188820232 -0.3551215735358245
6.66234375 -1.020859256746773 -0.35538076925579265
6.6634921875 -1.0213588449016846 -0.3578391516008051
6.664640625 -1.0214290545099687 -0.3592379967989157
6.6657890625 -1.0201185691221908 -0.3609903143608268
6.6669375 -1.0183472925047734 -0.366793876576685
6.6680859375 -1.0172989691631364 -0.367318188730676
6.669234375 -1.0156470787883918 -0.3687951867322409
6.6703828125 -1.01658333412664 -0.3704062619192232
6.67153125 -1.014472547223162 -0.3733037258793549
6.6726796875 -1.0141478963070392 -0.37721971668412785
6.673828125 -1.0125299880552476 -0.3779135472558368
6.6749765625 -1.0112370394883672 -0.3812736574809227
6.676125 -1.0106445134581215 -0.3825058267594599
6.6772734375 -1.0094187193073412 -0.38207746811146437
6.678421875 -1.0083316111429212 -0.38718202516103156
6.6795703125 -1.0075538509857034 -0.3881155000024422
6.68071875 -1.0053026481248204 -0.3914583301828707
6.6818671875 -1.0040488858530947 -0.39170858265919545
6.683015625 -1.0057185170987684 -0.39422758463773344
6.6841640625 -1.0040887207402864 -0.39719250571815673
6.6853125 -1.0047507368187918 -0.4000283129914458
6.6864609375 -1.0051273639526321 -0.4005621869872637
6.687609375 -1.0033237760630418 -0.4027238872596003
6.6887578125 -1.0024844663425863 -0.4037983105216453
6.68990625 -1.0029334479332854 -0.40712389331893234
6.6910546875 -1.002458767345022 -0.4085008351057013
6.692203125 -1.0002140870345566 -0.4105110954218183
6.6933515625 -0.9995453232132151 -0.4109823422508224
6.6945 -1.0007997114452265 -0.4139820878062626
6.6956484375 -0.9999725747976193 -0.416942939846855
6.696796875 -0.9983116686543934 -0.41923262866229594
6.6979453125 -0.9973336782131368 -0.4218080641819816
6.69909375 -0.9962553985525471 -0.4232445224831186
6.7002421875 -0.9970367174200125 -0.4236127581674262
6.701390625 -0.9963215097957652 -0.4255409025051431
6.7025390625 -0.9946409887607215 -0.42933034791990204
6.7036875 -0.9941508208149119 -0.42891466106147225
6.7048359375 -0.9928561868463661 -0.4310451505659334
6.705984375 -0.9924132311903914 -0.43298905218889244
6.7071328125 -0.9935495760015042 -0.4364432778326046
6.70828125 -0.9925431625579226 -0.4397719927391114
6.7094296875 -0.9908817626890545 -0.44008132167580927
6.710578125 -0.9917926542463341 -0.44181050438573444
6.7117265625 -0.9904881106332151 -0.4425156666542302
6.712875 -0.990968279740147 -0.44671309384779767
6.7140234375 -0.9901939668841229 -0.4506937470148794
6.715171875 -0.9890548810384845 -0.4505956349430234
6.7163203125 -0.9885925889634759 -0.45278480834810825
6.71746875 -0.9879869399173405 -0.4553334450814408
6.7186171875 -0.987476457450585 -0.45617749354592857
6.719765625 -0.9866746360298737 -0.4600613422535379
6.7209140625 -0.9864332209895876 -0.4617173335415059
6.7220625 -0.9862276434577417 -0.46188246543518524
6.7232109375 -0.9851864415029912 -0.4646096755709762
6.724359375 -0.9849074049753659 -0.46514077692337996
6.7255078125 -0.9840397298811895 -0.4680329506249159
6.72665625 -0.9823689982117052 -0.46987540761085866
6.7278046875 -0.9809977677147135 -0.47150403739777696
6.728953125 -0.9796385115808978 -0.4714325811800242
6.7301015625 -0.977969055610275 -0.47414934169050216
6.73125 -0.9769465723229718 -0.476838083275592
6.7323984375 -0.9751372083463523 -0.4793266515911123
6.733546875 -0.9755923276596168 -0.4808075564019483
6.7346953125 -0.9740454302307477 -0.48369783224672036
6.73584375 -0.9734215094354526 -0.4860612468434703
6.7369921875 -0.973213432083972 -0.48726827654350063
6.738140625 -0.971015801797273 -0.49077690324160916
6.7392890625 -0.9707065009336343 -0.4924156641052443
6.7404375 -0.969067917009389 -0.4926968416944471
6.7415859375 -0.9680259535950634 -0.4931394320508108
6.742734375 -0.9664725140387911 -0.49782016898652137
6.7438828125 -0.9666044437185056 -0.5021223534515361
6.74503125 -0.9661392445547512 -0.502669157286022
6.7461796875 -0.9639635986211518 -0.5052337750447763
6.747328125 -0.9635874051220741 -0.505982031652114
6.7484765625 -0.9620128124341172 -0.5105777678616935
6.749625 -0.9616092714712392 -0.5124529014181108
6.7507734375 -0.960748046091427 -0.512217168997986
6.751921875 -0.9597395931726505 -0.5146520605311741
6.7530703125 -0.95961427456719 -0.5158208397393028
6.75421875 -0.9587822658934675 -0.5165365217075288
6.7553671875 -0.9572573113431333 -0.5196486215629125
6.756515625 -0.9548702954428359 -0.5216365087646756
6.7576640625 -0.9565745411131347 -0.5232144796027687
6.7588125 -0.9542192503891671 -0.5257865687295789
6.7599609375 -0.9527734957936251 -0.5278049516630551
6.761109375 -0.9524410014867613 -0.5304700190426256
6.7622578125 -0.95318308759654 -0.5309935859593091
6.76340625 -0.9531649394783541 -0.5329302136097444
6.7645546875 -0.9527150776942623 -0.5350284406405416
6.765703125 -0.9533499749605404 -0.5366538831549044
6.7668515625 -0.9516315010553669 -0.5412131883852017
6.768 -0.9533489016487587 -0.5444369882730015
6.7691484375 -0.9517002976540633 -0.547729315406275
6.770296875 -0.9521854853985259 -0.5499167346744829
6.7714453125 -0.9529144975779098 -0.5504450286016109
6.77259375 -0.951611126696525 -0.551905143638325
6.7737421875 -0.9505009843732088 -0.5571435145700331
6.774890625 -0.9506331081729272 -0.557535522269344
6.7760390625 -0.9499502617728748 -0.5583214040425634
6.7771875 -0.9500271660845911 -0.5600750659578588
6.7783359375 -0.9493851209447302 -0.5610405139543576
6.779484375 -0.9489060982529327 -0.5642293925380383
6.7806328125 -0.9484508595502387 -0.565270414895474
6.78178125 -0.9468618662515325 -0.5665989466992319
6.7829296875 -0.9460637744283069 -0.5674286397051183
6.784078125 -0.9461878002756088 -0.5676685022958975
6.7852265625 -0.9458751299723249 -0.5702417495918541
6.786375 -0.9468437537611188 -0.5729448289394853
6.7875234375 -0.9452760953621214 -0.5733428593636515
6.788671875 -0.9430644881364794 -0.5752834862132925
6.7898203125 -0.9428513247908545 -0.5781560360516895
6.79096875 -0.9415861627971807 -0.582663389364831
6.7921171875 -0.941315492373483 -0.5853356445471714
6.793265625 -0.942616574124093 -0.5861883504389538
6.7944140625 -0.9437850495620861 -0.5884319753392494
6.7955625 -0.9445396236572987 -0.5903948198597807
6.7967109375 -0.945321110885401 -0.5940950994452336
6.797859375 -0.9465769881931223 -0.5943199481229429
6.7990078125 -0.9473572974308049 -0.5948660482814454
6.80015625 -0.9476621460263628 -0.5954488288307853
6.8013046875 -0.9478341065614495 -0.5967934658677657
6.802453125 -0.9481749512689486 -0.5981158540438981
6.8036015625 -0.9493400471176308 -0.5996708209059628
6.80475 -0.9481921329145947 -0.5994042195362308
6.8058984375 -0.9469833915855932 -0.5998235004777794
6.807046875 -0.9462396032943339 -0.5996385828352386
6.8081953125 -0.9454610803053937 -0.6005402605602957
6.80934375 -0.9434861979662943 -0.6018494036229027
6.8104921875 -0.9426376769052335 -0.6029142626951737
6.811640625 -0.9405455639742758 -0.6033402604671544
6.8127890625 -0.9404326032321269 -0.6048345874056844
6.8139375 -0.9405445907413242 -0.6062975531197521
6.8150859375 -0.9398711659137314 -0.6081485015029336
6.816234375 -0.9390387408015926 -0.6079373564500608
6.8173828125 -0.9390940696856527 -0.608929254801083
6.81853125 -0.9386347597119025 -0.6046741943866666
6.8196796875 -0.9381957075900216 -0.6041475448159623
6.820828125 -0.9352433844679023 -0.605023858424893
6.8219765625 -0.9338543862108888 -0.6055725781943496
6.823125 -0.9327406561316169 -0.6043663720963437
6.8242734375 -0.9303413018915081 -0.6052534031998041
6.825421875 -0.9297794090765525 -0.6068060511896877
6.8265703125 -0.9250398081799541 -0.609673058528165
6.82771875 -0.9254221467645058 -0.6094121915772535
6.8288671875 -0.9240343053057589 -0.6103745511966118
6.830015625 -0.9222809501001703 -0.6119110265979452
6.8311640625 -0.9211641043633383 -0.6137141330469282
6.8323125 -0.9228405191672595 -0.6138116646314731
6.8334609375 -0.9226600799109717 -0.6143735199753081
6.834609375 -0.9227405631560303 -0.6119852708943504
6.8357578125 -0.9217564380973051 -0.614101722168615
6.83690625 -0.9168113656255137 -0.6136009781590215
6.8380546875 -0.9144087926052782 -0.6134631020338441
6.839203125 -0.9118557371561937 -0.6146707331850997
6.8403515625 -0.9095220834161293 -0.6155972051827715
6.8415 -0.9089018394776566 -0.6152938416585702
6.8426484375 -0.9060351244017186 -0.6161088659012592
6.843796875 -0.9036691295115201 -0.6170664889139731
6.8449453125 -0.900776446696723 -0.6185301697077041
6.84609375 -0.8974334584863672 -0.6184472238978462
6.8472421875 -0.893117510832145 -0.618178864137739
6.848390625 -0.8924219845695276 -0.6200368411692008
6.8495390625 -0.8898810494175707 -0.6221441842790933
6.8506875 -0.8865764427610435 -0.6260256631206337
6.8518359375 -0.8864709150563266 -0.6290988230373908
6.852984375 -0.8849018424344627 -0.6320989590242287
6.8541328125 -0.8866240041162136 -0.6343527454179548
6.85528125 -0.8845704153298096 -0.6368623256605257
6.8564296875 -0.879293623676407 -0.6402912587808052
6.857578125 -0.8792113250504586 -0.6413584609114559
6.8587265625 -0.87782631251133 -0.640009642720627
6.859875 -0.8742013455098139 -0.6407292305362666
6.8610234375 -0.8725401245923978 -0.6449686202667811
6.862171875 -0.8707335082950932 -0.6479500258427565
6.8633203125 -0.8703188873949531 -0.6507796845032369
6.86446875 -0.8670273231389396 -0.6495587821553872
6.8656171875 -0.8664221962769105 -0.6524632446249052
6.866765625 -0.868057948514596 -0.6544926580078887
6.8679140625 -0.8675467598044346 -0.6571230715802008
6.8690625 -0.8664098790952253 -0.6600632617237603
6.8702109375 -0.8642803189422927 -0.6603398162153601
6.871359375 -0.8639233940249136 -0.6609779108116871
6.8725078125 -0.8595498018305036 -0.6630101258448376
6.87365625 -0.859415215849705 -0.6641418514638749
6.8748046875 -0.8558185941090275 -0.6677093282943518
6.875953125 -0.8554078188994088 -0.6687027269288548
6.8771015625 -0.8556504052591002 -0.66893462794302
6.87825 -0.8533065087293785 -0.671995832622913
6.8793984375 -0.8508102422427402 -0.6722182450518052
6.880546875 -0.8485224328553091 -0.6756419739710091
6.8816953125 -0.8476074161503524 -0.6764289805510314
6.88284375 -0.8471859253365951 -0.6781471462946119
6.8839921875 -0.8452502856494024 -0.6807310447193264
6.885140625 -0.8441690737829101 -0.6828686097802031
6.8862890625 -0.8420335254663905 -0.6856032978459535
6.8874375 -0.8413081530420269 -0.6873156879975237
6.8885859375 -0.841141153929786 -0.6883580167621756
6.889734375 -0.8383758910175951 -0.6876415953027208
6.8908828125 -0.8369648046727866 -0.689891087997081
6.89203125 -0.8367323156266502 -0.6916960400221343
6.8931796875 -0.8331845919480234 -0.6930613412235165
6.894328125 -0.8314188805501319 -0.694357968895423
6.8954765625 -0.829934688128219 -0.6957626210271617
6.896625 -0.8287643266674724 -0.6964222222806447
6.8977734375 -0.8278119005936383 -0.6987397047507872
6.898921875 -0.8259068637668915 -0.7010185463649043
6.9000703125 -0.8247051533293711 -0.6997826554257927
6.90121875 -0.8233151682093164 -0.7005831401025899
6.9023671875 -0.8217953899907088 -0.7036533358935931
6.903515625 -0.8213965722403418 -0.7030258565188181
6.9046640625 -0.8177970067931297 -0.7059750607342468
6.9058125 -0.8177235638732622 -0.7063379798467837
6.9069609375 -0.8154305346884966 -0.7071207478214652
6.908109375 -0.8139987080554902 -0.7084744121642728
6.9092578125 -0.8119385960972701 -0.7087446791074752
6.91040625 -0.8092623428970065 -0.7125229721201167
6.9115546875 -0.8060919729168736 -0.7145978398393763
6.912703125 -0.8043072970716063 -0.7136834741264622
6.9138515625 -0.8029809234550538 -0.7157848403643827
6.915 -0.800755321029136 -0.7178578298098686
6.9161484375 -0.7998662325575818 -0.722735983025717
6.917296875 -0.7983923002642678 -0.7236535541829352
6.9184453125 -0.7968274983762852 -0.725471583313171
6.91959375 -0.7952205031593846 -0.7282891009425325
6.9207421875 -0.7950078002528091 -0.7295491181435957
6.921890625 -0.791826054534115 -0.7316636801640279
6.9230390625 -0.7901300247893186 -0.7313435978571605
6.9241875 -0.789631977094021 -0.7333106227781614
6.9253359375 -0.7869445253004809 -0.7351423669580144
6.926484375 -0.7866757083954894 -0.7360229465563612
6.9276328125 -0.7854338225558894 -0.7398789780519768
6.92878125 -0.7834252620654937 -0.7406017655670435
6.9299296875 -0.7831435059168821 -0.7403027010273258
6.931078125 -0.781443011406228 -0.742877101016934
6.9322265625 -0.778547427563018 -0.7441803228304218
6.933375 -0.7780536118496477 -0.7471273326078558
6.9345234375 -0.7753265242329521 -0.7496574596861794
6.935671875 -0.7744759005923318 -0.7494590152549969
6.9368203125 -0.7743876977352331 -0.7501087760777001
6.93796875 -0.7738976449174451 -0.7543923153449295
6.9391171875 -0.7728124119530831 -0.7571666017173891
6.940265625 -0.7723400943220166 -0.7611267468825801
6.9414140625 -0.771183784598258 -0.7608125791292581
6.9425625 -0.769814332167454 -0.762566633612634
6.9437109375 -0.7701300851148679 -0.7639551213554021
6.944859375 -0.7678252618679615 -0.7654511951417076
6.9460078125 -0.7680004622105416 -0.7660946202185207
6.94715625 -0.766821931585873 -0.76783680102516
6.9483046875 -0.7650073473136672 -0.7665232362713811
6.949453125 -0.7642476117297163 -0.7669170096846039
6.9506015625 -0.7626126144617009 -0.7684162700350983
6.95175 -0.7616359310730011 -0.7715292224870617
6.9528984375 -0.7585143447108522 -0.7710240189794966
6.954046875 -0.7571689575161968 -0.7718911908081807
6.9551953125 -0.7555167510186029 -0.7738513127084667
6.95634375 -0.7517385480680124 -0.7750054702786671
6.9574921875 -0.7495142403231988 -0.7763980391630705
6.958640625 -0.7500199924052318 -0.7775596794508204
6.9597890625 -0.7489347409803988 -0.7794947121055685
6.9609375 -0.7459729878875864 -0.779007475532828
6.9620859375 -0.7440250242253935 -0.7826720782891037
6.963234375 -0.7414501869162587 -0.7837211773202737
6.9643828125 -0.7384377677793318 -0.784113755054996
6.96553125 -0.7383965632713337 -0.7857469543266025
6.9666796875 -0.7369691238871825 -0.78567623765851
6.967828125 -0.7358373946332248 -0.7881566163498102
6.9689765625 -0.7355440742711556 -0.789062774193425
6.970125 -0.734227959315217 -0.7918701832006503
6.9712734375 -0.7323569292570947 -0.7933965096629954
6.972421875 -0.730294235283073 -0.7934610720348192
6.9735703125 -0.7297004060767784 -0.7951334050689906
6.97471875 -0.7288712385585869 -0.7974744092991556
6.9758671875 -0.7269574836448235 -0.7980924584686686
6.977015625 -0.725151693232139 -0.7990412644580172
6.9781640625 -0.7233613783277327 -0.799716563112818
6.9793125 -0.7214860335868888 -0.8005818163743815
6.9804609375 -0.7223566955014874 -0.8024907748287378
6.981609375 -0.7193276944105427 -0.8052131389435411
6.9827578125 -0.7176224840297496 -0.8058424387496876
6.98390625 -0.7175570520396022 -0.8071526142033778
6.9850546875 -0.7152708568550193 -0.8095619415217093
6.986203125 -0.7136909056478257 -0.8091101071754772
6.9873515625 -0.7123689414942644 -0.8120791197623057
6.9885 -0.7103251094125356 -0.8136926670860503
6.9896484375 -0.7088612907949531 -0.8144311712446304
6.990796875 -0.7070013488126697 -0.8148177091526313
6.9919453125 -0.70596367496732 -0.8141455083383757
6.99309375 -0.7045057735814908 -0.8160528202291066
6.9942421875 -0.7030440378000573 -0.8171721861176864
6.995390625 -0.7011472266367138 -0.8191488764776731
6.9965390625 -0.699673672304842 -0.820621077180954
6.9976875 -0.6985191725264615 -0.8214501140853796
6.9988359375 -0.6971058692637873 -0.822169527368685
6.999984375 -0.6959753144463806 -0.8244869684498237
7.0011328125 -0.6938085689970739 -0.8245816181849778
7.00228125 -0.6915633608212067 -0.8266266594340198
7.0034296875 -0.690507922154991 -0.8263688264371214
7.004578125 -0.6908757940862236 -0.827758787647139
7.0057265625 -0.6872708069152971 -0.8275583601271201
7.006875 -0.6864448875962198 -0.8289091352574491
7.0080234375 -0.6847128373710788 -0.832997568424492
7.009171875 -0.6825806724078507 -0.8339033765447866
7.0103203125 -0.6784352324426706 -0.8362323809929794
7.01146875 -0.6788481648795379 -0.8380832985869804
7.0126171875 -0.678704662081199 -0.8381669055207985
7.013765625 -0.6743252565005078 -0.8388004200486333
7.0149140625 -0.6745745872346771 -0.8425088380238389
7.0160625 -0.6729656214916959 -0.8415917768207136
7.0172109375 -0.6705664826691717 -0.8430113003052866
7.018359375 -0.6683933925414458 -0.8447478308522013
7.0195078125 -0.6659161899657513 -0.8465008778804497
7.02065625 -0.6658015636682824 -0.8473409754952569
7.0218046875 -0.6632366657249322 -0.8498036391745158
7.022953125 -0.6612964840610311 -0.8520539998013326
7.0241015625 -0.6607480457686046 -0.8524050141419653
7.02525 -0.6578551080491815 -0.8544165995726635
7.0263984375 -0.6581788334137777 -0.8555878265374278
7.027546875 -0.6563764121746003 -0.856206924548782
7.0286953125 -0.6553925794146033 -0.8592541488530607
7.02984375 -0.6538137467938694 -0.8600517666216324
7.0309921875 -0.6513858402232462 -0.8611349941785856
7.032140625 -0.6489270126932758 -0.8625379803430271
7.0332890625 -0.6481915655981727 -0.8627069510392538
7.0344375 -0.6484517247815025 -0.8651123810329941
7.0355859375 -0.6462945011796495 -0.8660763468865643
7.036734375 -0.6459540737653182 -0.8657425131396634
7.0378828125 -0.6435851237857477 -0.8667926283734316
7.03903125 -0.6405273060621228 -0.8687928081993141
7.0401796875 -0.6402082664414432 -0.8709917930643399
7.041328125 -0.640149760607581 -0.8720136845485811
7.0424765625 -0.6374810183691084 -0.8745435198692278
7.043625 -0.6352786183824211 -0.8753896537251691
7.0447734375 -0.634001042304077 -0.8771790679673298
7.045921875 -0.6321045786729912 -0.8775694591986818
7.0470703125 -0.6307490771331414 -0.8780676484031766
7.04821875 -0.6294907312161834 -0.8783020063346213
7.0493671875 -0.6271042094194681 -0.8777595918736837
7.050515625 -0.6247347396436158 -0.8798714051303604
7.0516640625 -0.6221345872007774 -0.881669229751325
7.0528125 -0.6218608636698384 -0.8849392951707374
7.0539609375 -0.6197072740980291 -0.8857610102572395
7.055109375 -0.6193451065338249 -0.88626379903882
7.0562578125 -0.6181285116206237 -0.8876802246131461
7.05740625 -0.6160860845787854 -0.8876798212674482
7.0585546875 -0.613911605591569 -0.8891764027767604
7.059703125 -0.6127594040244078 -0.8903306024569169
7.0608515625 -0.6106335836627257 -0.8895058316601676
7.062 -0.6101105829003863 -0.8906740006774192
7.0631484375 -0.6077292313622884 -0.8907958204596412
7.064296875 -0.6054037289019578 -0.8942631514644585
7.0654453125 -0.6027025058864319 -0.8933615719090784
7.06659375 -0.6006969523074479 -0.8950434805065353
7.0677421875 -0.5999730949339158 -0.8961390615454333
7.068890625 -0.6012256387164756 -0.8968374769641063
7.0700390625 -0.5975698814112659 -0.8984721327237769
7.0711875 -0.5959133465452515 -0.897201166791622
7.0723359375 -0.595101489366656 -0.8996957241832393
7.073484375 -0.5925806617999683 -0.8995665839655556
7.0746328125 -0.589117016245718 -0.9012416718605285
7.07578125 -0.5881372568469974 -0.9012071111230717
7.0769296875 -0.5852972783768853 -0.9041248885304471
7.078078125 -0.5847084365689341 -0.9033059242437487
7.0792265625 -0.5825840714449406 -0.9047835753875845
7.080375 -0.5828264521384021 -0.9065005005081699
7.0815234375 -0.5806367802083701 -0.909165714546232
7.082671875 -0.5768334580776371 -0.9107719356448526
7.0838203125 -0.5766605325803659 -0.9111244702031589
7.08496875 -0.5757121231175244 -0.9119141581416008
7.0861171875 -0.5726190060216905 -0.911796704587561
7.087265625 -0.5689627072928767 -0.912903166205584
7.0884140625 -0.5696187653823797 -0.9143513011062612
7.0895625 -0.5683779255170397 -0.9156301428906544
7.0907109375 -0.567595151374301 -0.9171740205828804
7.091859375 -0.5656448469946349 -0.9173849696965922
7.0930078125 -0.5661244143040849 -0.9207830273508326
7.09415625 -0.5635842708874276 -0.9219930603868444
7.0953046875 -0.5622239788112542 -0.9224863035502289
7.096453125 -0.5606608355061238 -0.9225923777065148
7.0976015625 -0.5580094273560623 -0.9227598881401695
7.09875 -0.5581059470328555 -0.9235160015898117
7.0998984375 -0.5552324701882303 -0.9248325896177048
7.101046875 -0.5550086504709221 -0.9266951239506888
7.1021953125 -0.5550344393626528 -0.9273844966863715
7.10334375 -0.552728877532537 -0.927242096669024
7.1044921875 -0.552035979579174 -0.9274676824279726
7.105640625 -0.551357428145197 -0.9278833538956535
7.1067890625 -0.5487331901900747 -0.9282527235882541
7.1079375 -0.547820778078238 -0.9285036248915128
7.1090859375 -0.5458399373354814 -0.9296773408151632
7.110234375 -0.5438476825172102 -0.9299703820770107
7.1113828125 -0.5423887450966532 -0.9300023732754222
7.11253125 -0.5404723387315467 -0.9315509528103535
7.1136796875 -0.5392648198491554 -0.9326090372634186
7.114828125 -0.5370786100019757 -0.9322822333770274
7.1159765625 -0.5354601456821553 -0.9328146716667722
7.117125 -0.5342211805156286 -0.9340532291698044
7.1182734375 -0.5327328511699635 -0.9352899120265532
7.119421875 -0.5304324061483149 -0.9364179273715114
7.1205703125 -0.5277879414000859 -0.9367387853707855
7.12171875 -0.5263102055135879 -0.9369883834136823
7.1228671875 -0.5254343052161163 -0.938377299614424
7.124015625 -0.5215279163495417 -0.9385245020198163
7.1251640625 -0.5215474287520927 -0.9381660989445035
7.1263125 -0.520509830957723 -0.9384792442589269
7.1274609375 -0.5183364702093071 -0.9395002962651808
7.128609375 -0.515307103351666 -0.939281335300097
7.1297578125 -0.5128250071702525 -0.9398835040536925
7.13090625 -0.5102688227933174 -0.939880457737509
7.1320546875 -0.5094026508800987 -0.9422796553056992
7.133203125 -0.5072327308916103 -0.9426548828003627
7.1343515625 -0.5047980722328222 -0.9438985639795723
7.1355 -0.5027183983522743 -0.9440660125599856
7.1366484375 -0.5025294619632749 -0.9451731942907954
7.137796875 -0.5012522457920188 -0.9463206704809068
7.1389453125 -0.49831242077854093 -0.9476968794327982
7.14009375 -0.4977998752114717 -0.9492613766755277
7.1412421875 -0.49507225393676957 -0.9495872722902191
7.142390625 -0.49333778405511336 -0.9502464358073337
7.1435390625 -0.4916410774534839 -0.9494981226789083
7.1446875 -0.49057946898930954 -0.9496097906545357
7.1458359375 -0.49044367389173027 -0.951117020616451
7.146984375 -0.4882507756340825 -0.9515903250420216
7.1481328125 -0.4864783935918143 -0.9525364849957896
7.14928125 -0.4857407439013752 -0.9530574341394846
7.1504296875 -0.48346228291332494 -0.9529449616858097
7.151578125 -0.481841719304473 -0.9538298626307701
7.1527265625 -0.47903891245679714 -0.9547042543967034
7.153875 -0.47689698482634907 -0.9547599090055265
7.1550234375 -0.4758868361385265 -0.955853662955703
7.156171875 -0.47613679088758176 -0.9557432328058276
7.1573203125 -0.47304083057030083 -0.9570297825979237
7.15846875 -0.47205619648460206 -0.9581205021068817
7.1596171875 -0.4696011031364602 -0.9587452455410848
7.160765625 -0.4677060021360733 -0.9582600413487427
7.1619140625 -0.46482859578252705 -0.9587043898330638
7.1630625 -0.4637048985306955 -0.9583172739488772
7.1642109375 -0.46122066096289044 -0.9603148070530747
7.165359375 -0.4596172320231052 -0.9605644479595182
7.1665078125 -0.4577837191324412 -0.9623355921196131
7.16765625 -0.4558848500889995 -0.9628582483045969
7.1688046875 -0.45457306446655 -0.9627418237640147
7.169953125 -0.45313403062796875 -0.9636813809821442
7.1711015625 -0.4511803623404707 -0.9630465370574588
7.17225 -0.45001255642567173 -0.9651601252822042
7.1733984375 -0.4482819190664936 -0.9666746396157766
7.174546875 -0.4471098184425756 -0.9658040695950203
7.1756953125 -0.44583289682428723 -0.9653994595844362
7.17684375 -0.44410265330620474 -0.9671220958883626
7.1779921875 -0.4414628203845824 -0.9669575957495934
7.179140625 -0.43971927520133114 -0.9697723559515904
7.1802890625 -0.4377397642852635 -0.9690108630271419
7.1814375 -0.4368767521531408 -0.9710802770048605
7.1825859375 -0.43438727704610364 -0.9717877789718894
7.183734375 -0.4330689097493141 -0.9713938029503288
7.1848828125 -0.43340266474588496 -0.9707809146801686
7.18603125 -0.4316018759642768 -0.9711677816923648
7.1871796875 -0.42895284315506765 -0.9722404748445986
7.188328125 -0.42634427915643586 -0.9721302752936003
7.1894765625 -0.4249029801365012 -0.9727429022776761
7.190625 -0.425067840187468 -0.9725553039947121
7.1917734375 -0.4231226787928828 -0.9735388416825624
7.192921875 -0.42104760064404556 -0.9757210444811127
7.1940703125 -0.41906707888949835 -0.9759879979217019
7.19521875 -0.41781023994916144 -0.9765201272825488
7.1963671875 -0.4169633428168411 -0.9759805699570958
7.197515625 -0.4165842585384834 -0.976094742314941
7.1986640625 -0.4165807244306842 -0.9778390253565686
7.1998125 -0.4143702673221287 -0.9788625497954836
7.2009609375 -0.4131016608579965 -0.9786372850803653
7.202109375 -0.4108755774883404 -0.9781596237205344
7.2032578125 -0.4109769399551023 -0.9783565397276109
7.20440625 -0.409881008640522 -0.9770380017649207
7.2055546875 -0.40840446760265564 -0.976766064692646
7.206703125 -0.4063153920298165 -0.9778017146304776
7.2078515625 -0.4049578572203057 -0.9785419752203104
7.209 -0.405525401145316 -0.9781095695425301
7.2101484375 -0.4036280025242909 -0.9779771407607393
7.211296875 -0.4015958059097174 -0.9769019506113772
7.2124453125 -0.4004770978088411 -0.9764719843158075
7.21359375 -0.3982312755862027 -0.9770427334936377
7.2147421875 -0.3966522582173851 -0.9784779448870625
7.215890625 -0.39602092741046757 -0.975962560792843
7.2170390625 -0.3940536905611426 -0.9767793843422153
7.2181875 -0.3950806463356993 -0.9775360496520085
7.2193359375 -0.3932637697751096 -0.9773061226895944
7.220484375 -0.39019004562766124 -0.9763684059477031
7.2216328125 -0.38998488317724644 -0.9777648498886644
7.22278125 -0.387636101989986 -0.9769712040494034
7.2239296875 -0.38732110365409644 -0.977967115053784
7.225078125 -0.3862397199404791 -0.9780133728722065
7.2262265625 -0.38567870765122997 -0.9804449535163537
7.227375 -0.3870265143218925 -0.9787973822818163
7.2285234375 -0.387706600731734 -0.978882984608602
7.229671875 -0.38742770370428947 -0.9794021068419102
7.2308203125 -0.3865973332126199 -0.9778432994038071
7.23196875 -0.38635881988650034 -0.9757919290564405
7.2331171875 -0.3872342442284149 -0.9738385005875352
7.234265625 -0.38707323396140064 -0.9709525757889994
7.2354140625 -0.38514377623352913 -0.9705473918323104
7.2365625 -0.38549660829111787 -0.9688411475884763
7.2377109375 -0.3844186306115577 -0.9656953152117729
7.238859375 -0.38142332002082346 -0.9640651482510789
7.2400078125 -0.3806350060553427 -0.9644805509037269
7.24115625 -0.37947336591286895 -0.9628548661279428
7.2423046875 -0.3784541055742248 -0.962568823793817
7.243453125 -0.3775630310052748 -0.9596469966859399
7.2446015625 -0.37830744993906096 -0.9586461112707547
7.24575 -0.3793528213494017 -0.9557010313288012
7.2468984375 -0.377825320836868 -0.9525919508395682
7.248046875 -0.3778780317637606 -0.9485371923710353
7.2491953125 -0.3775422913318697 -0.9466770017931556
7.25034375 -0.37560105632693874 -0.9433161811167508
7.2514921875 -0.37450753176814416 -0.9412991028083375
7.252640625 -0.37325383497746867 -0.9383046088365045
7.2537890625 -0.3738306017961179 -0.935549203456153
7.2549375 -0.37168623430278813 -0.9326636488009064
7.2560859375 -0.36954301960178015 -0.9306900871293037
7.257234375 -0.36945100069578696 -0.9263148393850273
7.2583828125 -0.3696340867966116 -0.9214169424760581
7.25953125 -0.367527985755036 -0.916757086613827
7.2606796875 -0.3669339678776643 -0.9113835339393812
7.261828125 -0.36619739001418217 -0.9088171608252943
7.2629765625 -0.3630526093747486 -0.9023789636279425
7.264125 -0.35921928159122923 -0.8968310334118526
7.2652734375 -0.3574777554484352 -0.8911957830246764
7.266421875 -0.3542948547150407 -0.8839749432628558
7.2675703125 -0.35099022451784617 -0.8799890734261132
7.26871875 -0.3477619223461587 -0.8741443774210362
7.2698671875 -0.3453696315418005 -0.8676252266017639
7.271015625 -0.3422856937197633 -0.8619024888472192
7.2721640625 -0.3381609955012975 -0.85386980886579
7.2733125 -0.3341626051907576 -0.8454023574896352
7.2744609375 -0.32913749637114587 -0.8391543698054355
7.275609375 -0.32029905805550873 -0.830088742395746
7.2767578125 -0.31414846709653244 -0.8201712552506875
7.27790625 -0.30545283502594417 -0.8129032791553686
7.2790546875 -0.2964875621303842 -0.8044379561113366
7.280203125 -0.2861811808100899 -0.7965081458085247
7.2813515625 -0.2749711772761432 -0.7892331657895643
7.2825 -0.26414699627303706 -0.7815254712714105
7.2836484375 -0.25047141566166375 -0.7763103024689904
7.284796875 -0.2370177242011603 -0.7706202562291619
7.2859453125 -0.2209264995945108 -0.7662878554739081
7.28709375 -0.2071445047877412 -0.7634230359008941
7.2882421875 -0.1919859628641499 -0.7613826372190051
7.289390625 -0.17680779974560454 -0.7612339431295913
7.2905390625 -0.16038590276949327 -0.7613243187493102
7.2916875 -0.14542689758129018 -0.7639526393162115
7.2928359375 -0.1301201807633331 -0.7671962784693617
7.293984375 -0.11592893779644606 -0.769898258070227
7.2951328125 -0.10253243385328051 -0.776250781677409
7.29628125 -0.08755816625498128 -0.7810202887043965
7.2974296875 -0.0733026409298141 -0.7889950358225049
7.298578125 -0.060868265446816144 -0.7961357570116713
7.2997265625 -0.048504808542508396 -0.8046113024081878
7.300875 -0.038859379789664306 -0.8135904366494192
7.3020234375 -0.028660862744643453 -0.822521401130321
7.303171875 -0.01928378181973553 -0.8324604437253289
7.3043203125 -0.011480239107478085 -0.8411828175792653
7.30546875 -0.005080716831606789 -0.8522375958457604
7.3066171875 0.0013239085825998836 -0.8611324559684168
7.307765625 0.0074890407846257695 -0.8714585965153802
7.3089140625 0.012969158889847177 -0.8810571806247175
7.3100625 0.016762967734071613 -0.8880697282114479
7.3112109375 0.02122591336823399 -0.8967606002572415
7.312359375 0.025733229675654626 -0.9043244865107317
7.3135078125 0.028944073934292297 -0.9137000760354974
7.31465625 0.03209061073005606 -0.9213421622263941
7.3158046875 0.033788630185755286 -0.9308118672017891
7.316953125 0.03645579655841567 -0.9400081697923609
7.3181015625 0.0374561661850481 -0.9470867996247684
7.31925 0.03910906220894114 -0.9564990548313576
7.3203984375 0.04002215986023515 -0.962030899931299
7.321546875 0.04007885779174816 -0.9677926282751259
7.3226953125 0.041672564977073445 -0.9744008824149781
7.32384375 0.04205221942325951 -0.9810220983896827
7.3249921875 0.0430222258799314 -0.9856669706089644
7.326140625 0.04272860229826028 -0.993373487479206
7.3272890625 0.04311645023622898 -1.0002700756051788
7.3284375 0.04198313834170936 -1.0061375889004915
7.3295859375 0.04035248087038523 -1.0123793408627204
7.330734375 0.039334450851009256 -1.018444151009792
7.3318828125 0.03749179553782814 -1.0224173395331102
7.33303125 0.03465620078130641 -1.0277974564202035
7.3341796875 0.034930157669611245 -1.0312786694050673
7.335328125 0.03234939442157264 -1.0348860698846682
7.3364765625 0.03154168675036775 -1.0364955984010418
7.337625 0.030239541336541664 -1.0389142945588148
7.3387734375 0.027990076350137116 -1.0423848138017109
7.339921875 0.02711823822461451 -1.0458604771885058
7.3410703125 0.024973827070571608 -1.0487723794238202
7.34221875 0.02258160436311618 -1.0514149851064967
7.3433671875 0.020596234357520615 -1.0525971650308446
7.344515625 0.018651667927617688 -1.0537585215800798
7.3456640625 0.01787765467888408 -1.0540094184399083
7.3468125 0.015570210580176547 -1.0552979375983509
7.3479609375 0.015255158782902956 -1.0563998996450419
7.349109375 0.014780239966959763 -1.0571793033144214
7.3502578125 0.013580327103493273 -1.056663550174627
7.35140625 0.014052973645030331 -1.0575016756373894
7.3525546875 0.014595493057757758 -1.0583695421308974
7.353703125 0.01352725639024921 -1.0572121186682255
7.3548515625 0.01297245588210566 -1.0568967594437444
7.356 0.013332271337543888 -1.055118778357305
7.3571484375 0.012820828471421075 -1.0559258358116217
7.358296875 0.013829673358231709 -1.0542778226889506
7.3594453125 0.014436748069530048 -1.0542181038499119
7.36059375 0.015980391379250947 -1.0554412612885467
7.3617421875 0.016396216180295742 -1.0552088013370953
7.362890625 0.018508066022466074 -1.0547113085548143
7.3640390625 0.020919573344927278 -1.0561795058168741
7.3651875 0.020844344972293483 -1.0562732973877735
7.3663359375 0.020507406562176422 -1.0549201228191465
7.367484375 0.020934357006826387 -1.0546975955809985
7.3686328125 0.02240835090780785 -1.0532009855341713
7.36978125 0.02401202811938291 -1.0541934605955154
7.3709296875 0.024956295880540214 -1.0544915670289547
7.372078125 0.02613533779097804 -1.0552923237102434
7.3732265625 0.028138605445011844 -1.0559453812212896
7.374375 0.029524997743059167 -1.0559677103625746
7.3755234375 0.03191036964879718 -1.0562594747967549
7.376671875 0.031980186250189224 -1.0567608893698002
7.3778203125 0.034248177369636035 -1.0569939840812876
7.37896875 0.03525797819533488 -1.057944791300729
7.3801171875 0.037273523376841644 -1.0591094407785737
7.381265625 0.03793145580992996 -1.0592600595756507
7.3824140625 0.039881979779653465 -1.0603508136026225
7.3835625 0.0400616197364182 -1.0608254775101673
7.3847109375 0.04151977214541147 -1.0610693561396047
7.385859375 0.04336025941662258 -1.0598810583251068
7.3870078125 0.043299900140664205 -1.0590816693050538
7.38815625 0.04364840613689003 -1.059839047014986
7.3893046875 0.0441981157112909 -1.0563638829717
7.390453125 0.04509995516595827 -1.056746316600681
7.3916015625 0.047637674814844266 -1.0559408300319348
7.39275 0.04817124833357278 -1.053825551395661
7.3938984375 0.051048238245874455 -1.0537725668947187
7.395046875 0.05316669304836186 -1.0531794214054306
7.3961953125 0.05624398456623947 -1.0530831944862675
7.39734375 0.05671983020787458 -1.054828710467409
7.3984921875 0.060004785586280085 -1.0534810660634277
7.399640625 0.06069302207246474 -1.0550892731169852
7.4007890625 0.0639622920859908 -1.0563795732743078
7.4019375 0.0667397783585994 -1.055819683329013
7.4030859375 0.06752807752276202 -1.057674233751999
7.404234375 0.06925766555078722 -1.055960355784035
7.4053828125 0.07013355702001317 -1.0573626312259659
7.40653125 0.0709633298129777 -1.0575477425454654
7.4076796875 0.07474143714841558 -1.0581239343803144
7.408828125 0.07557445916979666 -1.0576656933607742
7.4099765625 0.07714498329598751 -1.058232933891409
7.411125 0.07872826360156626 -1.0563109882758441
7.4122734375 0.08038023083352358 -1.057034777539521
7.413421875 0.08306104339913833 -1.0577794066779183
7.4145703125 0.08418566621197698 -1.0575252885056061
7.41571875 0.08688205488721179 -1.056694792002946
7.4168671875 0.09037218829197174 -1.059007314025076
7.418015625 0.09148879478676752 -1.057788732111019
7.4191640625 0.0929540516871537 -1.0569014617417933
7.4203125 0.09605660655076725 -1.056349778402864
7.4214609375 0.09645266457167667 -1.056761789879894
7.422609375 0.09779594919060988 -1.0570276083528165
7.4237578125 0.10066243839518599 -1.0577233722370483
7.42490625 0.10113651338381496 -1.0573112577018828
7.4260546875 0.10471633646310113 -1.0555987744896393
7.427203125 0.10489414424304194 -1.0558008144813038
7.4283515625 0.10597632924183997 -1.0556133439256021
7.4295 0.10854888216995084 -1.0577250397617641
7.4306484375 0.11036901535771837 -1.0571622532832137
7.431796875 0.11426569603216033 -1.0572245613072055
7.4329453125 0.11422959015521536 -1.0562014432560212
7.43409375 0.11558345207910019 -1.05712275549104
7.4352421875 0.11880901968113619 -1.0556640165416118
7.436390625 0.12050385084245949 -1.0542225692915552
7.4375390625 0.12052734412992588 -1.0541682498966787
7.4386875 0.12231164275413195 -1.053483642679374
7.4398359375 0.12222673340240925 -1.0541274507476586
7.440984375 0.12364289652826133 -1.0530391430433925
7.4421328125 0.12724678211478274 -1.0527516986817174
7.44328125 0.1284106375624532 -1.0513851268567418
7.4444296875 0.13146231992242569 -1.0523643085147638
7.445578125 0.1346398918995977 -1.052253815015014
7.4467265625 0.13672412901700196 -1.0516163681879427
7.447875 0.1377695661338558 -1.0507739916590695
7.4490234375 0.14110364015144194 -1.0505856232547233
7.450171875 0.1421724898924761 -1.0511269837876207
7.4513203125 0.14519053339291663 -1.050876853163018
7.45246875 0.14772828081098388 -1.0510825158755008
7.4536171875 0.14868174360330527 -1.0505730540872054
7.454765625 0.1519520937711379 -1.050168887652078
7.4559140625 0.1549153007190413 -1.0514912011718691
7.4570625 0.1547005034225989 -1.053501954378339
7.4582109375 0.1574446624341383 -1.0528329292680363
7.459359375 0.15952005924737417 -1.0512601457186295
7.4605078125 0.15921618200180238 -1.0512945847107757
7.46165625 0.15962552296522628 -1.0505322552348595
7.4628046875 0.16116560210905836 -1.0504159139060925
7.463953125 0.16423190188479886 -1.0493126853421972
7.4651015625 0.16540155195945022 -1.0493439491352832
7.46625 0.1681984714830875 -1.048985699561101
7.4673984375 0.1706782074982362 -1.047983509851436
7.468546875 0.17173225935801273 -1.0470322812315869
7.4696953125 0.1729139475390517 -1.0469918120486421
7.47084375 0.17536124030931538 -1.047046432225645
7.4719921875 0.176135020386827 -1.0468564671363343
7.473140625 0.1780721161374323 -1.046416126239878
7.4742890625 0.1794121045716992 -1.0450112327365033
7.4754375 0.1808674297890041 -1.0442223864278712
7.4765859375 0.1843693579428663 -1.0411213717224306
7.477734375 0.18847422293996563 -1.039438134328293
7.4788828125 0.19185275868419926 -1.0368398441959754
7.48003125 0.1933427624573671 -1.0375880541171627
7.4811796875 0.19638358643406695 -1.0360684103631517
7.482328125 0.20225607676464072 -1.0369544409072282
7.4834765625 0.20564537478266648 -1.0368980654017943
7.484625 0.2078949471478808 -1.0386856573964085
7.4857734375 0.209182750954033 -1.0368653531139864
7.486921875 0.21136732344011694 -1.0355703048670313
7.4880703125 0.21571853303760044 -1.0358816635635817
7.48921875 0.22060751555245442 -1.0364664469012543
7.4903671875 0.22272611527176767 -1.0355912523068034
7.491515625 0.22403766225440971 -1.0362433348128457
7.4926640625 0.22613303081970146 -1.0370664597138761
7.4938125 0.22762435165609773 -1.0372683480101559
7.4949609375 0.2278725490618049 -1.0353864791655019
7.496109375 0.2331598021588611 -1.036079146728807
7.4972578125 0.23572721266323854 -1.0367717851497766
7.49840625 0.23636990888351006 -1.0372274816008609
7.4995546875 0.23806929361313284 -1.0382995594759297
7.500703125 0.23978563384623847 -1.0362907406869812
7.5018515625 0.24369892429113163 -1.034422728421578
7.503 0.24648623081122834 -1.0321412625200854
7.5041484375 0.2494371870986919 -1.034185574934383
7.505296875 0.2519516927733958 -1.0339681642147731
7.5064453125 0.25415075958350475 -1.0385863633203645
7.50759375 0.2584712859219981 -1.0382548153792492
7.5087421875 0.26076730718152635 -1.0398121263823399
7.509890625 0.26083196494629984 -1.0389868749165965
7.5110390625 0.2622056971667175 -1.038609932829117
7.5121875 0.26403544158583636 -1.0393092442830096
7.5133359375 0.26617630796141273 -1.0390679645025978
7.514484375 0.269802144832904 -1.040170185205881
7.5156328125 0.2709691059023779 -1.0400191622077777
7.51678125 0.2723052508950655 -1.0378880239019743
7.5179296875 0.2727859382836311 -1.0374546378427851
7.519078125 0.27485712862447315 -1.0361491097334377
7.5202265625 0.27866206785370146 -1.0376875981039646
7.521375 0.2823059449713943 -1.0386874825468044
7.5225234375 0.2831793583751329 -1.0385489397659264
7.523671875 0.2860584005734165 -1.0417401298138422
7.5248203125 0.2866451638114825 -1.0421840024669202
7.52596875 0.28718487255951813 -1.0444688299748603
7.5271171875 0.29036055519101234 -1.0456467513088559
7.528265625 0.29076609162332145 -1.0464802070651786
7.5294140625 0.2926123355962089 -1.0472058988700959
7.5305625 0.2958762686544446 -1.046646464628092
7.5317109375 0.2966822022838216 -1.0457075861881737
7.532859375 0.29671751171882244 -1.0459586969217207
7.5340078125 0.2975239949859095 -1.0495875648779982
7.53515625 0.2998045132646253 -1.048923993717958
7.5363046875 0.30050218299949283 -1.0474944861507947
7.537453125 0.2990818395315019 -1.0479344030241706
7.5386015625 0.29800438076480107 -1.045556795937191
7.53975 0.29720222110711975 -1.0452976363228188
7.5408984375 0.29664979489378807 -1.043927951863982
7.542046875 0.2988344059062649 -1.0422731622988328
7.5431953125 0.29955718745670523 -1.04166827847082
7.54434375 0.2997389093098793 -1.0430441974881552
7.5454921875 0.2991517673209314 -1.0421137919201167
7.546640625 0.30185253682772084 -1.0429276021789213
7.5477890625 0.30229620078285113 -1.0386936963869564
7.5489375 0.30502376737738524 -1.037055296453568
7.5500859375 0.3055220856338991 -1.0387351099733282
7.551234375 0.30815209255151077 -1.038035315029473
7.5523828125 0.30927093316655996 -1.0328145524598527
7.55353125 0.31203690463185246 -1.0352166917965309
7.5546796875 0.31083003388546804 -1.0357876768860532
7.555828125 0.31356423362622843 -1.0335997508414076
7.5569765625 0.3172503618568936 -1.032392540617719
7.558125 0.31577198344818347 -1.0298065839829529
7.5592734375 0.3197994274823248 -1.0271880384299616
7.560421875 0.3236920761037723 -1.0290216212296253
7.5615703125 0.32481640507467674 -1.0289492715935906
7.56271875 0.32853023075697557 -1.028592753412732
7.5638671875 0.330381856403969 -1.0276438864341024
7.565015625 0.33194744504822166 -1.0241329584047751
7.5661640625 0.33091559809667676 -1.022013659632697
7.5673125 0.33439522717870795 -1.0206851274321083
7.5684609375 0.33565653228477466 -1.0210613028352766
7.569609375 0.33794672312427076 -1.0187401520414405
7.5707578125 0.34047922300572797 -1.018614900386471
7.57190625 0.34436475841713515 -1.0159345848726677
7.5730546875 0.34782156655992663 -1.0157058847561304
7.574203125 0.3505593130589816 -1.012417195779516
7.5753515625 0.3500226681720833 -1.0106862345997882
7.5765 0.3541431181119639 -1.0150767222716504
7.5776484375 0.3582108147002875 -1.01347620799862
7.578796875 0.3591256358249069 -1.009943229500229
7.5799453125 0.3598002982135595 -1.0090063663013016
7.58109375 0.3619430559420831 -1.0095825985207454
7.5822421875 0.36414767208907683 -1.0102195618735736
7.583390625 0.36768973635702684 -1.009135557892263
7.5845390625 0.37000743290555094 -1.0074203292197794
7.5856875 0.3730770561798393 -1.0060530168617496
7.5868359375 0.37502228799254944 -1.0039514269313576
7.587984375 0.37545290952626986 -1.0011370872541985
7.5891328125 0.37878541725019005 -1.0016217232560032
7.59028125 0.38217921517758596 -1.0003812352078376
7.5914296875 0.3825963300029145 -1.0007302887235014
7.592578125 0.38300867807210937 -1.0003513290662869
7.5937265625 0.38141799757049477 -0.9998941668133899
7.594875 0.38436776776848386 -1.0000122274533185
7.5960234375 0.3867603455013248 -0.9996020274505516
7.597171875 0.3909356978547316 -0.9991036576624152
7.5983203125 0.39231482620016944 -0.998038326676068
7.59946875 0.3939303297164857 -0.9957687843082073
7.6006171875 0.3956905051028945 -0.9960667226291618
7.601765625 0.39806808324599896 -0.9945653803934911
7.6029140625 0.4007160315291054 -0.9930096425703195
7.6040625 0.40384221800274517 -0.9914431905878998
7.6052109375 0.40502375812441166 -0.9915379021919882
7.606359375 0.408228228701061 -0.9920920628954626
7.6075078125 0.4087692030216432 -0.9905231246544837
7.60865625 0.4128788090670845 -0.9934209371787184
7.6098046875 0.41403454218103286 -0.992460800299401
7.610953125 0.415595172207049 -0.9901609119034493
7.6121015625 0.41700725348651346 -0.9892276872600415
7.61325 0.4158273142053445 -0.9885190968260227
7.6143984375 0.42128188966936836 -0.9876695180335702
7.615546875 0.4250794276482749 -0.9873418490015173
7.6166953125 0.4240173046729889 -0.9855094886089659
7.61784375 0.4271624851523871 -0.9832746079823035
7.6189921875 0.4255924367441031 -0.9822042041664905
7.620140625 0.4302514291709426 -0.9816250888320751
7.6212890625 0.4324240555609872 -0.9824819753042641
7.6224375 0.4352582811997042 -0.9793501631317241
7.6235859375 0.4366597164219852 -0.979447213024695
7.624734375 0.4375791116195443 -0.9776576023335259
7.6258828125 0.4417708773514799 -0.9763938310607605
7.62703125 0.4419430972353548 -0.9731029541473687
7.6281796875 0.4428800073358004 -0.9723985417409409
7.629328125 0.4468952627205817 -0.9753526472437247
7.6304765625 0.44471265274363214 -0.9748966771855808
7.631625 0.4489094189804983 -0.9739009387849746
7.6327734375 0.4556462578024674 -0.9754744503389917
7.633921875 0.4556118197709901 -0.9752661835981629
7.6350703125 0.4588651546350656 -0.9708134393799942
7.63621875 0.4585417493219251 -0.9726806170180037
7.6373671875 0.46144719797112055 -0.9718177200798815
7.638515625 0.46372509111885024 -0.971811262076879
7.6396640625 0.46877954149927137 -0.9695440964617449
7.6408125 0.4694690645023639 -0.9692362888107828
7.6419609375 0.47145905112666786 -0.9672349979162852
7.643109375 0.4710736358493806 -0.9687259278314033
7.6442578125 0.47516604902504955 -0.9666479924738887
7.64540625 0.47735652722966326 -0.9642497395249819
7.6465546875 0.480300989043014 -0.965452273853684
7.647703125 0.48066202722687557 -0.9634757002096838
7.6488515625 0.4800810449375459 -0.9616306499342934
7.65 0.4857917044753348 -0.9614872055448928
7.6511484375 0.4882034952101012 -0.9609045950633208
7.652296875 0.48737195839016895 -0.9598963965858873
7.6534453125 0.4884469066634177 -0.965372413263947
7.65459375 0.4883621224991387 -0.9627908736446895
7.6557421875 0.48940109336855003 -0.9634728162402455
7.656890625 0.492539656882224 -0.9626803667131328
7.6580390625 0.49655980165779245 -0.9587340757866399
7.6591875 0.49844029564059517 -0.9596453051558123
7.6603359375 0.496937579099359 -0.9570787743444729
7.661484375 0.49803833511711093 -0.9535057848798346
7.6626328125 0.5007299429783207 -0.9523816425747678
7.66378125 0.5023969094669244 -0.9492338226155206
7.6649296875 0.5051307119813568 -0.9479636502287997
7.666078125 0.5035016966377821 -0.9499888914031419
7.6672265625 0.5026876788106964 -0.9491781489151313
7.668375 0.506806743981649 -0.948134483395035
7.6695234375 0.5085948201370857 -0.9457022550262134
7.670671875 0.5123656465703782 -0.9437018194939107
7.6718203125 0.510823625859008 -0.9450044951932774
7.67296875 0.5121731709316796 -0.9437072010515939
7.6741171875 0.5170411808414472 -0.9439303368689798
7.675265625 0.5181397451089863 -0.9423130961256218
7.6764140625 0.5190606650991032 -0.9400737556384018
7.6775625 0.519876577151402 -0.9395482375960459
7.6787109375 0.5192657608849334 -0.9370009649836533
7.679859375 0.5219461113319462 -0.9373745547125476
7.6810078125 0.525994585145279 -0.9367448719498819
7.68215625 0.5282633975152419 -0.9340780448123659
7.6833046875 0.5305935340477993 -0.9320987827103677
7.684453125 0.5269509122140642 -0.9313914561347941
7.6856015625 0.5322019142117327 -0.9313718964832441
7.68675 0.5340150689335509 -0.9283563625343685
7.6878984375 0.537657324946997 -0.9292552407754626
7.689046875 0.5387812189979486 -0.9263897158862553
7.6901953125 0.5373135271011239 -0.9236459167815185
7.69134375 0.5388390457036156 -0.9226306192482976
7.6924921875 0.5414094020291838 -0.9189477890405925
7.693640625 0.5440397875247002 -0.9182771982866383
7.6947890625 0.5464033564252965 -0.9165581747391999
7.6959375 0.5455018403040319 -0.9174861651194691
7.6970859375 0.5481267119037445 -0.9141933375642908
7.698234375 0.5483449629173052 -0.913844321754023
7.6993828125 0.5500390265193813 -0.9114560143713886
7.70053125 0.5531185752979277 -0.9075209026861835
7.7016796875 0.5518569122906014 -0.9101271465706084
7.702828125 0.5555802876022329 -0.9139744031848328
7.7039765625 0.5629916332814338 -0.9102094709882053
7.705125 0.5623389794433854 -0.9101692820215848
7.7062734375 0.5643427082513508 -0.9079202131624804
7.707421875 0.5685482321385021 -0.9055150374820753
7.7085703125 0.5671669513388555 -0.9046780166234021
7.70971875 0.5712618535969896 -0.9012351914735744
7.7108671875 0.5729832035717759 -0.8975261566501649
7.712015625 0.5743668078805388 -0.8974802898660936
7.7131640625 0.5770211262839773 -0.8963935846356582
7.7143125 0.5756100472165151 -0.8986691877854213
7.7154609375 0.5785602510281542 -0.896593545081093
7.716609375 0.5793761171680822 -0.8953799074573358
7.7177578125 0.5836384593613674 -0.8947491189926642
7.71890625 0.5885465262044143 -0.894497380698643
7.7200546875 0.586821043709927 -0.8897600445229326
7.721203125 0.5869005584507792 -0.8880047596439489
7.7223515625 0.5910860831377025 -0.8854006494686093
7.7235 0.593456334790007 -0.8837662380428611
7.7246484375 0.5962083525951962 -0.8842444622507553
7.725796875 0.5971730749800966 -0.8822900143968794
7.7269453125 0.6003707602906097 -0.8783290779843838
7.72809375 0.6012773964170808 -0.8779035334244638
7.7292421875 0.6032471680982663 -0.8759229355360023
7.730390625 0.607215157290235 -0.875673276378288
7.7315390625 0.6098564434293972 -0.871131904430938
7.7326875 0.6134804036957009 -0.8678729168459473
7.7338359375 0.6153620687341955 -0.8681528461724599
7.734984375 0.6161611064501622 -0.8667581751824477
7.7361328125 0.6181798672986233 -0.8667915020562321
7.73728125 0.6206959339105067 -0.865076559407017
7.7384296875 0.6225428154629763 -0.8625721597110549
7.739578125 0.6246542010005642 -0.8609800034359276
7.7407265625 0.6262038595815033 -0.8578917049655299
7.741875 0.6316055640046312 -0.8563714321005398
7.7430234375 0.6328654030969225 -0.8554359770311427
7.744171875 0.6331084724989557 -0.8538828814399948
7.7453203125 0.6363997373016681 -0.8530637269977045
7.74646875 0.6392896572953194 -0.8524574044848423
7.7476171875 0.6399102572052742 -0.8509931997890777
7.748765625 0.6457528825260677 -0.8509004512667139
7.7499140625 0.6450018641217876 -0.8525357206063956
7.7510625 0.6502571911908894 -0.8489452021887601
7.7522109375 0.6540518469107315 -0.845926937145072
7.753359375 0.6591767263094801 -0.8443417268169494
7.7545078125 0.6632548700174379 -0.845877307014023
7.75565625 0.6620007828390582 -0.8401574805362211
7.7568046875 0.6645123611475714 -0.8403805022870322
7.757953125 0.6698528989967698 -0.839546313261722
7.7591015625 0.6752837540317462 -0.8392536066102054
7.76025 0.678251021632407 -0.8399388437305557
7.7613984375 0.6802011471603575 -0.8407082134514512
7.762546875 0.6821599502163314 -0.842862032830152
7.7636953125 0.6843816150320308 -0.8418625165723528
7.76484375 0.6874106410102592 -0.8462847115525192
7.7659921875 0.6886157844273929 -0.845110575979179
7.767140625 0.6929343116634783 -0.8426331790168922
7.7682890625 0.6926962110937295 -0.8484457493670798
7.7694375 0.6923598862576422 -0.8473557315971235
7.7705859375 0.6928768713371927 -0.8498639734515057
7.771734375 0.6938420209913649 -0.849145764568537
7.7728828125 0.6951968511998227 -0.8477600361631534
7.77403125 0.6969305464337712 -0.8432258250936489
7.7751796875 0.6986653461150807 -0.8450220452685521
7.776328125 0.6951318514720615 -0.8473279749536143
7.7774765625 0.6995102680190954 -0.8488569109648287
7.778625 0.6988920219578976 -0.8485119146736904
7.7797734375 0.694829985089257 -0.8473470655397107
7.780921875 0.698848631642194 -0.8449119883845064
7.7820703125 0.7014317405087704 -0.8430519090412235
7.78321875 0.7001095711630593 -0.8429707044577263
7.7843671875 0.7011147175579179 -0.8425040761681117
7.785515625 0.6988659365993392 -0.8425613725358727
7.7866640625 0.7002604436459618 -0.8410118870199061
7.7878125 0.7011838798199748 -0.8379218039051568
7.7889609375 0.7028143927325741 -0.8329872104305882
7.790109375 0.7031708622005848 -0.8317972479381123
7.7912578125 0.7032123743273276 -0.8309519317579366
7.79240625 0.7039654244189907 -0.8327383684479591
7.7935546875 0.70778341852006 -0.8296012558419217
7.794703125 0.707756183534936 -0.829886466621421
7.7958515625 0.7119200229040221 -0.8279133477920778
7.797 0.7102791320446606 -0.8201286792855247
7.7981484375 0.7136362135457934 -0.8222994603358644
7.799296875 0.7105862963325287 -0.8215951267549757
7.8004453125 0.7133481827633276 -0.8190976834847719
7.80159375 0.7155796640314693 -0.8198765117034597
7.8027421875 0.7190073138260283 -0.8184084336596491
7.803890625 0.7153719485312491 -0.8176013260093689
7.8050390625 0.7201322935261792 -0.8140098448746393
7.8061875 0.723979517635762 -0.8115458145890702
7.8073359375 0.7254847914897957 -0.8107176673980052
7.808484375 0.7292740050595905 -0.8081300225507089
7.8096328125 0.7264106033812472 -0.8079752148706905
7.81078125 0.7296909831539302 -0.8061023639338478
7.8119296875 0.7292629279023474 -0.8062803363590466
7.813078125 0.7291705984444835 -0.8043946573161945
7.8142265625 0.7329005687595161 -0.8034932459212644
7.815375 0.7301079327920424 -0.8002244124927609
7.8165234375 0.7326377927853446 -0.7985971359062906
7.817671875 0.7363927398413912 -0.7963151450722352
7.8188203125 0.7366705174841308 -0.7917102428439967
7.81996875 0.7373675374719831 -0.7925741281819263
7.8211171875 0.7371888413269602 -0.7914286568063447
7.822265625 0.7384029233735352 -0.7903981092412086
7.8234140625 0.7394903343965833 -0.787803455855172
7.8245625 0.7407246093299583 -0.7860607889113665
7.8257109375 0.7425729751310901 -0.7822440325838326
7.826859375 0.7378011290057171 -0.7801990614926996
7.8280078125 0.7408513967643725 -0.7812315664745872
7.82915625 0.7453132894210722 -0.777817785339842
7.8303046875 0.7440853939528296 -0.774182848249027
7.831453125 0.745897977089308 -0.7701409392069838
7.8326015625 0.74656876628548 -0.7701625409291312
7.83375 0.7472585637601171 -0.7677873593098784
7.8348984375 0.7527040579033555 -0.7638442791657266
7.836046875 0.7551268483303475 -0.7589010703111766
7.8371953125 0.7561904838759052 -0.758342998821781
7.83834375 0.7590985530408709 -0.7608002016369155
7.8394921875 0.7550975007853281 -0.757232975348111
7.840640625 0.760432424732547 -0.7525399943115535
7.8417890625 0.7627640633579781 -0.7525810279272245
7.8429375 0.7650913813472687 -0.7518990159862347
7.8440859375 0.7654576760763028 -0.7478130905034562
7.845234375 0.7627702381438778 -0.7497788191771504
7.8463828125 0.7714675977834675 -0.7440331648288434
7.84753125 0.7744094632409708 -0.7426406999775623
7.8486796875 0.7773342669923666 -0.7434294794522924
7.849828125 0.781364443957695 -0.739742413558163
7.8509765625 0.7795962850971417 -0.7376082383806946
7.852125 0.780965891908562 -0.7365589357232856
7.8532734375 0.7842093157120968 -0.7328768503129773
7.854421875 0.7851748671186172 -0.728317993925538
7.8555703125 0.7887990137460154 -0.7278599568555434
7.85671875 0.7886169502075271 -0.7260892285957742
7.8578671875 0.7948286984515318 -0.7301498415192569
7.859015625 0.8007925128187852 -0.7276145543665209
7.8601640625 0.8011568983007772 -0.7259430114735443
7.8613125 0.8049486262176044 -0.7240019601698262
7.8624609375 0.8048660945255286 -0.7224574049391354
7.863609375 0.8096893908195466 -0.7204304934217279
7.8647578125 0.8113433992140872 -0.7194912193300373
7.86590625 0.8151171007937075 -0.7168747913322671
7.8670546875 0.8168676427916364 -0.7142088924229215
7.868203125 0.8178784257348038 -0.7108564093047081
7.8693515625 0.8163897975775521 -0.7124145368544195
7.8705 0.821203215100379 -0.7091131194285305
7.8716484375 0.8222022911782282 -0.7118324137368277
7.872796875 0.8230994286100909 -0.7125434582623238
7.8739453125 0.8268894516199432 -0.7074383690827257
7.87509375 0.8255576004503336 -0.7078056799557304
7.8762421875 0.8274905875594885 -0.7038100726957256
7.877390625 0.830004260560714 -0.7055231780826261
7.8785390625 0.8318026628695688 -0.7009990360375096
7.8796875 0.8319992609030323 -0.7014701525294125
7.8808359375 0.8314665616839529 -0.7021589318374272
7.881984375 0.8344141091918919 -0.7024890328420594
7.8831328125 0.8341818624739539 -0.7007040279564315
7.88428125 0.8358636380177937 -0.6994651712069087
7.8854296875 0.8370925009568503 -0.6980782685717233
7.886578125 0.8397016953337275 -0.6960071624863986
7.8877265625 0.8382485785032707 -0.6931157190745255
7.888875 0.8434649964047548 -0.6916129878316615
7.8900234375 0.8463184418279914 -0.6895133959117333
7.891171875 0.8493362589867336 -0.6895267601327411
7.8923203125 0.8483186741981164 -0.6875414027482996
7.89346875 0.8497605627428634 -0.687419697166549
7.8946171875 0.8552422671582819 -0.684720772946355
7.895765625 0.8586175113011827 -0.6816033685233646
7.8969140625 0.8582071032624015 -0.6783788184937086
7.8980625 0.8594584840996249 -0.6802950480996066
7.8992109375 0.8579420753111296 -0.6772675609120097
7.900359375 0.8626280636695629 -0.6736386263363914
7.9015078125 0.8659285956343696 -0.6743579117743876
7.90265625 0.8643853767766628 -0.6773681657909625
7.9038046875 0.870275949209311 -0.6729589500347716
7.904953125 0.8682163546856572 -0.6755666808401493
7.9061015625 0.869810313789243 -0.672932726520558
7.90725 0.8741512144729703 -0.6690338899459047
7.9083984375 0.8759996613523439 -0.6667301728311444
7.909546875 0.8783120587301436 -0.6616189390409662
7.9106953125 0.8763762404781559 -0.6653804703579638
7.91184375 0.8814109626035868 -0.6638854101035149
7.9129921875 0.8818375735649361 -0.6605215339965652
7.914140625 0.8881440946999386 -0.6622363326561114
7.9152890625 0.8884783894332244 -0.6626027393972246
7.9164375 0.8827419348421204 -0.6651289154760596
7.9175859375 0.8923480184965561 -0.6603320300361177
7.918734375 0.8936094804501898 -0.6581304953500302
7.9198828125 0.8925950406552924 -0.6562843723850049
7.92103125 0.8904849249993386 -0.6545111015803529
7.9221796875 0.894580467962456 -0.6590594904618481
7.923328125 0.9007478448637792 -0.6527173465615764
7.9244765625 0.9017092208934775 -0.6515477881754791
7.925625 0.9004152237990666 -0.6533517432836959
7.9267734375 0.9056170787280438 -0.653160569648331
7.927921875 0.9046430601039339 -0.6534478523841318
7.9290703125 0.9081839241374137 -0.6561261607203777
7.93021875 0.9080539537089616 -0.6567616970670385
7.9313671875 0.9076776112405179 -0.6584613079156227
7.932515625 0.9074438761466963 -0.6577990089183198
7.9336640625 0.9039334704907587 -0.6599936887376091
7.9348125 0.9016691893751261 -0.6615519377661018
7.9359609375 0.9080345678628569 -0.6583739641899161
7.937109375 0.9074949905704921 -0.6605978102017621
7.9382578125 0.9056344951246751 -0.6570295070114531
7.93940625 0.9062576416174322 -0.6552276079529676
7.9405546875 0.9042342261636895 -0.6577136295900525
7.941703125 0.9050038646073867 -0.6553578100094063
7.9428515625 0.9050088686451616 -0.6535824201024328
7.944 0.9048625098185678 -0.6504282623137229
7.9451484375 0.9064960654223899 -0.6470348962811009
7.946296875 0.9010839141830731 -0.6471821644648854
7.9474453125 0.9066417325004283 -0.6468343324898587
7.94859375 0.9054831852325667 -0.6440102017264355
7.9497421875 0.9070526186760473 -0.6394747340838468
7.950890625 0.9046036186501386 -0.6387822097406439
7.9520390625 0.9017048286416931 -0.639828400033831
7.9531875 0.9041957927116947 -0.6355125353602297
7.9543359375 0.902769724043287 -0.6354694493192584
7.955484375 0.9008473119505958 -0.6314423295620982
7.9566328125 0.9005709864094277 -0.6295367240459736
7.95778125 0.9014491464288328 -0.6304147508212034
7.9589296875 0.8999171919815577 -0.6254342299174251
7.960078125 0.9031476054986857 -0.6189746835695379
7.9612265625 0.902277976166195 -0.6160509209295557
7.962375 0.9000378853355643 -0.6158527428206051
7.9635234375 0.8996338652910902 -0.611790982182725
7.964671875 0.903633698466343 -0.6118905246362684
7.9658203125 0.9014069292410531 -0.6069751329941895
7.96696875 0.9068519104650499 -0.6057308864466212
7.9681171875 0.9075754166821862 -0.6024720968336633
7.969265625 0.903836369341722 -0.5994528163090814
7.9704140625 0.9066683389511927 -0.5988977452852028
7.9715625 0.906325146201283 -0.5951135187989968
7.9727109375 0.9120409275315233 -0.5918966934357393
7.973859375 0.9105496910661643 -0.5890671256669701
7.9750078125 0.9073166249765958 -0.5869994958988498
7.97615625 0.9104932210496612 -0.5898794505136603
7.9773046875 0.9123265255994686 -0.5864624600014926
7.978453125 0.919286485207911 -0.5841871608437645
7.9796015625 0.920936717319925 -0.5814837928307132
7.98075 0.9199678446983128 -0.5829397191189195
7.9818984375 0.9178292919849731 -0.5798027904031602
7.983046875 0.9180328042953021 -0.5753741451808816
7.9841953125 0.9263771332671811 -0.5695577212583558
7.98534375 0.9270509813864678 -0.5665145901125759
7.9864921875 0.9306372206240304 -0.5639664578834693
7.987640625 0.9307946142228677 -0.5654293694444371
7.9887890625 0.9335240994100753 -0.5618710534900104
7.9899375 0.9306327239676239 -0.5593512310241217
7.9910859375 0.9346065610439831 -0.5584555837875677
7.992234375 0.9308340356489944 -0.5608952868693037
7.9933828125 0.9316483633233557 -0.5590392642383383
7.99453125 0.9347861714171782 -0.5543431651695696
7.9956796875 0.9340929813073487 -0.5490596201993334
7.996828125 0.9341924406672288 -0.5487268006463064
7.9979765625 0.9387641389906285 -0.5442128024926722
7.999125 0.9384835194736236 -0.5449634981652138
8.0002734375 0.9369951588779946 -0.5435649404106944
8.001421875 0.938562308687385 -0.5424994275993344
8.0025703125 0.9467230354197537 -0.5377531267271406
8.00371875 0.9437527171639344 -0.5387618134924147
8.0048671875 0.9424440373881044 -0.5361175013601839
8.006015625 0.9444090215947406 -0.5337987113908849
8.0071640625 0.9432165318955105 -0.5281662935960072
8.0083125 0.9441798227145334 -0.528688578685713
8.0094609375 0.9472905310274911 -0.5254948480623451
8.010609375 0.9520320707224346 -0.521081070344938
8.0117578125 0.9508625938238202 -0.5242836049607442
8.01290625 0.95186594880552 -0.5193311152706614
8.0140546875 0.9520751134770173 -0.520156035931118
8.015203125 0.9515800278943397 -0.5174499603131817
8.0163515625 0.9548345920275715 -0.5174737628183993
8.0175 0.9540603384945872 -0.5125752438934115
8.0186484375 0.9574618864943633 -0.5095838743415586
8.019796875 0.961806229174349 -0.5093240107078486
8.0209453125 0.9576147871173946 -0.5034068555041512
8.02209375 0.9586974306731805 -0.501628921717097
8.0232421875 0.9599036556167475 -0.4994761822789722
8.024390625 0.9593975541643813 -0.49433217698766363
8.0255390625 0.9620502780264121 -0.4940245762764015
8.0266875 0.9661669926615715 -0.49096782630528585
8.0278359375 0.9670334185734688 -0.48921427639419707
8.028984375 0.9668730311645656 -0.4870749905573239
8.0301328125 0.9681129630234193 -0.4897152335537116
8.03128125 0.970530646305487 -0.48314478234482366
8.0324296875 0.966368262412604 -0.4777454545297639
8.033578125 0.9711437532908034 -0.47724736290767444
8.0347265625 0.9729084177732664 -0.4741552233050675
8.035875 0.974853779182216 -0.4737937899781052
8.0370234375 0.9751052646692209 -0.4708418939604457
8.038171875 0.9762500001367794 -0.46461663112034757
8.0393203125 0.9736809412703797 -0.4591375865010299
8.04046875 0.9759740621905918 -0.462492654074324
8.0416171875 0.9781285865187228 -0.4624651818807625
8.042765625 0.9831747166157994 -0.45716133003181597
8.0439140625 0.9821258269404083 -0.460875679537624
8.0450625 0.9848129046194442 -0.45918619381028036
8.0462109375 0.9858634648488724 -0.4566882968921746
8.047359375 0.9827807717168815 -0.4538940922677622
8.0485078125 0.986321255340251 -0.452452790596477
8.04965625 0.9822550957479024 -0.4474031813612494
8.0508046875 0.9863375939156979 -0.4496038808035718
8.051953125 0.9832230556989265 -0.44304112068335944
8.0531015625 0.9845893522933269 -0.4439707869574375
8.05425 0.9827087695667497 -0.43880924940208266
8.0553984375 0.9849112759532985 -0.4335562521384615
8.056546875 0.9852949126910144 -0.4339700058135144
8.0576953125 0.9856593835784433 -0.4312421424746069
8.05884375 0.9859987156600065 -0.43325591848265066
8.0599921875 0.9894431821760115 -0.4275575960419754
8.061140625 0.9908027178241483 -0.42560218394548605
8.0622890625 0.9896425845560324 -0.42232580910677736
8.0634375 0.9931548841853528 -0.4216691412972017
8.0645859375 0.9946183839779275 -0.41944604764858906
8.065734375 0.9960126536267385 -0.4197732031613503
8.0668828125 0.9983759223987023 -0.4138892902796362
8.06803125 0.9979822039009296 -0.41447653358416087
8.0691796875 0.9995496402878062 -0.41479322636330285
8.070328125 1.0011333552035755 -0.4118877688278342
8.0714765625 0.9984074654632051 -0.41428918556819294
8.072625 1.0000282852855573 -0.41009516230372034
8.0737734375 1.0014751736628278 -0.4069539152192555
8.074921875 1.0009176616770143 -0.40560763862066695
8.0760703125 1.0021400105364915 -0.406378230291511
8.07721875 1.0003884259255935 -0.40664020064406825
8.0783671875 1.004117105757403 -0.4028210807309916
8.079515625 1.0024906043479422 -0.4016404919114477
8.0806640625 1.0062591906112899 -0.39989854836708993
8.0818125 1.0034770966515814 -0.3961246503397098
8.0829609375 1.0046412062101446 -0.39865223769359204
8.084109375 1.0054540883904013 -0.398116299313768
8.0852578125 1.0073648003458286 -0.3950105059254879
8.08640625 1.009575535923866 -0.39318806702556724
8.0875546875 1.00988192717691 -0.3898870809460928
8.088703125 1.0098683777821478 -0.38708654422565
8.0898515625 1.0120003328037204 -0.38450179558230096
8.091 1.013987443735159 -0.3820440302577125
8.0921484375 1.0126934000162144 -0.3768375869652235
8.093296875 1.014697456723761 -0.3724449938867185
8.0944453125 1.0144001913971894 -0.3747028715657971
8.09559375 1.0141500677733601 -0.3666891782882383
8.0967421875 1.0185191362023074 -0.3679309334603467
8.097890625 1.022632309322462 -0.36504212070675063
8.0990390625 1.0259623156594 -0.3634603916474852
8.1001875 1.0233081266323647 -0.3595517633403107
8.1013359375 1.021060090545783 -0.35605818139757694
8.102484375 1.025098949641282 -0.3559308116145494
8.1036328125 1.0243829444189076 -0.35358888015416257
8.10478125 1.0249002531904834 -0.3530251550592103
8.1059296875 1.0245503514032706 -0.3487150951101913
8.107078125 1.0246139795340898 -0.350617579369519
8.1082265625 1.0268542183497205 -0.34410290719693615
8.109375 1.028423238324177 -0.33628721136666
8.1105234375 1.0220431457139711 -0.3359740186925729
8.111671875 1.0277975206059575 -0.33294295833637866
8.1128203125 1.0273735732298355 -0.33415465601275995
8.11396875 1.0344619271810833 -0.32801957511321106
8.1151171875 1.037502626484424 -0.32715749307019465
8.116265625 1.0404329544165893 -0.3241339221775166
8.1174140625 1.0414069148226317 -0.32248280278621877
8.1185625 1.0381345799547645 -0.31903972348430054
8.1197109375 1.0389601114461215 -0.31347494677259785
8.120859375 1.0451360649373878 -0.3179478926650529
8.1220078125 1.0436654980337199 -0.3029769133006849
8.12315625 1.043863975023975 -0.3024977402945396
8.1243046875 1.043853351232258 -0.3108593029974213
8.125453125 1.045982445653906 -0.3045145277421769
8.1266015625 1.0501622258126546 -0.30247730338666445
8.12775 1.047194256279591 -0.30282149283747445
8.1288984375 1.0508286527494604 -0.3020362530841617
8.130046875 1.051457689522338 -0.29610129284498854
8.1311953125 1.055475788499268 -0.29436832201484747
8.13234375 1.0585210021616795 -0.2942189365330432
8.1334921875 1.0611637228737156 -0.2926677007386259
8.134640625 1.0586786717153567 -0.2941642756085601
8.1357890625 1.059559733087164 -0.2999405004092056
8.1369375 1.0623072577728663 -0.2977729289423216
8.1380859375 1.0664768742072923 -0.2923956056165389
8.139234375 1.0654958495068485 -0.29328138780428825
8.1403828125 1.0643427579585318 -0.29253669317407066
8.14153125 1.0640343969505799 -0.29223920882816656
8.1426796875 1.0675171119343738 -0.29285733549310433
8.143828125 1.0670505832486743 -0.29198058564161
8.1449765625 1.0655435356290517 -0.29321888618272496
8.146125 1.0686907649225303 -0.2913854819919076
8.1472734375 1.0698912366999678 -0.2880468969484304
8.148421875 1.068120165675952 -0.291421085902811
8.1495703125 1.0704889451826185 -0.2880994158285666
8.15071875 1.06693750090813 -0.28880915760229436
8.1518671875 1.0671161205265673 -0.28317492457382576
8.153015625 1.0638242974260892 -0.28091310423338256
8.1541640625 1.0624006631893752 -0.28445825995304164
8.1553125 1.0595226015823114 -0.28173268090399195
8.1564609375 1.0650053755269147 -0.27998838024190176
8.157609375 1.0641007767043547 -0.2778651522745962
8.1587578125 1.0629448017315521 -0.2724750725797582
8.15990625 1.059136385377757 -0.2747774299091617
8.1610546875 1.0590293684898584 -0.27184773460289
8.162203125 1.057759326179909 -0.26641302222790364
8.1633515625 1.062010052330018 -0.26539501436618596
8.1645 1.0585213186482054 -0.26265881263494467
8.1656484375 1.055455762681177 -0.2619093187323771
8.166796875 1.055469458629576 -0.2619828668400088
8.1679453125 1.0575441773687009 -0.2578224402607151
8.16909375 1.060077842508658 -0.2593945486036996
8.1702421875 1.0580909165841537 -0.25266396628101245
8.171390625 1.0601736015339047 -0.2525176042305215
8.1725390625 1.055300306170289 -0.25162612566295345
8.1736875 1.0592925278832002 -0.24548667097511295
8.1748359375 1.055550554432339 -0.24115940558216664
8.175984375 1.0598681950831543 -0.24080193994601617
8.1771328125 1.0594351075638837 -0.2406324740135446
8.17828125 1.0598720445565908 -0.23608096473966367
8.1794296875 1.061448513615403 -0.23447638429178508
8.180578125 1.0580052795350379 -0.23231917188708828
8.1817265625 1.0609536087319407 -0.22945341629312888
8.182875 1.0602265914314648 -0.2268773034851112
8.1840234375 1.0537212345701226 -0.22900585011516028
8.185171875 1.0670893140879736 -0.22495917896380258
8.1863203125 1.0674708676250746 -0.21902375591537093
8.18746875 1.0618772223562138 -0.21415417458027286
8.1886171875 1.0614363143555048 -0.211484971800043
8.189765625 1.061498634191958 -0.21160938803024298
8.1909140625 1.0621802812102235 -0.20623805750027513
8.1920625 1.065446883837408 -0.20750809019882294
8.1932109375 1.0628694275995882 -0.20389216874655036
8.194359375 1.0624476385357922 -0.2027038485019994
8.1955078125 1.062610572796322 -0.2022492322968958
8.19665625 1.0635907618427616 -0.19869965398164802
8.1978046875 1.0683825539621536 -0.19246493695215883
8.198953125 1.0671259884268267 -0.1889405774178699
8.2001015625 1.0655713231153734 -0.18638543102655242
8.20125 1.0678618765946997 -0.1883522653669143
8.2023984375 1.0651108735254833 -0.18354628878517132
8.203546875 1.065753262868754 -0.1810367643321893
8.2046953125 1.065788330967255 -0.17849586712252535
8.20584375 1.0646497713108172 -0.17518683704386262
8.2069921875 1.0653407199584715 -0.17010126561167693
8.208140625 1.0641211333655174 -0.1718140760678965
8.2092890625 1.0639956134248219 -0.1677411632898257
8.2104375 1.066852466375194 -0.16816006431625485
8.2115859375 1.067083895561147 -0.1615444917689554
8.212734375 1.070334789396531 -0.16045907488936806
8.2138828125 1.0669259714965855 -0.16007129294239858
8.21503125 1.0692778715721176 -0.16081878575821668
8.2161796875 1.0698601300465507 -0.15385164493158843
8.217328125 1.0686493642664447 -0.14541628169076853
8.2184765625 1.06482712650532 -0.15011174205557803
8.219625 1.0655281773256675 -0.15247249924313244
8.2207734375 1.0706045695524253 -0.14539814411977414
8.221921875 1.0681298506351755 -0.14462753231014513
8.2230703125 1.0689229837552925 -0.14445365354150475
8.22421875 1.0665896445633574 -0.14180760762783423
8.2253671875 1.0649188356192132 -0.14321121959773442
8.226515625 1.0680693081941492 -0.13708784221279335
8.2276640625 1.0678184034059184 -0.13551855868178714
8.2288125 1.0671005807638236 -0.1307395043381468
8.2299609375 1.067216461490378 -0.13072878388570985
8.231109375 1.0649229217194494 -0.1326899529896346
8.2322578125 1.0638056592432017 -0.12921210517301124
8.23340625 1.0667148166917977 -0.1218545155437788
8.2345546875 1.0716442704899862 -0.11911914311507685
8.235703125 1.0710672840096644 -0.1181978289000925
8.2368515625 1.0708577123115335 -0.1187358305427772
8.238 1.0658173327038691 -0.11751410095836828
8.2391484375 1.0675751117474312 -0.11330970682778543
8.240296875 1.072610598208608 -0.1139970713113147
8.2414453125 1.0711110433800741 -0.11035680192187633
8.24259375 1.0703293380807528 -0.10717224519664975
8.2437421875 1.073122114192902 -0.10337528591567671
8.244890625 1.0705872676826769 -0.10141796842329212
8.2460390625 1.0746258503353059 -0.09875122444395007
8.2471875 1.0734374179087791 -0.0949487920496869
8.2483359375 1.0741120010233103 -0.09552801913595924
8.249484375 1.069583251845878 -0.09649489433786054
8.2506328125 1.0739827758441165 -0.08747538048154985
8.25178125 1.0761419445587808 -0.08121701549699822
8.2529296875 1.0789651928627528 -0.08672751064990736
8.254078125 1.0791138117146928 -0.08317108014254243
8.2552265625 1.0780503368442698 -0.08474657087203624
8.256375 1.0814277741678562 -0.08037055683582756
8.2575234375 1.0812447415784479 -0.0745610134374293
8.258671875 1.0783272001414952 -0.07094497346866394
8.2598203125 1.0776313662367576 -0.07193903468098048
8.26096875 1.0745235510241122 -0.07478071614844746
8.2621171875 1.077642796086209 -0.06691041599448644
8.263265625 1.073944605419571 -0.06946735845724054
8.2644140625 1.077416688082569 -0.06250059000385397
8.2655625 1.0801126492003654 -0.059013948168747776
8.2667109375 1.0795810516258428 -0.06333071266686302
8.267859375 1.0779168461724757 -0.0562837535927328
8.2690078125 1.0793867006449633 -0.05080441504508454
8.27015625 1.0797482287234623 -0.04324919828811072
8.2713046875 1.0793881123472824 -0.04193099409156963
8.272453125 1.079460303717894 -0.04281727603560219
8.2736015625 1.0808687608997822 -0.04044855124727309
8.27475 1.0808225049140243 -0.03782531250517138
8.2758984375 1.0808025276722508 -0.03322438463144123
8.277046875 1.081560661791089 -0.03172562546036167
8.2781953125 1.0817560505711659 -0.03402370388873821
8.27934375 1.079479685807058 -0.028382267796579208
8.2804921875 1.081492306333246 -0.02242258704954686
8.281640625 1.0822764406074934 -0.019014077454460286
8.2827890625 1.079794353666701 -0.016246956120167688
8.2839375 1.0788231590308244 -0.013461006485550236
8.2850859375 1.0803904218454534 -0.012843686684056693
8.286234375 1.0819761345496528 -0.010372375192822636
8.2873828125 1.0802274223436823 -0.008362399047402713
8.28853125 1.079305368540274 -0.006212892470166376
8.2896796875 1.0783960687704932 -0.005975713037261382
8.290828125 1.0779540687458458 -0.007151519934304518
8.2919765625 1.078080091736597 -0.0010243761896422121
8.293125 1.0794535262993339 0.0015416250309219122
8.2942734375 1.0788020278210184 0.0018434497332287664
8.295421875 1.0765177040996907 0.0038384841603109343
8.2965703125 1.0749002791590638 0.0008880592904792484
8.29771875 1.0813961371477496 0.006150505948547436
8.2988671875 1.0785174395487218 0.009387321702031576
8.300015625 1.0784961520881444 0.014009820923272437
8.3011640625 1.075336872588587 0.013956756411921567
8.3023125 1.0774809690985947 0.01423700628294975
8.3034609375 1.0748630558064076 0.01833854267857077
8.304609375 1.0754935325078363 0.023374620025681622
8.3057578125 1.073073807160482 0.026124685201968867
8.30690625 1.072959837183847 0.026341652879609934
8.3080546875 1.0716990307792424 0.02547214560803404
8.309203125 1.0714996277580633 0.02979657792827231
8.3103515625 1.067571012845821 0.0288140102607157
8.3115 1.0714269264399845 0.03655962448566068
8.3126484375 1.0710900246129549 0.036214925736410594
8.313796875 1.0684801500711378 0.033206149411573044
8.3149453125 1.071200803019221 0.03525387243345965
8.31609375 1.0692871172792107 0.039085958474465554
8.3172421875 1.0740955852876755 0.0448150715092705
8.318390625 1.0696667832051223 0.044876508793568776
8.3195390625 1.0707182845625836 0.04530437445185806
8.3206875 1.06811447419761 0.0447135882451551
8.3218359375 1.0670096281162493 0.05359047004795301
8.322984375 1.0691044286861024 0.056834828563410156
8.3241328125 1.0684005897929465 0.057990756831886564
8.32528125 1.0668522793020654 0.05706227395799768
8.3264296875 1.0679844868572135 0.05000983351830299
8.327578125 1.0707142750352707 0.06110076161364056
8.3287265625 1.065993105201032 0.06276065330757194
8.329875 1.070255365810075 0.06617802090132974
8.3310234375 1.0679156460649932 0.06516059426203659
8.332171875 1.0659551355224708 0.068884979003077
8.3333203125 1.0682797489218598 0.07091387792722065
8.33446875 1.0683532754071794 0.07100240677703976
8.3356171875 1.0716062320976678 0.07792525792869537
8.336765625 1.0708226778041863 0.0780390765278165
8.3379140625 1.071222347279956 0.08166447368570193
8.3390625 1.0732485735840287 0.0798654088964815
8.3402109375 1.0709982930022075 0.0822792089707827
8.341359375 1.070129247398322 0.08631814681092123
8.3425078125 1.0687639946472671 0.08851007288731032
8.34365625 1.0701965365493153 0.0918493098349365
8.3448046875 1.072982511090127 0.09340835042350662
8.345953125 1.075296777962265 0.09762891765973694
8.3471015625 1.075098245941048 0.1019695070857127
8.34825 1.0723976975152507 0.10235884868273257
8.3493984375 1.073659752679034 0.10708152412971506
8.350546875 1.070983417776529 0.10811474859046835
8.3516953125 1.0713925398948865 0.11152990565428827
8.35284375 1.0690855553258507 0.1156080845096283
8.3539921875 1.069442331323269 0.1200475653410361
8.355140625 1.0683420753243087 0.12149550291308886
8.3562890625 1.0665928556046538 0.12543669411802139
8.3574375 1.0668387932212338 0.12838343604366317
8.3585859375 1.0691031544217848 0.12935436330136846
8.359734375 1.0742972176280823 0.1308281255760375
8.3608828125 1.071531620015941 0.13262671147636634
8.36203125 1.070743379200119 0.13383689942340626
8.3631796875 1.0692972283184352 0.13593247435448072
8.364328125 1.067744919554158 0.1399030756533965
8.3654765625 1.0692236611901436 0.1412221370101366
8.366625 1.0680816583757413 0.14695732588156854
8.3677734375 1.0679304697787113 0.14665362350178526
8.368921875 1.068523284708459 0.14833941620433913
8.3700703125 1.070175726295747 0.14978723655319942
8.37121875 1.0696022982590385 0.1542881800713859
8.3723671875 1.0690379283340101 0.1590630877801575
8.373515625 1.0670792285985362 0.15997330385534364
8.3746640625 1.0685682228645008 0.16084717747247124
8.3758125 1.0644009175492244 0.16304867263622055
8.3769609375 1.0618565830192563 0.16265487315790053
8.378109375 1.065686941909917 0.16660765053509913
8.3792578125 1.0652235134901589 0.1730265863579335
8.38040625 1.0647966897034573 0.16952183171617463
8.3815546875 1.0631184480269469 0.17689422650609252
8.382703125 1.0618443113839104 0.17625447733813576
8.3838515625 1.0621293673651997 0.17923920237787308
8.385 1.062202621590259 0.18050534529613374
8.3861484375 1.0578339372627543 0.17728392717746788
8.387296875 1.0616574231207372 0.18246877698135328
8.3884453125 1.059788329816658 0.1818353224637822
8.38959375 1.0608041846124368 0.18603127515109297
8.3907421875 1.0623174656687397 0.19009074540038445
8.391890625 1.0585818911104001 0.18676863160984436
8.3930390625 1.0585499316666185 0.19166028403713942
8.3941875 1.0586721392486758 0.19491767897716558
8.3953359375 1.0576853940113884 0.19802891828828412
8.396484375 1.0608204696818815 0.2012755603055669
8.3976328125 1.054847141805538 0.198591391258549
8.39878125 1.0574603673434522 0.20335668103495275
8.3999296875 1.0565122588266325 0.20806652657999586
8.401078125 1.0560309314544987 0.20895587482687017
8.4022265625 1.053301862132325 0.20962334936047236
8.403375 1.0511081428342055 0.2071758333067312
8.4045234375 1.0534668327807974 0.21185587367523184
8.405671875 1.0557831885105873 0.21582083383982592
8.4068203125 1.053208197014113 0.2170762024913716
8.40796875 1.0532739663058188 0.2201083815944404
8.4091171875 1.048265163457717 0.22161830087389733
8.410265625 1.0486077713331072 0.2218057666922002
8.4114140625 1.0499905124305018 0.228177910214261
8.4125625 1.05206759560871 0.22927169120374472
8.4137109375 1.0481312541273735 0.229959256779072
8.414859375 1.0492261635002076 0.23264519852928017
8.4160078125 1.0485968336691704 0.23350433573818852
8.41715625 1.0498951796062967 0.23909950960481036
8.4183046875 1.0472218845224663 0.23979478774658267
8.419453125 1.046975805551218 0.24082800413360952
8.4206015625 1.0467149362335082 0.24164943618653834
8.42175 1.0462379208525718 0.24085764643456178
8.4228984375 1.0455586414712408 0.24788829062612236
8.424046875 1.0426587327670034 0.25261297030157404
8.4251953125 1.0456236228986862 0.25093404443772266
8.42634375 1.0434991397902817 0.25683815104214247
8.4274921875 1.0458745953179953 0.25233532221624455
8.428640625 1.0420771891526948 0.2566807497452044
8.4297890625 1.0392351284140948 0.2602183680941976
8.4309375 1.0427584158577239 0.26379336990250013
8.4320859375 1.041043434221328 0.26894287624831814
8.433234375 1.0415226862026583 0.2685169051536374
8.4343828125 1.0417958276211128 0.27264325468605694
8.43553125 1.0433752724471905 0.27554142726243014
8.4366796875 1.0406027098645665 0.27936439869908997
8.437828125 1.0396858187426177 0.2811518877448129
8.4389765625 1.03775223904942 0.2788951094010081
8.440125 1.034134412256575 0.2823287610713543
8.4412734375 1.0379761414382136 0.2875403585064396
8.442421875 1.0356572909404624 0.28953706389993894
8.4435703125 1.03466876773228 0.2899360282961959
8.44471875 1.0328691670524164 0.2931242366578734
8.4458671875 1.03379541050047 0.2927260545138918
8.447015625 1.032391217312559 0.29983942770356187
8.4481640625 1.033294744123229 0.30206721454007907
8.4493125 1.0304720838229362 0.3040622742714929
8.4504609375 1.0326558871064389 0.3037195739028038
8.451609375 1.0299919317388215 0.30428974455188296
8.4527578125 1.0309836908578318 0.3103045534433393
8.45390625 1.0305531755885 0.3141097369253377
8.4550546875 1.0331646387752949 0.31399494975456843
8.456203125 1.0276218654721347 0.3161419436398458
8.4573515625 1.0295311156094122 0.3187687606524718
8.4585 1.0272243371206424 0.3242953660771505
8.4596484375 1.026942179984994 0.3274663979857977
8.460796875 1.02500562798524 0.32665845097193813
8.4619453125 1.026302870862656 0.3307179964132805
8.46309375 1.0248996728325601 0.32844611526795786
8.4642421875 1.026182176347458 0.33360752064249577
8.465390625 1.024675208796397 0.33636857703372725
8.4665390625 1.02096718183929 0.33835806141292024
8.4676875 1.0237612601224968 0.3376310900840096
8.4688359375 1.0198318466491094 0.33802271500647174
8.469984375 1.019200381923593 0.3426203232244922
8.4711328125 1.0225061960009465 0.3405209336592455
8.47228125 1.0207346963867079 0.3461578764831401
8.4734296875 1.0194870715251951 0.35140019147415946
8.474578125 1.0201191575014243 0.3456815174426251
8.4757265625 1.019749310702184 0.3506219756353144
8.476875 1.0157287572460523 0.3520450014638519
8.4780234375 1.0164647965476332 0.35267197823660945
8.479171875 1.0175957712678665 0.3520666555246273
8.4803203125 1.0174886794335303 0.35682019201068804
8.48146875 1.0139583268086398 0.3572518620011634
8.4826171875 1.014391688371775 0.3586708163671691
8.483765625 1.0148730636049772 0.3624152862751146
8.4849140625 1.0157160566888743 0.36596097519945414
8.4860625 1.012617099470022 0.3639055092003355
8.4872109375 1.0121061215294227 0.3635200149187446
8.488359375 1.0128408045604407 0.368634132163028
8.4895078125 1.0140969573824923 0.3686744566381176
8.49065625 1.0160351468202147 0.3741869970417422
8.4918046875 1.0169370933498445 0.3790724701411864
8.492953125 1.0137334790590677 0.373602081833206
8.4941015625 1.0108165202130963 0.3814079859647729
8.49525 1.011594529067446 0.38257161359908354
8.4963984375 1.0124993468732089 0.384882815667754
8.497546875 1.0096980459965923 0.3837838983859849
8.4986953125 1.010370412897298 0.38683036794611586
8.49984375 1.0106379394184333 0.39099024221550827
8.5009921875 1.016201641903648 0.3928655051675124
8.502140625 1.0156117791253643 0.394181728939185
8.5032890625 1.014669016664223 0.3965271125512802
8.5044375 1.0115234780930111 0.3985581127784881
8.5055859375 1.0104621736153065 0.4011420525934191
8.506734375 1.010458282033302 0.4059778955525545
8.5078828125 1.0056921921031186 0.407899359499664
8.50903125 1.000960042151882 0.40800407269283695
8.5101796875 1.0036270055233625 0.40757821003344263
8.511328125 0.9993837948319043 0.41111704651981373
8.5124765625 1.0017797315785975 0.41239143073838475
8.513625 1.0003888706288073 0.41814529619946106
8.5147734375 0.9964984001613009 0.4197968682592099
8.515921875 0.9984606692778073 0.4200900203322128
8.5170703125 0.9997510604054203 0.41563905694467485
8.51821875 0.9997767360145461 0.42105969902675
8.5193671875 0.9963858085627304 0.4221204430296211
8.520515625 0.9899871755980932 0.42607920595729953
8.5216640625 0.9903459903340567 0.42919764246078906
8.5228125 0.9904463887627317 0.4266608402084319
8.5239609375 0.9901986636260419 0.4345893720818493
8.525109375 0.9875710581431965 0.43826745345927187
8.5262578125 0.9838756183003555 0.44057125379732676
8.52740625 0.9815623495417042 0.4391618128464836
8.5285546875 0.9802292838054801 0.4375874642845172
8.529703125 0.9796716472445219 0.4416888214259603
8.5308515625 0.9759829804930825 0.444473320214014
8.532 0.979179425440274 0.4436014064213771
8.5331484375 0.97718968379019 0.4497142864173882
8.534296875 0.9751336314221648 0.45153108319042606
8.5354453125 0.9716601031709641 0.45356644283990016
8.53659375 0.9749995549234778 0.45552510252807227
8.5377421875 0.9716564729955997 0.4612158154413993
8.538890625 0.9666623184601149 0.4650502339936998
8.5400390625 0.9681405449512515 0.46474841302922565
8.5411875 0.9683120821866893 0.4671917045720918
8.5423359375 0.9662138753027705 0.4670081535893653
8.543484375 0.9663907463469505 0.46792031737510265
8.5446328125 0.9655178962475227 0.4675586754962319
8.54578125 0.9619450668284374 0.4708310709966848
8.5469296875 0.9621929535837654 0.4667400960376358
8.548078125 0.9622673692010995 0.4732519102400913
8.5492265625 0.9611494263113315 0.47720759272478913
8.550375 0.9582102107590044 0.47570880276675365
8.5515234375 0.9538026576397811 0.4793749240012024
8.552671875 0.9539570871595585 0.48053312836268935
8.5538203125 0.9510603528085878 0.484559358950553
8.55496875 0.9486501810868997 0.48842595128915617
8.5561171875 0.949574978810165 0.48903496465013585
8.557265625 0.9495215211403368 0.4890077096386346
8.5584140625 0.9477604188233894 0.48694209615010897
8.5595625 0.9433186859749969 0.4935828110907862
8.5607109375 0.9423630290219014 0.49704444987172647
8.561859375 0.9414014054348546 0.49787501992284056
8.5630078125 0.9383839560063805 0.4993590141680148
8.56415625 0.9381261421288123 0.49647155153366274
8.5653046875 0.9345789374092573 0.5015832456402988
8.566453125 0.9342477398258375 0.507174376386984
8.5676015625 0.9348715998849446 0.5093616794185952
8.56875 0.9346367896535337 0.5089972861272389
8.5698984375 0.9343818144877436 0.5072292795767313
8.571046875 0.9331028361318451 0.5154777084118668
8.5721953125 0.9304008227441853 0.5155265832801013
8.57334375 0.9290279122320788 0.5155230443549513
8.5744921875 0.9257925816981452 0.5195186259267686
8.575640625 0.9250897183287144 0.5190459710030149
8.5767890625 0.923358434008428 0.5219457867677286
8.5779375 0.9243607405057237 0.5266228917868438
8.5790859375 0.9201354732359118 0.5306638421487279
8.580234375 0.9185627714563218 0.5319777325079768
8.5813828125 0.9209530085806519 0.5323554238021814
8.58253125 0.9143221359615263 0.5338740524708032
8.5836796875 0.911380959194181 0.5366854936438686
8.584828125 0.9111292672996067 0.5356821887512431
8.5859765625 0.9096355075116366 0.5427280299465981
8.587125 0.906335418207912 0.5434782312688083
8.5882734375 0.9092280943427135 0.5460347654653952
8.589421875 0.9067274661091564 0.5518164060306764
8.5905703125 0.9042414161679175 0.556411667271736
8.59171875 0.9056960774756249 0.5579227190507647
8.5928671875 0.9040232193514938 0.5630414053029869
8.594015625 0.9064359917510805 0.5589494683765835
8.5951640625 0.9040484844610661 0.5632938316475741
8.5963125 0.9069903513969131 0.5689849164698885
8.5974609375 0.9064858013455082 0.5745019356881593
8.598609375 0.9028611219534193 0.5773524932125889
8.5997578125 0.9027117087494415 0.5730841109629176
8.60090625 0.9062773803079894 0.5771457586752604
8.6020546875 0.9019602697276949 0.5816494957287
8.603203125 0.9038875761692512 0.584168519670458
8.6043515625 0.9049919351423727 0.5912228204117816
8.6055 0.9060883862517433 0.5887099314401557
8.6066484375 0.9016041014175141 0.5945662031100224
8.607796875 0.8989138471500557 0.597536338317753
8.6089453125 0.8971601851517362 0.5995590517646188
8.61009375 0.8953741271849666 0.6047378197436
8.6112421875 0.8966914026054779 0.6046194215859144
8.612390625 0.897128972695164 0.6031684649988163
8.6135390625 0.8982421627037043 0.60386257138692
8.6146875 0.9010872740405504 0.6072521382432441
8.6158359375 0.9027978229982467 0.6082771411954031
8.616984375 0.9057157165249506 0.6120061343436956
8.6181328125 0.9002990100787802 0.6093450637855504
8.61928125 0.8970973254678722 0.6130542987824632
8.6204296875 0.8975494781959166 0.6123414906380695
8.621578125 0.8941980307791537 0.6151592765764533
8.6227265625 0.8910500803781611 0.614277461650049
8.623875 0.8897897930927466 0.6159103731765734
8.6250234375 0.8876042014743033 0.6184254886972278
8.626171875 0.8904188287403135 0.6210889819964068
8.6273203125 0.892067726827742 0.6289567143535215
8.62846875 0.8924735682199043 0.6299876985873956
8.6296171875 0.8880265513548027 0.6277126177948416
8.630765625 0.8885235613152809 0.6317971736854708
8.6319140625 0.8840148002070387 0.6343665162464924
8.6330625 0.8835024687524073 0.6302806818372784
8.6342109375 0.8808885864558766 0.6366677274022363
8.635359375 0.8817929392217685 0.6342721984369444
8.6365078125 0.8773353774307048 0.6369233900226255
8.63765625 0.8788018535805204 0.6384856344476537
8.6388046875 0.8823325777981356 0.6409223354082706
8.639953125 0.8779501989884206 0.644575516902888
8.6411015625 0.8783604259248587 0.6464284643702605
8.64225 0.8759642902978875 0.6480182859153081
8.6433984375 0.8764813667457451 0.6497927408223849
8.644546875 0.8738423365463139 0.6504884286316751
8.6456953125 0.8730601934372207 0.652520123012221
8.64684375 0.8695324853232993 0.652362619393124
8.6479921875 0.8689852253869979 0.6532413227552958
8.649140625 0.8710837415305237 0.6569886728325
8.6502890625 0.864919931759173 0.6597821463002652
8.6514375 0.8653462260707467 0.6625508208322684
8.6525859375 0.8659964084406432 0.6608344638684747
8.653734375 0.8632040668685252 0.659720967531829
8.6548828125 0.863747196080713 0.6621692464093926
8.65603125 0.8613384068986127 0.6656522359702262
8.6571796875 0.8585819129843861 0.6687401591907522
8.658328125 0.8559816874307076 0.6710548228461813
8.6594765625 0.8530480822336355 0.6661474777258864
8.660625 0.8543624404707713 0.6708967826367415
8.6617734375 0.8489528378326461 0.6758389223334551
8.662921875 0.8469263240252322 0.6764110572607454
8.6640703125 0.848785223176882 0.679871210848477
8.66521875 0.8483239259066919 0.6792751821199152
8.6663671875 0.8481990331893731 0.6824319317297918
8.667515625 0.8476184869899703 0.6850550673199305
8.6686640625 0.8447336073950722 0.6861416346661454
8.6698125 0.8433091744716281 0.689122314680175
8.6709609375 0.8387469694811321 0.6832376698982292
8.672109375 0.838262395989383 0.6903143507653677
8.6732578125 0.8367142526418234 0.6906147537734549
8.67440625 0.836147133277777 0.6914901244701304
8.6755546875 0.835192557433706 0.699320791092503
8.676703125 0.832382999087485 0.6964861516437428
8.6778515625 0.8285806312927837 0.6951921573057921
8.679 0.8293842964621738 0.702328182372429
8.6801484375 0.8262373431933199 0.7053692423001725
8.681296875 0.8250048387373192 0.7067229961498599
8.6824453125 0.8221391883143171 0.7106273186279379
8.68359375 0.8228297660834216 0.709178012628031
8.6847421875 0.8214028031715914 0.7139044439306088
8.685890625 0.8190157517864839 0.7129015656054429
8.6870390625 0.8183657443860426 0.7167522259638004
8.6881875 0.8185808628018668 0.7140943168748346
8.6893359375 0.8191969758934923 0.7105757809712877
8.690484375 0.819263908198653 0.7164193392671999
8.6916328125 0.8144840664624807 0.7224756212312569
8.69278125 0.8145532668775236 0.7203437069782972
8.6939296875 0.8133781827129365 0.72380031876742
8.695078125 0.8109049022362851 0.724978757720578
8.6962265625 0.8076907434806164 0.7312137216265261
8.697375 0.8080699483656641 0.7306628067125635
8.6985234375 0.8071393804032907 0.7306914370103561
8.699671875 0.8021115617492389 0.7336375076113295
8.7008203125 0.8032727679968755 0.7299393993375918
8.70196875 0.8002425895007594 0.7380585215890749
8.7031171875 0.7982257338784674 0.7365381938941948
8.704265625 0.7973911004769534 0.7375745540944607
8.7054140625 0.7915802120667255 0.7415358036831052
8.7065625 0.7925709913556985 0.7418401246984401
8.7077109375 0.7900285855265217 0.7445445077288779
8.708859375 0.7861216976819438 0.7467535893109873
8.7100078125 0.7863962631607189 0.7486721009381403
8.71115625 0.7855161729783517 0.7509332469912836
8.7123046875 0.7828705645870546 0.7520005670666996
8.713453125 0.7846490904502859 0.7560936035019127
8.7146015625 0.7838292801345466 0.7581975217120176
8.71575 0.7799620767251451 0.7566414602439249
8.7168984375 0.7781196897687369 0.7569416767939106
8.718046875 0.7777131294082757 0.7618793211434214
8.7191953125 0.7769010160812224 0.758852209179824
8.72034375 0.7747006777007253 0.7650693737871607
8.7214921875 0.7744812031017134 0.7664692893325523
8.722640625 0.7714160832418538 0.7703664501159487
8.7237890625 0.7692264930701327 0.7696049963311206
8.7249375 0.7722486880805854 0.7648534561489108
8.7260859375 0.7699919528857387 0.7734495085079514
8.727234375 0.7641545355157613 0.7792766834831792
8.7283828125 0.7685142963895362 0.7776722700400577
8.72953125 0.7672436412540992 0.782247602768674
8.7306796875 0.7666659839296296 0.7800885415970344
8.731828125 0.7638208680758158 0.7920527203878449
8.7329765625 0.7623056901341504 0.7894804352768232
8.734125 0.7663330739717671 0.7921269074568157
8.7352734375 0.7642120458402505 0.7958539510909298
8.736421875 0.7639776969949368 0.8009396361607792
8.7375703125 0.7610339136840212 0.8080011191647949
8.73871875 0.7632833819453066 0.8048845287914104
8.7398671875 0.7581211575538296 0.805868760188453
8.741015625 0.7573451204249847 0.8084311692485959
8.7421640625 0.7540838700889417 0.8051364807939416
8.7433125 0.7556055238447996 0.8077626716351913
8.7444609375 0.7578560459451689 0.8142755726649038
8.745609375 0.7624850374225667 0.8131847370168113
8.7467578125 0.7584723144637374 0.8110160094177133
8.74790625 0.757733089070816 0.8176378736061981
8.7490546875 0.7582930610444522 0.8179289639940279
8.750203125 0.7563866730171047 0.8201800905258219
8.7513515625 0.7556814964487243 0.8250042809413303
8.7525 0.7545268249130376 0.8245387491281112
8.7536484375 0.7559358553560294 0.8267192087124179
8.754796875 0.758775774389443 0.8225335704671725
8.7559453125 0.7587895738731572 0.8260585837670055
8.75709375 0.762324536998894 0.8237781486902953
8.7582421875 0.7599271889751313 0.8279068136379096
8.759390625 0.7563320265924468 0.8290606276339032
8.7605390625 0.7548173624724355 0.8227117784101775
8.7616875 0.7505708090095404 0.8245053407069534
8.7628359375 0.7510919470334586 0.8245342539910051
8.763984375 0.7493662687317753 0.8284415582287801
8.7651328125 0.7505396648750461 0.8276816139361196
8.76628125 0.7482013589390312 0.8281251672358804
8.7674296875 0.7478521323217012 0.8279191042019702
8.768578125 0.7438430006192299 0.8305461281692618
8.7697265625 0.7454792556625899 0.8333230272343239
8.770875 0.7462757258710759 0.8337264120680132
8.7720234375 0.745731854754906 0.8289871536399195
8.773171875 0.7376900127921924 0.8283442288424209
8.7743203125 0.7373060373360728 0.8318447898861948
8.77546875 0.7359661318475006 0.83325411787434
8.7766171875 0.7343300480395624 0.8322542820074404
8.777765625 0.7302460051670974 0.831293445022153
8.7789140625 0.7280664501426268 0.8313954150078382
8.7800625 0.7265824047138878 0.8322902675441146
8.7812109375 0.7235987707737227 0.8329007029295226
8.782359375 0.7168040944755778 0.8318230178490975
8.7835078125 0.71670582755863 0.83279162688479
8.78465625 0.7133947034489634 0.8380650375292922
8.7858046875 0.7130445728680765 0.8396235832454125
8.786953125 0.7089569980140569 0.8428805187810597
8.7881015625 0.7044373916925484 0.8423042689581178
8.78925 0.7007270124687871 0.8455869346807379
8.7903984375 0.701657608472303 0.8437119449742745
8.791546875 0.7009427816987603 0.8471148553726909
8.7926953125 0.7001792072127818 0.8499425881518801
8.79384375 0.6970966785556452 0.8528879726509391
8.7949921875 0.6921393156908597 0.8512357859502644
8.796140625 0.6913831613898563 0.8507559337274626
8.7972890625 0.6839743405655363 0.8531930923517261
8.7984375 0.6827900179296507 0.8542997691389491
8.7995859375 0.6846892422659536 0.8571286461967726
8.800734375 0.6820317931549587 0.8597431515971118
8.8018828125 0.6796454797089507 0.8573132771435227
8.80303125 0.6761834510212427 0.8643602358003653
8.8041796875 0.6743407860715014 0.8675294967077497
8.805328125 0.6691246081574103 0.8667664604210484
8.8064765625 0.6701727740125236 0.8695245981997259
8.807625 0.6713187431671703 0.8665378124164789
8.8087734375 0.6714038875185545 0.8691194012631418
8.809921875 0.6696054145720441 0.8671054756958645
8.8110703125 0.6672668089533544 0.8700615204187897
8.81221875 0.6635985591861975 0.8690019683501612
8.8133671875 0.6612214857609963 0.8698471081588569
8.814515625 0.6593017768525138 0.8736608261847665
8.8156640625 0.657070598454663 0.8723043486604397
8.8168125 0.6564962678322933 0.8767413319193431
8.8179609375 0.6545575205555644 0.8763050165199393
8.819109375 0.653117628052461 0.878138489972921
8.8202578125 0.6482839358797057 0.8786145955784321
8.82140625 0.6433725894323539 0.880735620220755
8.8225546875 0.6439944237956915 0.8814411527503829
8.823703125 0.6426589582188151 0.8844163166695007
8.8248515625 0.6405621425259903 0.8842905883255252
8.826 0.6410355217954092 0.8824743362617032
8.8271484375 0.6365066062817863 0.8886374896220397
8.828296875 0.6332606537343145 0.8912826923496409
8.8294453125 0.6315345715247658 0.8891383217606003
8.83059375 0.6314561265663592 0.8925778086500871
8.8317421875 0.629671665568289 0.8900611819687454
8.832890625 0.6265893515150929 0.890953394340708
8.8340390625 0.6214833154028985 0.8948747176884789
8.8351875 0.6190775593841651 0.8987834046034229
8.8363359375 0.620846793499511 0.8976788333992435
8.837484375 0.6175510089639844 0.8967700489128402
8.8386328125 0.6150658831795268 0.9024977969073515
8.83978125 0.6127761084071564 0.8959492230421864
8.8409296875 0.6135159499344457 0.8992153519501977
8.842078125 0.6078597426930793 0.9033555207588762
8.8432265625 0.608208185347634 0.9028463171941673
8.844375 0.6042466692900654 0.9046817180219922
8.8455234375 0.6026599935863077 0.9055155278038878
8.846671875 0.59929002255624 0.9096729655615227
8.8478203125 0.5989145639916482 0.9088807852418395
8.84896875 0.594625384010419 0.9086504951546459
8.8501171875 0.5948085559038072 0.9115219837016301
8.851265625 0.5949723475459415 0.9159811592245269
8.8524140625 0.5934350480242898 0.9157965911197488
8.8535625 0.5911105327611164 0.9194295589996345
8.8547109375 0.5860589516571666 0.919387758663416
8.855859375 0.5855827001776887 0.91950045514031
8.8570078125 0.5822616331850383 0.9215882277882236
8.85815625 0.5802642563130695 0.9260571601091618
8.8593046875 0.5786094787573901 0.9266666201965574
8.860453125 0.5782353989639053 0.9295437309142646
8.8616015625 0.5790429162729631 0.9288397097984057
8.86275 0.5751339256174861 0.9330942968458797
8.8638984375 0.5688720709492239 0.9343339371825843
8.865046875 0.56946719653468 0.9359497370623449
8.8661953125 0.5675868587550255 0.9348185423196074
8.86734375 0.5655959425693624 0.9338050194420231
8.8684921875 0.5630376333772069 0.9373092984307164
8.869640625 0.5621085064428659 0.9429553224598075
8.8707890625 0.5631525963743473 0.942630665093562
8.8719375 0.557911285076176 0.9469113323615184
8.8730859375 0.5541952175615407 0.9477670328067589
8.874234375 0.5545593721514679 0.9478883954224749
8.8753828125 0.5551396812638243 0.9509483763439789
8.87653125 0.5517955629377405 0.9511509807396945
8.8776796875 0.5471401584470142 0.9514486733706836
8.878828125 0.5474798480209564 0.9540973318528189
8.8799765625 0.5436244863657742 0.9556247019209396
8.881125 0.5435984197992807 0.9592198282387889
8.8822734375 0.5402812006229549 0.9568056457184122
8.883421875 0.5428410886414761 0.961344618159029
8.8845703125 0.5397901638513783 0.9643747301499477
8.88571875 0.5382594515967077 0.9621831307565909
8.8868671875 0.5366397594658573 0.9642321450904883
8.888015625 0.5359868508385307 0.9671458012219302
8.8891640625 0.53324946995914 0.9662733728906879
8.8903125 0.5294456547533015 0.9712842653585883
8.8914609375 0.5291242262661262 0.9696565751741224
8.892609375 0.5302923590049738 0.971928840972994
8.8937578125 0.5279326120451032 0.9743540310493897
8.89490625 0.5224699706653971 0.9764847632391908
8.8960546875 0.520916504694097 0.9791166602453114
8.897203125 0.5234487470521662 0.9752897659178901
8.8983515625 0.5199422557928923 0.9791669791396687
8.8995 0.5179011974206742 0.9792029196165022
8.9006484375 0.5172318760496097 0.9798314973442842
8.901796875 0.5149775123836613 0.9802277429369388
8.9029453125 0.5123791638697731 0.980827219248019
8.90409375 0.5103329489228556 0.9833175503417146
8.9052421875 0.5081660948845107 0.9887168267887286
8.906390625 0.5037592228756875 0.9915314049787868
8.9075390625 0.5032723447022399 0.9915558933668085
8.9086875 0.5062078234678478 0.9893451747032791
8.9098359375 0.5018476991721235 0.9926051601383031
8.910984375 0.49669049621911865 0.9940718183720127
8.9121328125 0.4968237610172762 0.9932704888035357
8.91328125 0.49427537588099346 0.9950121353185442
8.9144296875 0.494623587115089 0.9948271204148039
8.915578125 0.49328587101635646 0.9939564468589572
8.9167265625 0.4888790538148465 0.9965399615808812
8.917875 0.48452457656831444 0.9996873113305268
8.9190234375 0.4842848260787029 1.0009436411340031
8.920171875 0.4825129982666331 0.9991560160244848
8.9213203125 0.4797940257084402 1.0022664455745394
8.92246875 0.47578931927453416 1.0060277382032503
8.9236171875 0.47608658819467464 1.0054564311509635
8.924765625 0.4732137352995425 1.0064099024728521
8.9259140625 0.4720287665311603 1.0096363648748727
8.9270625 0.47089079187360017 1.0061977021398394
8.9282109375 0.46610197127181763 1.0117243497503798
8.929359375 0.46535852628670804 1.009654195100519
8.9305078125 0.46496113394371774 1.0129470205183706
8.93165625 0.46346235359742305 1.0135691012587762
8.9328046875 0.46221438244596014 1.0141831230565417
8.933953125 0.45614605222559645 1.0148169810983063
8.9351015625 0.4547912934479992 1.017247854503983
8.93625 0.45203474918716624 1.0199671138935396
8.9373984375 0.4518985655631733 1.020817295756626
8.938546875 0.45033110613499544 1.0171848018435727
8.9396953125 0.4477928359649485 1.021517253138065
8.94084375 0.4455690055042518 1.0208787925192604
8.9419921875 0.44325814786886647 1.02209056566749
8.943140625 0.4399857410402924 1.0257089602059615
8.9442890625 0.43893831321995824 1.0270925089341363
8.9454375 0.439010511268813 1.0267387558532644
8.9465859375 0.433005002095844 1.0279494616156946
8.947734375 0.4331933909402087 1.0302762737869195
8.9488828125 0.4309780896872798 1.0323081080987535
8.95003125 0.4301399925878717 1.0288912622592379
8.9511796875 0.4306714963072361 1.0330340057982863
8.952328125 0.42420396065096183 1.0319034785857375
8.9534765625 0.42643774075278174 1.0316454588802937
8.954625 0.42567372085008015 1.0345319817022058
8.9557734375 0.4219615361765892 1.0352961831317722
8.956921875 0.42226982129270674 1.0361986760541053
8.9580703125 0.41809275895240205 1.0368130998017637
8.95921875 0.41688013080011865 1.0371221754040483
8.9603671875 0.4141643434617344 1.0398493247344387
8.961515625 0.41291922955303834 1.0373877688934483
8.9626640625 0.41423852846063014 1.0387696532142399
8.9638125 0.4111895301346942 1.0400231874320316
8.9649609375 0.41008218790413986 1.0394074219169758
8.966109375 0.4072141252464986 1.0416834230777656
8.9672578125 0.40462282877710953 1.0446081494406347
8.96840625 0.4021796903896592 1.040874565249105
8.9695546875 0.3988388047713164 1.0464128827559007
8.970703125 0.39547164523997025 1.0464078217463648
8.9718515625 0.3952644604518212 1.0452571678891016
8.973 0.3971581648334988 1.046957739397207
8.9741484375 0.3954968366098597 1.045211772086674
8.975296875 0.3925985443534517 1.0488782106668688
8.9764453125 0.39148658832700867 1.0490068034330022
8.97759375 0.38603160474601206 1.0517093984591344
8.9787421875 0.3852628146950272 1.0539784032292232
8.979890625 0.3883540227426986 1.052581556429569
8.9810390625 0.3879427774856047 1.0535420623185994
8.9821875 0.3863644114630388 1.057651374480833
8.9833359375 0.38469727248403607 1.0564951249765964
8.984484375 0.3796376346120433 1.0609707509883677
8.9856328125 0.37958612550720505 1.0580377191836308
8.98678125 0.377038462313837 1.0571077857043165
8.9879296875 0.37614433290539 1.0563068939414104
8.989078125 0.37498509188955254 1.0549731062794012
8.9902265625 0.3738291569690867 1.0575685251143412
8.991375 0.36796102470747766 1.0585803000633713
8.9925234375 0.36802254670367246 1.0616406476187217
8.993671875 0.36736926043121054 1.060969914440066
8.9948203125 0.36682946430063945 1.061425546560923
8.99596875 0.36761829134408397 1.0657244478412244
8.9971171875 0.36670861893370493 1.0628718225133085
8.998265625 0.36216485698226075 1.059903968056811
8.9994140625 0.3597243195890661 1.0600356424828539
9.0005625 0.35911273667936916 1.0645974507933496
9.0017109375 0.3570174852804901 1.0634391395407512
9.002859375 0.35411090923686667 1.0655598806920654
9.0040078125 0.3529838506988231 1.0678801250712928
9.00515625 0.3507779576267939 1.064824113642236
9.0063046875 0.3523347920317217 1.0649132366343697
9.007453125 0.349363996577208 1.0655365187036796
9.0086015625 0.34702720806803705 1.0657668988048825
9.00975 0.3490865846448762 1.0632317063608252
9.0108984375 0.3443506939046141 1.0627937248832997
9.012046875 0.33859401273002043 1.0652881953088915
9.0131953125 0.3391925207325382 1.0656625488422824
9.01434375 0.3372963689862737 1.0647388684516887
9.0154921875 0.33426498008074074 1.0682737685446795
9.016640625 0.3317343951525126 1.0696592015723396
9.0177890625 0.3292113608082231 1.0670520455732055
9.0189375 0.32772407477010534 1.0676895692726949
9.0200859375 0.3254269284679997 1.066357690006048
9.021234375 0.3212750514172339 1.0664644643644359
9.0223828125 0.3257614514974595 1.0655243095672933
9.02353125 0.32024128294133075 1.0654190752532955
9.0246796875 0.31843839992689 1.0652941580013864
9.025828125 0.31961109121016823 1.0682272756902116
9.0269765625 0.31532534787723937 1.0694174823984524
9.028125 0.31187879925677325 1.0707631559497535
9.0292734375 0.312402435789664 1.068089733895782
9.030421875 0.3068675210005361 1.0663720817503237
9.0315703125 0.30497789313310186 1.0660898772534844
9.03271875 0.30572617356887455 1.0651781329743535
9.0338671875 0.3034206953542756 1.0642788096130216
9.035015625 0.3011501533088821 1.0657050141936146
9.0361640625 0.29565147947169257 1.0624781001880952
9.0373125 0.2926271880103201 1.064389299223159
9.0384609375 0.29194728303102296 1.0646986949446844
9.039609375 0.2892360644490465 1.0641499561292123
9.0407578125 0.2859681581736042 1.067297229168075
9.04190625 0.283937928024236 1.066188594593823
9.0430546875 0.2808767127095327 1.067744361592015
9.044203125 0.2766446229291706 1.0666001158009628
9.0453515625 0.2784456983739593 1.0670182880285286
9.0465 0.27285586310108806 1.0686723355049044
9.0476484375 0.2720516089418494 1.065500119712585
9.048796875 0.269539469208256 1.0653612809392787
9.0499453125 0.2647877942866955 1.0676974748094237
9.05109375 0.26422941654269216 1.067391141928569
9.0522421875 0.2640423657097156 1.0682803188642203
9.053390625 0.25998036778922323 1.0670133655840837
9.0545390625 0.25650908110446763 1.0662596644961169
9.0556875 0.2553377735448404 1.0644454827771541
9.0568359375 0.25169930283530684 1.0645157924054245
9.057984375 0.24769998314547956 1.0637769684265965
9.0591328125 0.246400891090471 1.0634576918413026
9.06028125 0.24032009592127848 1.0656629409179246
9.0614296875 0.23849938827575193 1.0647104189362002
9.062578125 0.23911879427793503 1.0667458040134696
9.0637265625 0.23440924249674705 1.06194023095555
9.064875 0.2295873016185082 1.0642669709690888
9.0660234375 0.22963282262455487 1.0625051065547144
9.067171875 0.22557392673376853 1.0627492417564772
9.0683203125 0.2204968611208775 1.063567594569839
9.06946875 0.21763755250055322 1.0621703203022683
9.0706171875 0.2184204684037287 1.0626074263472909
9.071765625 0.21037677865496737 1.0643429438978622
9.0729140625 0.20469042673240362 1.0623395342009716
9.0740625 0.20553450105785348 1.0598064638122704
9.0752109375 0.2031025496177077 1.0652383914517842
9.076359375 0.19661715673693078 1.0630357930159426
9.0775078125 0.1946488657589192 1.063017304543364
9.07865625 0.1918010596976099 1.066779012112234
9.0798046875 0.1871482701503107 1.0655008428178432
9.080953125 0.1867037369225846 1.0654041261776888
9.0821015625 0.18159218495853816 1.0695348388059944
9.08325 0.1764748751326125 1.0684134707288757
9.0843984375 0.1744852729639868 1.068782254212213
9.085546875 0.17266222730259362 1.065593526218854
9.0866953125 0.16985455562094703 1.069400181221041
9.08784375 0.169774288585874 1.0694293365395522
9.0889921875 0.16624731660528053 1.0711370672583955
9.090140625 0.16446271556365843 1.0701062346096197
9.0912890625 0.1600054440977777 1.0715812742682287
9.0924375 0.15843888235078185 1.070312480986879
9.0935859375 0.15694901254814972 1.0733648930516775
9.094734375 0.15225529056210507 1.0720250206310475
9.0958828125 0.14648392507085245 1.0759243651652128
9.09703125 0.14535332979384843 1.0770561487327253
9.0981796875 0.14261298305777692 1.0792334800834091
9.099328125 0.14054169570787856 1.0776190717165617
9.1004765625 0.1373384513841041 1.0786023159875482
9.101625 0.13387830904992296 1.0796053128556515
9.1027734375 0.13085774745932394 1.0818070660905459
9.103921875 0.13099497200714555 1.082520786260727
9.1050703125 0.1286726188007826 1.0823414365994508
9.10621875 0.12775519472256983 1.0839747362328467
9.1073671875 0.12617960355738195 1.0839808570276117
9.108515625 0.12438206394268386 1.0837875682755365
9.1096640625 0.12135463361468841 1.0864711864140284
9.1108125 0.1195788714409809 1.088133904812031
9.1119609375 0.11880913807990619 1.087694600868371
9.113109375 0.11750852465635178 1.0892305124688089
9.1142578125 0.1170310444762668 1.0896278786229763
9.11540625 0.11513299826372275 1.0887277414774275
9.1165546875 0.11220145240395524 1.0924611120131351
9.117703125 0.10978614071662568 1.0926266671485643
9.1188515625 0.10680313338025212 1.0914596125339076
9.12 0.10783092756169649 1.0940678878194112
9.1211484375 0.10425760620809035 1.093261244297915
9.122296875 0.1038140623591345 1.094497065658643
9.1234453125 0.10364651475754744 1.0936784202572647
9.12459375 0.10055718532867475 1.0952646805028619
9.1257421875 0.0983097824667301 1.093555331720288
9.126890625 0.09999090772118158 1.0943236652920922
9.1280390625 0.09539913038885237 1.0943686303654898
9.1291875 0.09640184519717757 1.093692249199234
9.1303359375 0.09649431333509936 1.0940463496287647
9.131484375 0.09164794242247354 1.095051380804582
9.1326328125 0.0886681539811986 1.0945966182508444
9.13378125 0.08690854579266741 1.0920660368370043
9.1349296875 0.08678218748298816 1.0927728148224272
9.136078125 0.08045617062131694 1.0951343321383407
9.1372265625 0.08091525432108765 1.0967333837811655
9.138375 0.07978266530271504 1.097430333215091
9.1395234375 0.0760525637373912 1.0968333970715116
9.140671875 0.07431540031921119 1.0939910208748718
9.1418203125 0.07184418236288814 1.0939701124925598
9.14296875 0.07133744364134598 1.0947161336517286
9.1441171875 0.06673707540880033 1.0959934428584366
9.145265625 0.06376368489964346 1.0962695687354298
9.1464140625 0.06473705146000502 1.096813965212592
9.1475625 0.061920906898010886 1.0980734836852073
9.1487109375 0.05620150110833333 1.096714255889922
9.149859375 0.057883445846868775 1.0966879792921125
9.1510078125 0.05144550609768905 1.0970124369858134
9.15215625 0.04993011145542642 1.0958966532613907
9.1533046875 0.04923211931162455 1.0984239507185496
9.154453125 0.04523679164934705 1.1016366013175674
9.1556015625 0.043139487078759864 1.1004976963704758
9.15675 0.04255475933367561 1.09605151044477
9.1578984375 0.039084359433957966 1.096667230656398
9.159046875 0.03700178188680814 1.0980489934147704
9.1601953125 0.03450417586612403 1.0989039598535744
9.16134375 0.033479499585594985 1.0989549814206787
9.1624921875 0.030870206577857884 1.0987085671757084
9.163640625 0.028157467733155056 1.1002922982222028
9.1647890625 0.030291218287661043 1.1004096313573584
9.1659375 0.02703306295793459 1.0991574772434018
9.1670859375 0.02359245096123136 1.0988246060337692
9.168234375 0.02100815664252151 1.096854569399859
9.1693828125 0.01850359071338492 1.0978811230276044
9.17053125 0.01785280162128347 1.0977652364588073
9.1716796875 0.013820511349908249 1.096237734641274
9.172828125 0.01206886995507897 1.0968826382241426
9.1739765625 0.009696326561497132 1.0967247042270536
9.175125 0.0067724085623405705 1.0957966858151256
9.1762734375 0.008538880669407695 1.094447311415799
9.177421875 0.004884317213807471 1.0963542892549532
9.1785703125 -0.00023497968699884297 1.0975271910275792
9.17971875 0.0004972454662254266 1.0946056659893961
9.1808671875 -0.00343868794037544 1.0969490537081823
9.182015625 -0.005725119227733166 1.095986072202478
9.1831640625 -0.00833750407671191 1.093883667233388
9.1843125 -0.011781587734980892 1.092360336046163
9.1854609375 -0.013280624146438824 1.094546697888225
9.186609375 -0.017741202960298935 1.0944149002851475
9.1877578125 -0.01741607285003588 1.0944415088843433
9.18890625 -0.019087707697310746 1.0953183078989948
9.1900546875 -0.024067997336051444 1.0947752722114825
9.191203125 -0.021805627730690946 1.09281402905657
9.1923515625 -0.026202618258066523 1.092932856286038
9.1935 -0.028032242827758597 1.0926225690956315
9.1946484375 -0.028089054149396414 1.092076093612569
9.195796875 -0.03258720662769865 1.0940469615297204
9.1969453125 -0.035226566343483465 1.0927074564116703
9.19809375 -0.035773189537137304 1.0928286040849864
9.1992421875 -0.03550409198961904 1.0909836673504842
9.200390625 -0.03759173675612053 1.094881165686727
9.2015390625 -0.04237786262108502 1.092493634100067
9.2026875 -0.04589901249179684 1.0907384946832825
9.2038359375 -0.047874316782388265 1.0912373408483225
9.204984375 -0.051776415247636876 1.091737223773316
9.2061328125 -0.05009906203875254 1.0936142293644924
9.20728125 -0.05228405129178612 1.092476284714472
9.2084296875 -0.05696340848432506 1.0919132759493748
9.209578125 -0.0582292987455959 1.090029501330199
9.2107265625 -0.057856001840681 1.0891062678462995
9.211875 -0.06045417290192974 1.0906942733391407
9.2130234375 -0.06234984743342309 1.090467168707403
9.214171875 -0.0635178423244276 1.0903204745687427
9.2153203125 -0.06709844952933902 1.09020128622379
9.21646875 -0.06921255996927501 1.0901450000043091
9.2176171875 -0.07068765020894015 1.090636707878865
9.218765625 -0.07282930531108397 1.0903716279402782
9.2199140625 -0.07690768084290062 1.0902842222816578
9.2210625 -0.07971293206920763 1.0896129871235094
9.2222109375 -0.08033054461550636 1.088151085479541
9.223359375 -0.08119717058041434 1.0909060238256085
9.2245078125 -0.08410995174363178 1.0887590727766263
9.22565625 -0.08549572340622956 1.0878412251175282
9.2268046875 -0.0901583161900765 1.0873522149255308
9.227953125 -0.09099265086037789 1.0885782972922897
9.2291015625 -0.09091965831110177 1.088664787466013
9.23025 -0.0940400060784243 1.087946819084765
9.2313984375 -0.09771506646085117 1.0875177308445398
9.232546875 -0.09915283112695955 1.086671259011751
9.2336953125 -0.1024406887890677 1.0877265408700996
9.23484375 -0.10655916655749914 1.0879528497844202
9.2359921875 -0.10869814670723482 1.0885957873361578
9.237140625 -0.11100478687442639 1.0884200441278247
9.2382890625 -0.11412475203555036 1.090036842963331
9.2394375 -0.11695726941476384 1.0905790668428834
9.2405859375 -0.1171794362105079 1.088007444403163
9.241734375 -0.11951577188748358 1.0880800291753208
9.2428828125 -0.12267277329822601 1.090230779505153
9.24403125 -0.12444205737137157 1.0906938221364122
9.2451796875 -0.12674205529604568 1.0900530154702701
9.246328125 -0.12836823669456185 1.0913053344933088
9.2474765625 -0.1279582480322332 1.0887030714327641
9.248625 -0.12877142175170506 1.0909490121247714
9.2497734375 -0.13213839354264775 1.0902586519519162
9.250921875 -0.13403699936388896 1.0906777651694353
9.2520703125 -0.13600783481135764 1.0876477209402449
9.25321875 -0.13700828364366188 1.0883035685742566
9.2543671875 -0.13777833790413868 1.0866394418653988
9.255515625 -0.13877585527471728 1.0832159894325677
9.2566640625 -0.1414175393395818 1.0849883740723918
9.2578125 -0.14591695980507455 1.08590296576986
9.2589609375 -0.14678460903861493 1.0844238198642577
9.260109375 -0.1494307290999016 1.0852476447959942
9.2612578125 -0.14976470715754733 1.0844692529251025
9.26240625 -0.15264224383388525 1.0821914657793037
9.2635546875 -0.1543490355846075 1.0836775224565838
9.264703125 -0.15607506313881384 1.0817874079264849
9.2658515625 -0.16100554369451678 1.082630980307682
9.267 -0.1591088081742929 1.082451373620446
9.2681484375 -0.16415500450931048 1.0827030692161081
9.269296875 -0.16585462631300224 1.0820842971816584
9.2704453125 -0.1665818943608135 1.080685388348676
9.27159375 -0.1710279091184949 1.0812299676659551
9.2727421875 -0.17296741305781344 1.0817130029943876
9.273890625 -0.17477362803144986 1.0788108214474823
9.2750390625 -0.17351108220140882 1.0800253128473492
9.2761875 -0.1788224984904409 1.0797192744436885
9.2773359375 -0.18116184644105815 1.0792210656503443
9.278484375 -0.18220342631783537 1.0818019524838633
9.2796328125 -0.18616054597518056 1.0797958680318664
9.28078125 -0.18826911880871994 1.080547177690189
9.2819296875 -0.18772805817072957 1.0796058430125837
9.283078125 -0.19072423847758352 1.0798507965491337
9.2842265625 -0.19343979097951308 1.079066145785153
9.285375 -0.19351489172937286 1.077891992458097
9.2865234375 -0.1973695029346586 1.0778494307989601
9.287671875 -0.19648014428049154 1.0764575240105851
9.2888203125 -0.1999128677857267 1.076757412946261
9.28996875 -0.20307913995489824 1.0757307720920892
9.2911171875 -0.20632273464944229 1.0750975348770688
9.292265625 -0.2070883601044724 1.0750682533688687
9.2934140625 -0.20877558665909424 1.073858313396309
9.2945625 -0.21258930085770272 1.0772017896852635
9.2957109375 -0.2139199448721824 1.0750899365611952
9.296859375 -0.21538931411438522 1.0749356076957588
9.2980078125 -0.2184780450419455 1.0740139299618148
9.29915625 -0.22038496131307067 1.0755925381980074
9.3003046875 -0.22134119248331408 1.0749058378337792
9.301453125 -0.2216418634910179 1.0731030332415434
9.3026015625 -0.2234858705508237 1.0753749852110455
9.30375 -0.22871471037026492 1.0747034171655743
9.3048984375 -0.23034580128377508 1.0735880880146143
9.306046875 -0.23296974915975865 1.0753090951620388
9.3071953125 -0.2356543728554702 1.0775164364874386
9.30834375 -0.2329967580607561 1.0771332604955788
9.3094921875 -0.23535341937974652 1.078158076701157
9.310640625 -0.2370209802204135 1.0795684416222633
9.3117890625 -0.23539149208859478 1.0764212698700129
9.3129375 -0.23664071955081778 1.074650382541308
9.3140859375 -0.23929936594413553 1.0736868568124323
9.315234375 -0.23912898087662998 1.0722162409704958
9.3163828125 -0.24030687837166964 1.0689750990014717
9.31753125 -0.24390244937103445 1.0685528382403748
9.3186796875 -0.24684634554409268 1.0674420044661308
9.319828125 -0.24702999900478195 1.0663561891665285
9.3209765625 -0.24947688490797099 1.065485599604775
9.322125 -0.25314541292320814 1.0658780336699925
9.3232734375 -0.25396015445696 1.0629936740312107
9.324421875 -0.2579615466426199 1.0628097417095408
9.3255703125 -0.25881092795308586 1.0605498528871224
9.32671875 -0.2593957714879381 1.0582429264502067
9.3278671875 -0.26191550701945526 1.0576820060627632
9.329015625 -0.2649403170328634 1.0580434654341584
9.3301640625 -0.2698555444408868 1.0570188498061284
9.3313125 -0.2689664920972539 1.056080568306648
9.3324609375 -0.2718675594779247 1.055897245745568
9.333609375 -0.273900512707612 1.056198391022116
9.3347578125 -0.27513106447864993 1.0548572666945517
9.33590625 -0.2787911568622604 1.0531161830477964
9.3370546875 -0.28050647244705484 1.0523717123160428
9.338203125 -0.28267271157586915 1.0499933803866246
9.3393515625 -0.2830713751466033 1.0506362634088164
9.3405 -0.28805772174898564 1.0505265478009371
9.3416484375 -0.2905702252481355 1.0493205019102188
9.342796875 -0.29271706357721794 1.0477957286916708
9.3439453125 -0.295353298902165 1.0486548313092632
9.34509375 -0.29739699620106547 1.0465114871880519
9.3462421875 -0.29957974236297813 1.0443810552913082
9.347390625 -0.3012439503426727 1.0441253333965985
9.3485390625 -0.3034880566204967 1.0461184221189803
9.3496875 -0.304190515283179 1.0441236029041827
9.3508359375 -0.307674366742686 1.0422150673236323
9.351984375 -0.30990689641626756 1.044885879480107
9.3531328125 -0.3114277151574004 1.0432934528041031
9.35428125 -0.3135821556969359 1.0422735873962123
9.3554296875 -0.3158213124721157 1.0434129125277058
9.356578125 -0.31939025025330836 1.0422579647733032
9.3577265625 -0.31897504263289045 1.0423770170848143
9.358875 -0.3221043798414504 1.0397309807551551
9.3600234375 -0.325185433569657 1.039825418527391
9.361171875 -0.3236701779599903 1.037965793138948
9.3623203125 -0.3281908945037747 1.037370126728835
9.36346875 -0.32983467226802404 1.0379098073888393
9.3646171875 -0.3292645728612067 1.0391254270032775
9.365765625 -0.3315308945982802 1.0376174926200823
9.3669140625 -0.33336318212593163 1.038112034862471
9.3680625 -0.3355996397216753 1.0358931239187308
9.3692109375 -0.33722217807383875 1.0348192904515323
9.370359375 -0.3398721775391555 1.0356378654548186
9.3715078125 -0.3430619612470217 1.034595697363086
9.37265625 -0.3429537032019454 1.034165394923559
9.3738046875 -0.34531569648750976 1.0351011856976646
9.374953125 -0.34875648083754635 1.0357145739582942
9.3761015625 -0.34825084284159646 1.0339524258895658
9.37725 -0.35136773277213995 1.0330730688747822
9.3783984375 -0.35098095696404585 1.034415873391589
9.379546875 -0.35322697557223565 1.035286235184976
9.3806953125 -0.35607451545888413 1.0347176533413376
9.38184375 -0.358124582605069 1.0336107412724715
9.3829921875 -0.3600927257266419 1.0326230684242845
9.384140625 -0.36057925143298897 1.0327386380465668
9.3852890625 -0.3640946887050263 1.0332149265581378
9.3864375 -0.3650614615670115 1.0308573083550157
9.3875859375 -0.36416755213459473 1.029814925947274
9.388734375 -0.3670087053421454 1.0300718627795034
9.3898828125 -0.36967470147819903 1.029736989452334
9.39103125 -0.3688701763075787 1.0277485599979468
9.3921796875 -0.37221364520194733 1.0250079848504638
9.393328125 -0.3748317030886816 1.025323676344787
9.3944765625 -0.376202816113512 1.0249907757766021
9.395625 -0.37932853172817277 1.0232826446990622
9.3967734375 -0.3800055412129427 1.0230593795453482
9.397921875 -0.381598094313683 1.0227512313821479
9.3990703125 -0.3817585131999083 1.0202937640851046
9.40021875 -0.38581658723128776 1.0173713887604026
9.4013671875 -0.38729883208673693 1.0172736998415475
9.402515625 -0.38612441112412266 1.015304624710492
9.4036640625 -0.39152283716465297 1.0150348449582212
9.4048125 -0.39503461166893167 1.0150774992337421
9.4059609375 -0.39576652163442094 1.0121394434024258
9.407109375 -0.3986873842521687 1.0133523735582102
9.4082578125 -0.3999849468328865 1.0124693026329472
9.40940625 -0.402611641396918 1.010797119107203
9.4105546875 -0.40537198568083455 1.0089202401099147
9.411703125 -0.4083914939113382 1.0098643587062273
9.4128515625 -0.4105980491579872 1.0093390358535226
9.414 -0.41049326948071974 1.0083019593763698
9.4151484375 -0.4149229116288493 1.0070268997438836
9.416296875 -0.41727291112281506 1.0062499851138813
9.4174453125 -0.41399634656934114 1.0030317284296744
9.41859375 -0.4190109505101884 1.0044548930885924
9.4197421875 -0.42147968461291485 1.003175671625879
9.420890625 -0.423037748396178 1.0026205836182063
9.4220390625 -0.4263935793850729 1.000982005095178
9.4231875 -0.42792366552075545 0.999909088513011
9.4243359375 -0.4302277279360932 0.9989920512617674
9.425484375 -0.4309274785217704 0.9971454545092124
9.4266328125 -0.43542956766819574 0.9967317077222552
9.42778125 -0.43753284758705296 0.9970345337724476
9.4289296875 -0.4377862381378592 0.995067421399285
9.430078125 -0.4411944356847842 0.9957844286544347
9.4312265625 -0.4440682363064802 0.9947019827624399
9.432375 -0.4443643039792437 0.9930240700281592
9.4335234375 -0.44619937767651807 0.9926527206568476
9.434671875 -0.4483807510908429 0.9922243212768748
9.4358203125 -0.4505124386429462 0.9917630846690126
9.43696875 -0.45017016540584287 0.9896995296354383
9.4381171875 -0.45192208431329794 0.9909051157894986
9.439265625 -0.45428919707926024 0.9881343560464042
9.4404140625 -0.4551133552392237 0.9861163185947537
9.4415625 -0.45926365499360394 0.9854814874482309
9.4427109375 -0.4609170455833203 0.9839576672654339
9.443859375 -0.4614607949624705 0.982675621153069
9.4450078125 -0.4646518579404788 0.9821212061661195
9.44615625 -0.46701916990359127 0.9809490862413592
9.4473046875 -0.46888732311851333 0.9791553810433166
9.448453125 -0.4706061459113847 0.9795619873286913
9.4496015625 -0.4737780688657861 0.9784657327773738
9.45075 -0.47571307125198037 0.976900215430809
9.4518984375 -0.47650532573881366 0.9769611881882612
9.453046875 -0.47884844552970807 0.9771882166890975
9.4541953125 -0.4824931576561875 0.9758859254812524
9.45534375 -0.4829983923121876 0.9754030541406055
9.4564921875 -0.48471485019609695 0.9750273889577967
9.457640625 -0.4860526665605098 0.9751189023756246
9.4587890625 -0.48700591822484196 0.9736203432300794
9.4599375 -0.48893057301267606 0.9730332983122835
9.4610859375 -0.4921973957902522 0.9734267662286876
9.462234375 -0.493589707537903 0.973269336143292
9.4633828125 -0.4933606619923303 0.9704993007007648
9.46453125 -0.4971347432956182 0.9696569594654431
9.4656796875 -0.4988521497778201 0.9699671141541382
9.466828125 -0.4985443534584437 0.9689854108489717
9.4679765625 -0.5007177326981206 0.9695468915077893
9.469125 -0.5037222235417317 0.9679356903482162
9.4702734375 -0.5038076757903412 0.9665568392604686
9.471421875 -0.506663302035703 0.9654078855917541
9.4725703125 -0.5095235289280509 0.9652285408481383
9.47371875 -0.5112140555318649 0.9646787570055201
9.4748671875 -0.5116964129583746 0.9620047295497498
9.476015625 -0.5146028793903166 0.9614125285880594
9.4771640625 -0.5160165097162994 0.9603917829395888
9.4783125 -0.5158832736202328 0.9575011588598954
9.4794609375 -0.5185975382859952 0.9583819186421394
9.480609375 -0.5213910440857701 0.9574459578466783
9.4817578125 -0.5213070608355482 0.9563191896723757
9.48290625 -0.5249786236535418 0.9552125290994466
9.4840546875 -0.5266706298331356 0.9542891635510147
9.485203125 -0.5269959214987417 0.9543288322481688
9.4863515625 -0.5296742253582934 0.952648609084718
9.4875 -0.531206804663292 0.9528252240643043
9.4886484375 -0.5340227492942028 0.9511443308598364
9.489796875 -0.5328020185061613 0.9493042188312445
9.4909453125 -0.5371640500863749 0.949097607871527
9.49209375 -0.5388960093214931 0.9483151771511167
9.4932421875 -0.5381816666848053 0.946859827382581
9.494390625 -0.5420794759297902 0.9456810766826359
9.4955390625 -0.5435505655568916 0.9451206549743184
9.4966875 -0.5449984723101361 0.9423389739347245
9.4978359375 -0.5465267173918698 0.9429989043459022
9.498984375 -0.5497116017291854 0.9419642500987715
9.5001328125 -0.5515513809805576 0.9405968143207668
9.50128125 -0.5526089688351157 0.9397286431638607
9.5024296875 -0.5546829816552379 0.9384216116102159
9.503578125 -0.5567963393804025 0.9372794027940241
9.5047265625 -0.5569815320605025 0.936630927691182
9.505875 -0.5596752485754908 0.9352402311306298
9.5070234375 -0.5620383397010168 0.934181956948738
9.508171875 -0.56042418318303 0.9324178744793667
9.5093203125 -0.5647594899673385 0.9322209117432845
9.51046875 -0.5673462253026221 0.9310734445769746
9.5116171875 -0.5676103358990268 0.9298188974770534
9.512765625 -0.5694780503087615 0.9281737143049408
9.5139140625 -0.5718782441442228 0.9263910700433172
9.5150625 -0.5742615892165297 0.9262334343491017
9.5162109375 -0.5741227944652433 0.9241232411256519
9.517359375 -0.5765948118324381 0.9236245316723601
9.5185078125 -0.5789184049850555 0.9223273038519155
9.51965625 -0.5790073535228505 0.921935549989703
9.5208046875 -0.5818010656813316 0.9211072178566664
9.521953125 -0.5840356599041246 0.9202021157780482
9.5231015625 -0.5842020514971542 0.9189315591802
9.52425 -0.5873857524197281 0.9179830851254394
9.5253984375 -0.5891210800819754 0.9160564173877668
9.526546875 -0.5891834326228633 0.9154935919485194
9.5276953125 -0.5920652711612399 0.9147829125928024
9.52884375 -0.5941983021169668 0.9132998109690702
9.5299921875 -0.5960283489548923 0.9119229814568524
9.531140625 -0.596309644635731 0.9103311571803936
9.5322890625 -0.5995493061379171 0.9099291731931781
9.5334375 -0.6009963984834941 0.9082908547155899
9.5345859375 -0.6005446756052446 0.907020349344441
9.535734375 -0.6041185703216324 0.9063510762662714
9.5368828125 -0.6067919788646257 0.9048932267484457
9.53803125 -0.6062707716020643 0.9034825749788278
9.5391796875 -0.6082283263058739 0.9034174956440821
9.540328125 -0.6103521432861536 0.902789724066432
9.5414765625 -0.6130959257950768 0.9014818928540125
9.542625 -0.6136557111547152 0.9010526572361042
9.5437734375 -0.6159698876785855 0.9000545714370323
9.544921875 -0.6175524833523282 0.8987208438976546
9.5460703125 -0.6173936472657651 0.8960957264567222
9.54721875 -0.6210859243226754 0.8954630548990123
9.5483671875 -0.6233884963150695 0.8947115219309856
9.549515625 -0.6228948148135404 0.8931164029912928
9.5506640625 -0.62541770920725 0.8921644906062604
9.5518125 -0.6273518821655106 0.8911164545949625
9.5529609375 -0.6275944352132716 0.8894199209786473
9.554109375 -0.6303595627940815 0.8888908058170488
9.5552578125 -0.6327197379954723 0.886836846243145
9.55640625 -0.6344818120473372 0.8855428946221746
9.5575546875 -0.6335777595313489 0.8853572119054268
9.558703125 -0.6365899259531923 0.8836571721727287
9.5598515625 -0.6390819005203345 0.8828323945091993
9.561 -0.6387107415827291 0.8817120527667821
9.5621484375 -0.6410885890012139 0.8812886238900653
9.563296875 -0.6426219990702142 0.8800185448797813
9.5644453125 -0.6433516014939895 0.8778679593314678
9.56559375 -0.6451695350042417 0.8778191485527735
9.5667421875 -0.6477082707044246 0.8762541477767155
9.567890625 -0.6493023268536968 0.8742408171040656
9.5690390625 -0.6493014241284192 0.8727250691452352
9.5701875 -0.6528378541800859 0.8719314980880197
9.5713359375 -0.6545188873282013 0.8711197166380009
9.572484375 -0.6532463242527254 0.8704364583043033
9.5736328125 -0.6574330626446758 0.8679987479501527
9.57478125 -0.6589216600268135 0.8670715169078681
9.5759296875 -0.6587531784554314 0.8651429028287725
9.577078125 -0.6619369365990917 0.8636165224352206
9.5782265625 -0.6642632811352259 0.8627030770382467
9.579375 -0.664354345220644 0.8612104824766964
9.5805234375 -0.6662218198803072 0.8596026530255381
9.581671875 -0.6680928341071886 0.8595481058695268
9.5828203125 -0.6695138140528714 0.85688887413817
9.58396875 -0.6704021322064504 0.8554432895003024
9.5851171875 -0.6729554283936472 0.8546455213440561
9.586265625 -0.6734562236083556 0.8528971360071653
9.5874140625 -0.6728334209782858 0.8519624130541055
9.5885625 -0.6769890528750231 0.8507720716085648
9.5897109375 -0.6785589648413569 0.8495582995309634
9.590859375 -0.6784894451209913 0.8470591825783425
9.5920078125 -0.6809487422876764 0.8459491450511509
9.59315625 -0.6828993049338967 0.8450172422658042
9.5943046875 -0.6833786689783534 0.8434389196918615
9.595453125 -0.6853207465687575 0.8420295127178331
9.5966015625 -0.6874866266071409 0.8398084677787505
9.59775 -0.6895016017586043 0.8391452173830587
9.5988984375 -0.6884946698401925 0.8377919990433497
9.600046875 -0.6923444625274078 0.8360957163230405
9.6011953125 -0.6940190357809575 0.8349326539676029
9.60234375 -0.6936862452546461 0.8331284350516909
9.6034921875 -0.6962882324511808 0.8325316178062784
9.604640625 -0.6985386901606256 0.8306367004182366
9.6057890625 -0.6992360948150487 0.8293349826970643
9.6069375 -0.7018749405582165 0.8273782274041467
9.6080859375 -0.7038498759652475 0.8276337168695862
9.609234375 -0.705393236304531 0.8261400963192389
9.6103828125 -0.7055838282778593 0.8246700421839738
9.61153125 -0.708025348271317 0.8229873553038327
9.6126796875 -0.709511473911976 0.8221581524460208
9.613828125 -0.7092153006867865 0.8203658113800727
9.6149765625 -0.7129485593817507 0.8198907457209095
9.616125 -0.7147954489990932 0.8179776584515551
9.6172734375 -0.7149372671260941 0.816224551778328
9.618421875 -0.717153546634905 0.8155991783456847
9.6195703125 -0.7196166125587281 0.813893269469278
9.62071875 -0.7201848758564979 0.8129285623536413
9.6218671875 -0.7212813298822107 0.8119203106287234
9.623015625 -0.7228978616139208 0.810902337239308
9.6241640625 -0.7250448175877194 0.8092237302962069
9.6253125 -0.7241513806250253 0.8077966070624305
9.6264609375 -0.727379556999143 0.8061149455857755
9.627609375 -0.7297967547517026 0.8052569623957989
9.6287578125 -0.7291075363027708 0.8029543767219216
9.62990625 -0.7314126336917707 0.8022856839979358
9.6310546875 -0.7337025226590819 0.8011507778857889
9.632203125 -0.7338502134075827 0.7984858296710283
9.6333515625 -0.735698633674041 0.797925556769699
9.6345 -0.7381694385129572 0.7975126201869625
9.6356484375 -0.7403912564804209 0.7955288996123779
9.636796875 -0.7410235780403596 0.7945593942689841
9.6379453125 -0.7430747883948735 0.7925590672851589
9.63909375 -0.7454805962570601 0.7916590904547728
9.6402421875 -0.7440068641601696 0.789405956639073
9.641390625 -0.7470654615907713 0.7887407676479622
9.6425390625 -0.7489806372062304 0.788805986032048
9.6436875 -0.7479638714242101 0.7868630710525679
9.6448359375 -0.7507059386038462 0.784755079919048
9.645984375 -0.7531748645905036 0.7839621117561465
9.6471328125 -0.7533870043501405 0.7822462456587806
9.64828125 -0.7555042480834249 0.7814187645969785
9.6494296875 -0.7586892327512186 0.7794380744823601
9.650578125 -0.7589020068203095 0.7761444479724839
9.6517265625 -0.7579425676919099 0.7759388470878755
9.652875 -0.7612900645654317 0.7744137145163628
9.6540234375 -0.764289862554488 0.7725887287472208
9.655171875 -0.7634794203003492 0.7718920586862572
9.6563203125 -0.7666115646613363 0.7697065374006061
9.65746875 -0.7680795731463808 0.7682849822448481
9.6586171875 -0.768293285663147 0.7672800357243643
9.659765625 -0.7703567723639186 0.7650982082165727
9.6609140625 -0.7724512484709649 0.7642702430445427
9.6620625 -0.774079033859226 0.7628326656731865
9.6632109375 -0.7751328069251292 0.7615605297776047
9.664359375 -0.7774905319726673 0.7600578827928325
9.6655078125 -0.7794029047399851 0.7595673205159257
9.66665625 -0.7779111096105257 0.7580358060444012
9.6678046875 -0.781411919158279 0.755673570016369
9.668953125 -0.7829590836834753 0.7542746735308815
9.6701015625 -0.7828578588269681 0.7536900081100181
9.67125 -0.78562068948946 0.7517483699005363
9.6723984375 -0.7878695020461612 0.7501779396655203
9.673546875 -0.788022221822096 0.7492100011901077
9.6746953125 -0.7882759360254141 0.7476219723179721
9.67584375 -0.7909151103942678 0.7459996957119555
9.6769921875 -0.7923293932436972 0.7453599940149703
9.678140625 -0.7909051307649679 0.7437000826350004
9.6792890625 -0.7934909863969641 0.7419317328324785
9.6804375 -0.7955629787351698 0.7398735664974254
9.6815859375 -0.7945521537061384 0.7390409331345544
9.682734375 -0.7977314131605566 0.737434389696067
9.6838828125 -0.8000131822680636 0.7359454344412771
9.68503125 -0.7994021955927961 0.734747677706292
9.6861796875 -0.8009078456730733 0.7326086058446616
9.687328125 -0.8029615548188234 0.7314839351415401
9.6884765625 -0.8047045474018713 0.7296522061048942
9.689625 -0.8045947370009219 0.7284622198446762
9.6907734375 -0.8069355213162475 0.7271881163049981
9.691921875 -0.8086858517935862 0.7266786326251732
9.6930703125 -0.8076939409387132 0.725181084269454
9.69421875 -0.8106699439221148 0.7227350075245589
9.6953671875 -0.8125395589433771 0.7210619356330474
9.696515625 -0.8124033980624736 0.7203835330114015
9.6976640625 -0.8146392108925993 0.7184931321862645
9.6988125 -0.8166555820598214 0.7175519903525852
9.6999609375 -0.8166019835215153 0.7163928308777038
9.701109375 -0.8180818339011486 0.7150497192646932
9.7022578125 -0.8201219338866329 0.7131345378721389
9.70340625 -0.8219930548560328 0.7119908128399807
9.7045546875 -0.8212007676587043 0.7110625581188219
9.705703125 -0.823879734938668 0.7091846644865578
9.7068515625 -0.8260622396314411 0.707896720469323
9.708 -0.8247171898531068 0.7065918436952827
9.7091484375 -0.8273227003998077 0.7049464525485414
9.710296875 -0.8287828744957073 0.7027779074209872
9.7114453125 -0.8285105216752195 0.7017353131427841
9.71259375 -0.8307301371705071 0.6996512903056991
9.7137421875 -0.8324586347092058 0.6983557948026509
9.714890625 -0.8328091611460567 0.6976472420056938
9.7160390625 -0.8336363501092847 0.696178680711049
9.7171875 -0.8355143640524427 0.6940917135528101
9.7183359375 -0.8374615998591749 0.6923719191400862
9.719484375 -0.8367193918741275 0.6910676256744153
9.7206328125 -0.8392639388590912 0.6897139929187305
9.72178125 -0.8414568645151607 0.6879275677595578
9.7229296875 -0.8408967521499406 0.6865288731146965
9.724078125 -0.8435218014738506 0.6854118924262369
9.7252265625 -0.8448424890112305 0.6839630417424417
9.726375 -0.8445629675943571 0.6823118281725233
9.7275234375 -0.8460911109034409 0.6810325029141204
9.728671875 -0.8478498319772654 0.6789708921400288
9.7298203125 -0.8496562312663714 0.6772381552804053
9.73096875 -0.8483800995434385 0.6764054250533248
9.7321171875 -0.8514860872539629 0.673784535289319
9.733265625 -0.8531901526759847 0.6729301300884919
9.7344140625 -0.851441640214214 0.6726753526902653
9.7355625 -0.854410311766721 0.6707098837361154
9.7367109375 -0.8563962913708946 0.6695613857784856
9.737859375 -0.8549511856516196 0.6679480944259788
9.7390078125 -0.8571783974847662 0.6663370244688079
9.74015625 -0.8594424840580228 0.6644382401089034
9.7413046875 -0.8592859694716921 0.6634801760176701
9.742453125 -0.8609773600642036 0.661669447961722
9.7436015625 -0.8624127525224281 0.6597894924461152
9.74475 -0.8636135490720811 0.6580978544165585
9.7458984375 -0.8636856731291374 0.6567531323300491
9.747046875 -0.8659999704500462 0.6547157526614401
9.7481953125 -0.8683168993685406 0.6529383601302053
9.74934375 -0.8667491354644105 0.6514317469980312
9.7504921875 -0.8694760623455506 0.6496998194619759
9.751640625 -0.8711064171106534 0.6488581329615573
9.7527890625 -0.8716380144091753 0.6482502401685016
9.7539375 -0.873278751736109 0.6468724558453864
9.7550859375 -0.8743012401532776 0.6447608370870719
9.756234375 -0.8746504507571924 0.6429244295446647
9.7573828125 -0.8754547076994059 0.6415486395855317
9.75853125 -0.8768974623293987 0.6396140913051593
9.7596796875 -0.8782779528213566 0.6380024924879107
9.760828125 -0.8770898837288754 0.6377744171812569
9.7619765625 -0.8802411060158781 0.6358747759385606
9.763125 -0.8815851047317798 0.6341757487547609
9.7642734375 -0.8811343446512409 0.6328915674793909
9.765421875 -0.8830592422556129 0.6304946420008519
9.7665703125 -0.8845694901277572 0.6285814809725832
9.76771875 -0.8850486182923134 0.6275637568849118
9.7688671875 -0.886136483871371 0.6245271949254875
9.770015625 -0.8862831867441163 0.6235813579407348
9.7711640625 -0.8889777571955696 0.6214423270529796
9.7723125 -0.8880981156627001 0.6213515852977144
9.7734609375 -0.8907564105508257 0.6196537710745147
9.774609375 -0.8930550696341694 0.6189152264565947
9.7757578125 -0.8908712764402318 0.6176123927735152
9.77690625 -0.8935674784284439 0.6153014730398936
9.7780546875 -0.895095425428806 0.6127182173081236
9.779203125 -0.8943218562182799 0.6112834559321837
9.7803515625 -0.8964892820751978 0.6095354636516015
9.7815 -0.897976008058682 0.6083707278380133
9.7826484375 -0.8988426848952232 0.6069695101848936
9.783796875 -0.8996125194835625 0.6045667739629123
9.7849453125 -0.9016085660728201 0.6031199156486058
9.78609375 -0.9027522430287294 0.6021626910433163
9.7872421875 -0.9009454587788179 0.6001063779093927
9.788390625 -0.9035934635427993 0.5988913250735715
9.7895390625 -0.9057650540908414 0.5959760411099473
9.7906875 -0.9051148291974531 0.5953136301618198
9.7918359375 -0.907303701014653 0.5932527691218901
9.792984375 -0.9080869838842107 0.5912405930405039
9.7941328125 -0.9072344783964761 0.5902122585178119
9.79528125 -0.90963973998222 0.5886990159601239
9.7964296875 -0.9113545375168601 0.5866235744261601
9.797578125 -0.9121438985803377 0.5858794949794506
9.7987265625 -0.9127745645975385 0.5836746254993004
9.799875 -0.9139001690865245 0.5829367271613304
9.8010234375 -0.9153541726884038 0.5802967775410708
9.802171875 -0.9140192751682874 0.5797611069694969
9.8033203125 -0.9171714718551615 0.5778812490124643
9.80446875 -0.9176246766507441 0.5762825865768983
9.8056171875 -0.9173485331880649 0.5749544664815924
9.806765625 -0.9192437679560614 0.5723350463276005
9.8079140625 -0.9206973445916142 0.5712883904871253
9.8090625 -0.9202709165346846 0.5699413404036191
9.8102109375 -0.922143734644315 0.568852172419201
9.811359375 -0.9232816172259264 0.5666545119270492
9.8125078125 -0.9244112715075012 0.5644124189011368
9.81365625 -0.9204359221236441 0.5637145395577632
9.8148046875 -0.9260869847090187 0.5623541685364506
9.815953125 -0.9278650769867721 0.5604109739846207
9.8171015625 -0.9290635754555592 0.5587084132331318
9.81825 -0.928866243181724 0.5565777710699615
9.8193984375 -0.9304213805456508 0.5548194815035522
9.820546875 -0.9311700918884409 0.5533893765845814
9.8216953125 -0.9306645865528191 0.5510490446207323
9.82284375 -0.9319862659778759 0.5498994239588351
9.8239921875 -0.9348776693271343 0.5479796834303916
9.825140625 -0.9326449114335623 0.5473389325484675
9.8262890625 -0.9352817272057908 0.5455328308739984
9.8274375 -0.9370389220137042 0.5438590852739573
9.8285859375 -0.9348998264178842 0.5425115516160398
9.829734375 -0.9374694848849093 0.5412309392351349
9.8308828125 -0.9375199195686914 0.5391621713904713
9.83203125 -0.9377495556325017 0.537149095408977
9.8331796875 -0.9398115369593452 0.5356587871453762
9.834328125 -0.9406169589675556 0.5336992968744771
9.8354765625 -0.9420025881766995 0.5327491049116281
9.836625 -0.9409706209571366 0.5312574532732366
9.8377734375 -0.942432568178975 0.5301103580665866
9.838921875 -0.9441453329631198 0.5285248549491076
9.8400703125 -0.942426078557097 0.5268179104335912
9.84121875 -0.9454115695796663 0.5254470607394297
9.8423671875 -0.9461237754047201 0.5233027541698392
9.843515625 -0.9450658701145594 0.522644473252872
9.8446640625 -0.9470742112274044 0.5209646953395988
9.8458125 -0.9486063254253008 0.5200641584972869
9.8469609375 -0.9488860889898967 0.5172915998897234
9.848109375 -0.9487421738598786 0.5154310819802593
9.8492578125 -0.950593410188539 0.5138380754814469
9.85040625 -0.9520806079520086 0.5115779211265201
9.8515546875 -0.950012521594565 0.5108240958786079
9.852703125 -0.9535146725147001 0.5077299672626688
9.8538515625 -0.9549597152201976 0.506809255065302
9.855 -0.9534344285961232 0.5061733907050283
9.8561484375 -0.9555623874877428 0.5043283324934569
9.857296875 -0.957229809480226 0.5021131473915126
9.8584453125 -0.9566070533128648 0.49983390287394747
9.85959375 -0.9578228295918989 0.49937742412517094
9.8607421875 -0.9593522769718977 0.49721119081039467
9.861890625 -0.9602067486152162 0.49622540042491886
9.8630390625 -0.9592667595439996 0.49478038041291955
9.8641875 -0.9620544947851487 0.49344345302623505
9.8653359375 -0.96256196572606 0.4914069910751251
9.866484375 -0.9609447071412571 0.48953379711218004
9.8676328125 -0.9632761095568353 0.4873637114175694
9.86878125 -0.963806604487816 0.4847652300878159
9.8699296875 -0.9624724724313786 0.48365516453010793
9.871078125 -0.9648693502438788 0.4820683065788418
9.8722265625 -0.9666145663978603 0.479636768707557
9.873375 -0.9668613554712273 0.47857499062811315
9.8745234375 -0.967676229652696 0.47640543837039095
9.875671875 -0.9694414479441025 0.4750947852100049
9.8768203125 -0.9711146908122988 0.4740971413614096
9.87796875 -0.9697715112596523 0.4724004239070796
9.8791171875 -0.9720905140482091 0.4701883761377248
9.880265625 -0.973293981977388 0.46894330693049635
9.8814140625 -0.9718416641682899 0.4686737220612656
9.8825625 -0.9744232205470502 0.46563336503359026
9.8837109375 -0.9750236470545967 0.4639658050306704
9.884859375 -0.9750685859645851 0.46250428734906673
9.8860078125 -0.9757416931194007 0.4613696433807538
9.88715625 -0.976916552917514 0.45877740249972976
9.8883046875 -0.9786696688549837 0.45640692222012863
9.889453125 -0.9783869741127285 0.45553029900392294
9.8906015625 -0.9791949560568249 0.45384201386083095
9.89175 -0.980867128733871 0.4518088514090282
9.8928984375 -0.9789079468619535 0.45178293896922367
9.894046875 -0.9806309885621182 0.4493307146223095
9.8951953125 -0.9822712902548083 0.44778924779920504
9.89634375 -0.9819232440077292 0.44724695661887026
9.8974921875 -0.9834049477596813 0.44503333225020675
9.898640625 -0.9848280100610665 0.4432822480339842
9.8997890625 -0.9838676932568313 0.44069635741905583
9.9009375 -0.9844163776302017 0.440157140090545
9.9020859375 -0.9867585287177898 0.4382690312472919
9.903234375 -0.9880231007333016 0.4369218975595647
9.9043828125 -0.9874674021673293 0.43606362335572296
9.90553125 -0.9883226046327389 0.43440259709037665
9.9066796875 -0.9888263663250602 0.4329296899955253
9.907828125 -0.9876063119636336 0.4311377355226357
9.9089765625 -0.9895332867543306 0.4304479642223328
9.910125 -0.9905327767150347 0.4286620018935522
9.9112734375 -0.9907742296555765 0.4264400747873013
9.912421875 -0.9912125457140092 0.4252948179041419
9.9135703125 -0.9920957451208396 0.4241495065804972
9.91471875 -0.9928698610261789 0.4217126629742444
9.9158671875 -0.9919986285406075 0.42138711999156264
9.917015625 -0.9946558160555055 0.4182021462142983
9.9181640625 -0.9952683677782097 0.41733792814344817
9.9193125 -0.992841469250846 0.41678081104148035
9.9204609375 -0.9957163086315285 0.4146914042366481
9.921609375 -0.9965060718769008 0.41459152708795927
9.9227578125 -0.9947156419069106 0.41387879254836524
9.92390625 -0.9958566771323992 0.4119066697243928
9.9250546875 -0.9956750604094347 0.4097228733416419
9.926203125 -0.9963511851717002 0.40840471919741006
9.9273515625 -0.9967317694927198 0.40774944503683397
9.9285 -0.9957624982012383 0.4048930697479234
9.9296484375 -0.9967177374816438 0.40349553106312724
9.930796875 -0.9958202871519264 0.4008865093892162
9.9319453125 -0.9969658265630971 0.39884072847326413
9.93309375 -0.9967230884665608 0.3973535298422807
9.9342421875 -0.9943438196519265 0.3962677885266581
9.935390625 -0.9959555365483015 0.39463419379812387
9.9365390625 -0.9964026844192834 0.3917724556764859
9.9376875 -0.996281956419653 0.391042765891365
9.9388359375 -0.9964344079182087 0.3889225274304776
9.939984375 -0.9970865431285174 0.38591582201352503
9.9411328125 -0.9975528679494448 0.38364460714251464
9.94228125 -0.9978729209423528 0.3813278278296518
9.9434296875 -0.9995718938944831 0.3791313786153781
9.944578125 -1.0008912978654536 0.3773836969984238
9.9457265625 -1.0000314465235207 0.3767981311711098
9.946875 -1.0015593946016232 0.3751133095672492
9.9480234375 -1.0014620747027354 0.373798470620318
9.949171875 -1.0004463826889713 0.37124610095254806
9.9503203125 -1.000803793146801 0.3677896959923166
9.95146875 -1.0013342518339865 0.3652238255498442
9.9526171875 -1.0025869767572508 0.36359123101100305
9.953765625 -1.0025706152428087 0.36084104040968856
9.9549140625 -1.003752264318437 0.35928181107720036
9.9560625 -1.0051633466250292 0.3551815358575729
9.9572109375 -1.0053595805680575 0.35478148540433035
9.958359375 -1.00676812138444 0.3528972609787054
9.9595078125 -1.0081034533294466 0.35107467770972617
9.96065625 -1.004955500159752 0.3508025337152187
9.9618046875 -1.0065089388714665 0.3475696978866587
9.962953125 -1.007522366212266 0.345303332143851
9.9641015625 -1.0069760577645628 0.3431515497416751
9.96525 -1.007490471724839 0.34162176428632285
9.9663984375 -1.0104515027949268 0.33765060155754056
9.967546875 -1.0100720079974508 0.33702631363968394
9.9686953125 -1.0108118990358337 0.3339357299198412
9.96984375 -1.0109343651398541 0.3313701412920227
9.9709921875 -1.0131814234023726 0.3306174704837921
9.972140625 -1.0116314833192763 0.32820961693858663
9.9732890625 -1.0137568482435275 0.32497826474773894
9.9744375 -1.0157301157807868 0.3225161189008102
9.9755859375 -1.015960369341742 0.32246498298790616
9.976734375 -1.0173515252757315 0.31958101118613347
9.9778828125 -1.0175316345498566 0.3196934566421984
9.97903125 -1.0173714760239925 0.3165635750554687
9.9801796875 -1.0176892647840732 0.31258242785668233
9.981328125 -1.0183602953587496 0.3134481198517546
9.9824765625 -1.0192077954661884 0.31242465088541627
9.983625 -1.0190413098215263 0.3115906634172816
9.9847734375 -1.019864174342631 0.3094391916200874
9.985921875 -1.0202606182362772 0.3071742008744507
9.9870703125 -1.0185333242233072 0.3061324862680743
9.98821875 -1.0224424264013763 0.3034276147524997
9.9893671875 -1.0221237819012736 0.3008835947590741
9.990515625 -1.0212447716151192 0.2989605458873048
9.9916640625 -1.024064096952967 0.2971619355961739
9.9928125 -1.0245893352858746 0.2948776117774724
9.9939609375 -1.0247732926177893 0.29294969941006643
9.995109375 -1.0256259365225864 0.2900631249511143
9.9962578125 -1.0274289294881223 0.2874196062092075
9.99740625 -1.0282945879493035 0.2856798696103581
9.9985546875 -1.0272987132464704 0.28516478487538766
9.999703125 -1.0293191421579142 0.2827624463369314
10.0008515625 -1.0312680632884303 0.2806488694200243
10.002 -1.032831436914804 0.27909452324485484
10.0031484375 -1.0354693981909158 0.27882745579918666
10.004296875 -1.0331828960032983 0.27733032422871395
10.0054453125 -1.034477881244786 0.2758523546997892
10.00659375 -1.035967798993236 0.27480331856737394
10.0077421875 -1.034652668561052 0.27354455868295957
10.008890625 -1.0362045047438722 0.2720346682502871
10.0100390625 -1.0379150267290806 0.27078891683604633
10.0111875 -1.037341230005406 0.26985578074610084
10.0123359375 -1.037735265833338 0.2680580489332327
10.013484375 -1.0394532591212118 0.26631109031610234
10.0146328125 -1.039666469152848 0.2649479072079356
10.01578125 -1.0390188854381746 0.2630306573872133
10.0169296875 -1.0403718541238405 0.26165907863012006
10.018078125 -1.0412939794407907 0.2600534139725207
10.0192265625 -1.0402756934692734 0.25943693444407845
10.020375 -1.0412856817451601 0.2573607230018361
10.0215234375 -1.0423737904258752 0.25488072361939257
10.022671875 -1.0415889336285482 0.25414742733012136
10.0238203125 -1.042574935322484 0.2525139866010216
10.02496875 -1.0450012729607778 0.2510241909264588
10.0261171875 -1.0450718282369347 0.24948829656551758
10.027265625 -1.044801863362631 0.24794547095021113
10.0284140625 -1.0461093600043019 0.2453678920668313
10.0295625 -1.0458547699522631 0.24475491778897407
10.0307109375 -1.0453422514023945 0.24337312380759218
10.031859375 -1.047723491621784 0.24174014274770583
10.0330078125 -1.0484204096513157 0.239714459816445
10.03415625 -1.0465342686404338 0.23889890418387022
10.0353046875 -1.0486620359859105 0.23703603917142696
10.036453125 -1.0505069770528828 0.2355613274780431
10.0376015625 -1.0489343789983998 0.23418195394435382
10.03875 -1.0494977472565201 0.23251099578904721
10.0398984375 -1.0507318781567334 0.23051684138228956
10.041046875 -1.0501373873574953 0.22928138504887235
10.0421953125 -1.049393523193292 0.22777203206265312
10.04334375 -1.050853953476556 0.22508334351901332
10.0444921875 -1.0518782493212864 0.22193518684072588
10.045640625 -1.050163945067006 0.22162726471968008
10.0467890625 -1.0507617237945721 0.22119314389102324
10.0479375 -1.0524574876775368 0.21941032180090025
10.0490859375 -1.0513348843494292 0.21826792065225492
10.050234375 -1.052413754094283 0.21683522072319783
10.0513828125 -1.0526860228750112 0.2149844655168207
10.05253125 -1.0510077368487498 0.2137220456745007
10.0536796875 -1.052157360025309 0.2109661980168735
10.054828125 -1.055352812456917 0.20981266607920884
10.0559765625 -1.0547915274091098 0.20705921486144657
10.057125 -1.0547352892316166 0.20646405942549323
10.0582734375 -1.0553394877856592 0.20383143285039979
10.059421875 -1.0561369347108425 0.2022013517287649
10.0605703125 -1.0547307164701918 0.20184583329477518
10.06171875 -1.0554189480222604 0.19995109067351752
10.0628671875 -1.0567792966037317 0.1984816236276164
10.064015625 -1.05643056407829 0.1978478733913297
10.0651640625 -1.0574820289061426 0.19601212606265211
10.0663125 -1.0578119541851976 0.19429143771695567
10.0674609375 -1.0582419475782605 0.1927784493841564
10.068609375 -1.0586876272200814 0.1916468787752828
10.0697578125 -1.0599444750122475 0.1903354702343964
10.07090625 -1.0603982875652902 0.1892695021989406
10.0720546875 -1.0594570812243163 0.1887310905433196
10.073203125 -1.06101814423706 0.1860068087595546
10.0743515625 -1.0619196794272898 0.18490927295544174
10.0755 -1.060321267302907 0.18454801871922116
10.0766484375 -1.0612438137327702 0.18304975331434434
10.077796875 -1.0612134678322733 0.18053649651023423
10.0789453125 -1.0612186374631554 0.18047724662343687
10.08009375 -1.0605189735492733 0.17930511177254838
10.0812421875 -1.0615034572479416 0.17774471531993274
10.082390625 -1.0625325662325755 0.17644379626068918
10.0835390625 -1.0609742982627615 0.17576414587526817
10.0846875 -1.0624675500197407 0.17363267721365577
10.0858359375 -1.0632901801579386 0.17265006985993103
10.086984375 -1.0625926425549594 0.17220192684299607
10.0881328125 -1.0628241848193047 0.1707973195729261
10.08928125 -1.0638345158170748 0.16934396031016047
10.0904296875 -1.0628151612015921 0.16972136343453276
10.091578125 -1.0627927039039529 0.1690515315527461
10.0927265625 -1.0630170328949982 0.16720374225423446
10.093875 -1.0616499420398688 0.16630199293817854
10.0950234375 -1.061578359362366 0.16534047066596985
10.096171875 -1.0615374761510843 0.16335446073528287
10.0973203125 -1.061069827127927 0.16325737031882354
10.09846875 -1.0582469861470878 0.1618565929114008
10.0996171875 -1.0585349152712447 0.15998167499128835
10.100765625 -1.0585590641391591 0.1589362375071247
10.1019140625 -1.0561582613101332 0.1569138730283473
10.1030625 -1.0561709239265116 0.15448873687337422
10.1042109375 -1.0560461390478146 0.15092873872371548
10.105359375 -1.0554046742247356 0.15012354406320072
10.1065078125 -1.0550433631675784 0.14883660573921276
10.10765625 -1.0561669322710003 0.14598258840785827
10.1088046875 -1.0560846500343404 0.1432108022814083
10.109953125 -1.054654938885977 0.142800901018452
10.1111015625 -1.055762031380613 0.13903156627522334
10.11225 -1.0555866485746797 0.13658164769408193
10.1133984375 -1.054079443860561 0.13640055706956777
10.114546875 -1.0543489258509 0.1327952219241838
10.1156953125 -1.057088211618118 0.13145925118942237
10.11684375 -1.056276757969494 0.12771309027069688
10.1179921875 -1.0551011346765475 0.127546183116851
10.119140625 -1.0562579653810298 0.12425774050655558
10.1202890625 -1.0560473529431924 0.12318257040713038
10.1214375 -1.0553390556177096 0.12082822854969982
10.1225859375 -1.056059119081234 0.11804210656562675
10.123734375 -1.0556615953697956 0.11632749991298819
10.1248828125 -1.0560085670309522 0.11533874875967082
10.12603125 -1.055675416787794 0.11425376951131133
10.1271796875 -1.0548063787695698 0.11166399774753583
10.128328125 -1.0530769172757064 0.10890514334940304
10.1294765625 -1.0533142798946218 0.10647479842003105
10.130625 -1.0526537610968627 0.1045213070839609
10.1317734375 -1.0528721920116118 0.10233796158295044
10.132921875 -1.0522223299303888 0.09983165382450188
10.1340703125 -1.0527082912560528 0.09663499621096266
10.13521875 -1.0527962298081706 0.09452293714336835
10.1363671875 -1.052242685993491 0.09378831752396166
10.137515625 -1.0523402896185132 0.09154029901921945
10.1386640625 -1.0527260971135686 0.08870208405173918
10.1398125 -1.0520154511653605 0.08788985011100725
10.1409609375 -1.0535520853380782 0.08445115240745837
10.142109375 -1.053705062524537 0.08244485114465372
10.1432578125 -1.0521962029089011 0.081145652208514
10.14440625 -1.0520766097669445 0.07815862528806738
10.1455546875 -1.052434424943805 0.07519266982582051
10.146703125 -1.0522703209225934 0.07251189803441416
10.1478515625 -1.0522520241214046 0.0700739323444084
10.149 -1.0531121547354656 0.06710475914445868
10.1501484375 -1.053995888847075 0.06470859712117194
10.151296875 -1.0534129013766567 0.06360110695210441
10.1524453125 -1.0554079633830808 0.060125130362149615
10.15359375 -1.0566464482118727 0.057805414495334495
10.1547421875 -1.0553481273364527 0.0572640867656774
10.155890625 -1.0564595339918255 0.05414807639852104
10.1570390625 -1.057415719908958 0.05132758654750358
10.1581875 -1.0585805095429022 0.05023275738379762
10.1593359375 -1.059438353086769 0.04799945309976095
10.160484375 -1.0613715317059942 0.0444291045407047
10.1616328125 -1.0619535264972924 0.04338594420124431
10.16278125 -1.0620514684759983 0.04167166424751956
10.1639296875 -1.0639619165769214 0.039319421149099365
10.165078125 -1.0648475211778412 0.03909112792719105
10.1662265625 -1.0647779208219754 0.039284169635282695
10.167375 -1.0660477024152413 0.03678076195003688
10.1685234375 -1.0679255234860363 0.03487642592886164
10.169671875 -1.0659701278851756 0.0343853223851619
10.1708203125 -1.0669218657157062 0.031871232440404795
10.17196875 -1.0675443672923022 0.030132193785889827
10.1731171875 -1.0681170704153282 0.029570965960184603
10.174265625 -1.0685622892559254 0.02798302453542556
10.1754140625 -1.0701039296381825 0.02673704868661453
10.1765625 -1.071110450443705 0.025916831792376915
10.1777109375 -1.0706867473663857 0.02568981202199161
10.178859375 -1.0728516515040483 0.024633140285699406
10.1800078125 -1.0728273736393437 0.02410907759740688
10.18115625 -1.071988915876854 0.02401447829831116
10.1823046875 -1.0733600785156237 0.022467639936584627
10.183453125 -1.0721477451403598 0.021325905410337187
10.1846015625 -1.07216093039927 0.02071036326717446
10.18575 -1.0701017554383294 0.019583553900575645
10.1868984375 -1.072853840067595 0.01748888357865741
10.188046875 -1.0725976516590643 0.016458783061618742
10.1891953125 -1.070974784450132 0.01626365183846623
10.19034375 -1.0722606473181286 0.013222502657080581
10.1914921875 -1.072092552762765 0.012031192620781783
10.192640625 -1.0701641337336927 0.010862195796864982
10.1937890625 -1.0707600818847516 0.007927714018842624
10.1949375 -1.0712685421211277 0.006749647871736375
10.1960859375 -1.0692517607297904 0.006119751086427039
10.197234375 -1.0709664978079467 0.003986003224880741
10.1983828125 -1.0714876139391054 0.0005348382337576618
10.19953125 -1.0719935416331192 0.00111990015766128
10.2006796875 -1.07057348065731 -0.0006809568943138
10.201828125 -1.071147820516078 -0.0028604278279410478
10.2029765625 -1.0723036456981898 -0.0067008190961632685
10.204125 -1.0724675222614781 -0.005131554765812951
10.2052734375 -1.072460310347564 -0.0080949904244213
10.206421875 -1.0720972016982875 -0.008355706877859914
10.2075703125 -1.0712136500483775 -0.008937839311744356
10.20871875 -1.0714823952520571 -0.011349250272483291
10.2098671875 -1.0730513650189335 -0.01130073621191613
10.211015625 -1.0714343908689554 -0.012633578548288393
10.2121640625 -1.0704688473920299 -0.014055177140989916
10.2133125 -1.0687378867827007 -0.01666744385775948
10.2144609375 -1.0686207926375832 -0.016939895356713974
10.215609375 -1.0676539323439982 -0.019438992553563295
10.2167578125 -1.0683959868963915 -0.021509480816839455
10.21790625 -1.0680848484368013 -0.02406919609766056
10.2190546875 -1.066220080120809 -0.024926805497252458
10.220203125 -1.0672072620981836 -0.027527212423617664
10.2213515625 -1.0670465491039742 -0.028465376358458583
10.2225 -1.0664880619475103 -0.02911629001759186
10.2236484375 -1.0682758465713695 -0.03201415700442173
10.224796875 -1.0678336770720143 -0.03435898649368835
10.2259453125 -1.0666852239427396 -0.03567131807239876
10.22709375 -1.0671412554187407 -0.03792432985683536
10.2282421875 -1.067084612719058 -0.038888156218496006
10.229390625 -1.0682303191645999 -0.04029733719694373
10.2305390625 -1.065520806838686 -0.041141927082895324
10.2316875 -1.0661214137330726 -0.04428211117061864
10.2328359375 -1.0659830085972233 -0.045668825415957126
10.233984375 -1.0645116899460942 -0.04526299578236975
10.2351328125 -1.0644647623671906 -0.04946550651274617
10.23628125 -1.0645004575606598 -0.05145220901450154
10.2374296875 -1.0640121029030336 -0.052052841123644555
10.238578125 -1.06465566394098 -0.05460961514364998
10.2397265625 -1.0661034773983318 -0.0557761246034599
10.240875 -1.0657249549601795 -0.058283901638205515
10.2420234375 -1.0657256355586313 -0.058948047199495035
10.243171875 -1.0668158656837867 -0.060828694774260894
10.2443203125 -1.066807836385268 -0.06203487856993717
10.24546875 -1.0660669554774176 -0.06379346386030382
10.2466171875 -1.0666624104084295 -0.06529489972497726
10.247765625 -1.067460354516747 -0.06726036138020247
10.2489140625 -1.0673747517525014 -0.06618848020575799
10.2500625 -1.0653917289385266 -0.0686377556815152
10.2512109375 -1.0665048719498376 -0.07085348150103254
10.252359375 -1.065637654594972 -0.07080612701353808
10.2535078125 -1.0651607184425491 -0.07285074506357414
10.25465625 -1.0652756916156396 -0.07374531252753919
10.2558046875 -1.0659993055201789 -0.07621208608852026
10.256953125 -1.0650401284945157 -0.07754048395195146
10.2581015625 -1.0658083991932343 -0.07925192266230402
10.25925 -1.0664638083429387 -0.08104621340604401
10.2603984375 -1.0652692910149764 -0.08131935609892432
10.261546875 -1.066932428043443 -0.08331933324962659
10.2626953125 -1.0672977076964867 -0.0839499167665228
10.26384375 -1.0662915924768461 -0.08469012025373795
10.2649921875 -1.066777952266877 -0.08657801410591101
10.266140625 -1.0665484142514097 -0.08928464221662846
10.2672890625 -1.0654872587337847 -0.09003098007632343
10.2684375 -1.065383860460206 -0.09113251977441866
10.2695859375 -1.0649957374886359 -0.09407958371482802
10.270734375 -1.0644279034571058 -0.09656407518125293
10.2718828125 -1.0636331965875063 -0.09745454416206228
10.27303125 -1.0638901236965106 -0.09984524473492479
10.2741796875 -1.064155035740205 -0.10158350158276241
10.275328125 -1.0635244952691685 -0.10233031649559948
10.2764765625 -1.0640650997633974 -0.10581344736979509
10.277625 -1.0639120203283843 -0.10819238301038661
10.2787734375 -1.0629465652942813 -0.10825238346773108
10.279921875 -1.0631291043681181 -0.11019075189387151
10.2810703125 -1.0633959005365292 -0.1116455172700084
10.28221875 -1.062837985245776 -0.11281349206462657
10.2833671875 -1.0609685394328616 -0.11469502677375398
10.284515625 -1.061240469380886 -0.11659511908384868
10.2856640625 -1.0606513041682861 -0.11864289977303427
10.2868125 -1.0586958641943232 -0.11827980292635568
10.2879609375 -1.059278098629206 -0.12186626695360964
10.289109375 -1.0576846899673327 -0.1240674343732345
10.2902578125 -1.0559917796054779 -0.12487941524064594
10.29140625 -1.0561285599803156 -0.12773324832777355
10.2925546875 -1.0558252291918535 -0.1302879311793503
10.293703125 -1.054770336058449 -0.13094990193437517
10.2948515625 -1.0543751611340513 -0.13423818180474478
10.296 -1.0545857312879647 -0.1374239661819574
10.2971484375 -1.0549785881638827 -0.13880349213229595
10.298296875 -1.0538970962667853 -0.1413007306698727
10.2994453125 -1.0565798095212644 -0.14301001189359042
10.30059375 -1.055994746584974 -0.14652545599947397
10.3017421875 -1.0550473307244024 -0.1465831186101285
10.302890625 -1.0565348434487833 -0.1494331829370627
10.3040390625 -1.0566703691219823 -0.15109395222504726
10.3051875 -1.0566415982016597 -0.15132405016065592
10.3063359375 -1.0576566058832886 -0.15448051413134928
10.307484375 -1.0583884890120085 -0.1563243354597294
10.3086328125 -1.0593012991138187 -0.1566036638505991
10.30978125 -1.0578414494581772 -0.15877232004343778
10.3109296875 -1.057926036053626 -0.16005404586970778
10.312078125 -1.0599295102501403 -0.16023075240805018
10.3132265625 -1.05809572069431 -0.16097639019366466
10.314375 -1.05831639022317 -0.16252144690928233
10.3155234375 -1.058574571379522 -0.16449731329221562
10.316671875 -1.0572769628501968 -0.16664507431573844
10.3178203125 -1.057940003594676 -0.16954769941103576
10.31896875 -1.0582971079630599 -0.17196566891619347
10.3201171875 -1.0568172363597679 -0.17264641420254584
10.321265625 -1.0584240495348405 -0.17445792901236173
10.3224140625 -1.057172053784249 -0.1761726770193579
10.3235625 -1.0582446103255678 -0.1764762192837226
10.3247109375 -1.058281686152058 -0.1773819506258087
10.325859375 -1.0589042363028303 -0.17868042044455618
10.3270078125 -1.0590267955468313 -0.1792531973116378
10.32815625 -1.057542644260931 -0.1788096909349487
10.3293046875 -1.0575065096219174 -0.1812971134338936
10.330453125 -1.0568219198236144 -0.1832407628117032
10.3316015625 -1.05635658415527 -0.18372764364072092
10.33275 -1.0573101674781593 -0.18603104825232997
10.3338984375 -1.05708460151506 -0.18672187334213136
10.335046875 -1.0557438567029642 -0.18702965035161834
10.3361953125 -1.0555564672188609 -0.18834112516546875
10.33734375 -1.0553672056179106 -0.19006266620047912
10.3384921875 -1.0563035546692874 -0.19253468717241146
10.339640625 -1.0546492115745505 -0.19210178646946363
10.3407890625 -1.0550939546904385 -0.19560632769480207
10.3419375 -1.057309194842553 -0.19768050568541634
10.3430859375 -1.0556622150671666 -0.1974422470952188
10.344234375 -1.057540612726224 -0.20047874928137188
10.3453828125 -1.058511356424094 -0.1997206161225289
10.34653125 -1.0580632114993551 -0.19958430928047355
10.3476796875 -1.0567531676710156 -0.2012589740325489
10.348828125 -1.05624268074643 -0.20300278655053972
10.3499765625 -1.0557557580496995 -0.20404497523746612
10.351125 -1.0548841905876465 -0.20468274549003496
10.3522734375 -1.0551624584779422 -0.20709345252823302
10.353421875 -1.0554321258132031 -0.2089489917062805
10.3545703125 -1.0545791393100445 -0.2094208849817677
10.35571875 -1.0547822831025813 -0.21089563168982528
10.3568671875 -1.0550960436950139 -0.2137611495866083
10.358015625 -1.053654202332455 -0.2136812229981393
10.3591640625 -1.0552412804337234 -0.21532908067948225
10.3603125 -1.055933253847055 -0.218049160524724
10.3614609375 -1.055099370935394 -0.21818889905642447
10.362609375 -1.0569349818988485 -0.21889169387208832
10.3637578125 -1.0561973844550032 -0.22049526531391125
10.36490625 -1.055460845027184 -0.22194873713281849
10.3660546875 -1.0537208630555832 -0.2216501296244675
10.367203125 -1.0547679965087737 -0.2219723112914877
10.3683515625 -1.0539239443241566 -0.2248511063966262
10.3695 -1.0523001081768328 -0.2240049543935475
10.3706484375 -1.0528057393572103 -0.22707879533875514
10.371796875 -1.0513571566262467 -0.22953996010993266
10.3729453125 -1.0498564745400378 -0.22939243489651664
10.37409375 -1.0489480853277957 -0.23038970903465666
10.3752421875 -1.050181528767236 -0.23283302417742635
10.376390625 -1.049725182124086 -0.23359286539645702
10.3775390625 -1.0497551541510233 -0.23412308634030243
10.3786875 -1.0500505341049327 -0.23404729494904752
10.3798359375 -1.048141076695765 -0.23684815202884407
10.380984375 -1.0459937113722517 -0.23621824580340922
10.3821328125 -1.0470743915530178 -0.2398298758588916
10.38328125 -1.0468182661578058 -0.24177248315458058
10.3844296875 -1.0451796547356027 -0.2428917360552574
10.385578125 -1.0455293196004216 -0.24320961287544873
10.3867265625 -1.0466657180596424 -0.24609399581174307
10.387875 -1.044647903284329 -0.2456247224881667
10.3890234375 -1.0452132212576835 -0.24720674735320125
10.390171875 -1.0437136067815485 -0.248703103282025
10.3913203125 -1.044539292290386 -0.2502716821217036
10.39246875 -1.0412223850964246 -0.24994271272319882
10.3936171875 -1.0417257555517985 -0.24982411291958362
10.394765625 -1.0421028452428873 -0.2527505289691585
10.3959140625 -1.0405396353813283 -0.2526925386538929
10.3970625 -1.0407893806045008 -0.253898451889866
10.3982109375 -1.0401766691112506 -0.2555067586627729
10.399359375 -1.0381187957394222 -0.2566346443565954
10.4005078125 -1.0386312664875779 -0.25816221738608336
10.40165625 -1.0385633975022857 -0.2607242897635305
10.4028046875 -1.0394393826476414 -0.26254858135754494
10.403953125 -1.039256889665129 -0.26272043649999
10.4051015625 -1.040354238772817 -0.2640673401789167
10.40625 -1.0403804855624892 -0.2640788751125582
10.4073984375 -1.0382031122326363 -0.26194430266149615
10.408546875 -1.0376541080967188 -0.2645391265142311
10.4096953125 -1.0385922582754836 -0.26513328204744807
10.41084375 -1.0366101106090873 -0.26365166116679206
10.4119921875 -1.035890009365311 -0.26537098286850147
10.413140625 -1.0356649701629426 -0.26714450723472544
10.4142890625 -1.0353461156927155 -0.2669606667639789
10.4154375 -1.0349348026300882 -0.266420876220445
10.4165859375 -1.0344030642397986 -0.2679633264208125
10.417734375 -1.0338896310508319 -0.26855362799694105
10.4188828125 -1.031893250839582 -0.2668182255049698
10.42003125 -1.0318518697385348 -0.26902302758667407
10.4211796875 -1.0304971782732277 -0.26871786655408647
10.422328125 -1.0292008275699789 -0.2684586726846392
10.4234765625 -1.0284425462998938 -0.2694405534813895
10.424625 -1.0270465089812495 -0.2707844598418695
10.4257734375 -1.0255109151358364 -0.2711617930861828
10.426921875 -1.0244952164814727 -0.27166187451574786
10.4280703125 -1.0236268505540833 -0.2734907276361396
10.42921875 -1.0217943632559559 -0.2736834106159046
10.4303671875 -1.020540605560086 -0.27382618912344814
10.431515625 -1.0201802193533274 -0.275719143809239
10.4326640625 -1.018586784211008 -0.2756286818853644
10.4338125 -1.0164162947767403 -0.27639535859091807
10.4349609375 -1.015579547566722 -0.27908306431067464
10.436109375 -1.0154166065547312 -0.27951666274803927
10.4372578125 -1.014056708233945 -0.2798238799038111
10.43840625 -1.013096671513012 -0.2805978546592367
10.4395546875 -1.0110657158389822 -0.2810481689490226
10.440703125 -1.0095780812853732 -0.2813789710265192
10.4418515625 -1.0079356818111656 -0.28298454708034276
10.443 -1.0074136190637146 -0.28422112861095883
10.4441484375 -1.0057305227855906 -0.2858649435668134
10.445296875 -1.0041064501426964 -0.2849708712698018
10.4464453125 -1.0032915060611551 -0.2879007235492763
10.44759375 -1.0014565701057785 -0.2894635377005279
10.4487421875 -1.000562037907129 -0.2883877089715069
10.449890625 -0.9995793580233995 -0.29044257732475376
10.4510390625 -0.9987707794587719 -0.29167917085816786
10.4521875 -0.9962499921577471 -0.2908045527738602
10.4533359375 -0.9952166271972676 -0.292255604911305
10.454484375 -0.9947054715015176 -0.29229831988566657
10.4556328125 -0.9924873312459881 -0.2929918130272281
10.45678125 -0.9913061174138806 -0.2941284459171254
10.4579296875 -0.9899256967234473 -0.2946899273898218
10.459078125 -0.98933135389251 -0.29584847471215725
10.4602265625 -0.986625427645154 -0.2941525879530406
10.461375 -0.9849156756387747 -0.29557739342646705
10.4625234375 -0.9828539513306989 -0.2961551327205574
10.463671875 -0.9808743290675204 -0.29498683708258766
10.4648203125 -0.9790948481216828 -0.29645017759344217
10.46596875 -0.9775972638979513 -0.29695925659784006
10.4671171875 -0.9742608610785752 -0.29702903917105017
10.468265625 -0.9717352578090436 -0.2973543914323409
10.4694140625 -0.9698145822778063 -0.2985803013961569
10.4705625 -0.968007623438217 -0.29759415071399753
10.4717109375 -0.9639613974526722 -0.2973738879220641
10.472859375 -0.9611535160014524 -0.29893067671238294
10.4740078125 -0.9596147893748912 -0.29921224352505865
10.47515625 -0.9553365155852711 -0.29687045252446914
10.4763046875 -0.9521748305097764 -0.2975522195753023
10.477453125 -0.9487698970463515 -0.297817872850661
10.4786015625 -0.9426335724022876 -0.2974523924243236
10.47975 -0.9380080118301197 -0.2990382300204066
10.4808984375 -0.934692339579597 -0.30089775341265396
10.482046875 -0.929945126274063 -0.30276788332413374
10.4831953125 -0.9259194544541227 -0.30370043107835676
10.48434375 -0.921425713081069 -0.3064199754267281
10.4854921875 -0.9165360275295662 -0.3063516173381783
10.486640625 -0.9110168184701168 -0.30609892932054406
10.4877890625 -0.9040951709036726 -0.30908586355727663
10.4889375 -0.8968040121635747 -0.31328278478643995
10.4900859375 -0.8896400185374632 -0.3153863571867536
10.491234375 -0.883837264151035 -0.321485930819844
10.4923828125 -0.8785904406619702 -0.32689294098117794
10.49353125 -0.8718790122360158 -0.33322772991584326
10.4946796875 -0.8678617422967247 -0.3401011613082488
10.495828125 -0.8645479577195783 -0.34754365396170644
10.4969765625 -0.8594433264284861 -0.35540262777497955
10.498125 -0.8577577555860417 -0.36245866060850995
10.4992734375 -0.8560173391305107 -0.37045845684893697
10.500421875 -0.855347771648834 -0.3784610919842271
10.5015703125 -0.8514770558975823 -0.38515648022667515
10.50271875 -0.851603773595727 -0.3922696312095852
10.5038671875 -0.8516571808423442 -0.39976050771323657
10.505015625 -0.8496469108624208 -0.40739462960193495
10.5061640625 -0.8486200944889792 -0.4156744644205166
10.5073125 -0.8506677879416215 -0.42440204888751343
10.5084609375 -0.8546396000270096 -0.43328973985624236
10.509609375 -0.8594002044631207 -0.44132533619129416
10.5107578125 -0.8632490482399167 -0.447350027033521
10.51190625 -0.8678378152354815 -0.4518436381181779
10.5130546875 -0.8709151624533743 -0.4558322443519518
10.514203125 -0.8763874203403489 -0.4592770633594097
10.5153515625 -0.8799342782132484 -0.4630460704279291
10.5165 -0.8816695645406988 -0.46259167914320015
10.5176484375 -0.8840865067799542 -0.46557577045182125
10.518796875 -0.884745125515702 -0.4679429207557132
10.5199453125 -0.8863422969746586 -0.4707444248099063
10.52109375 -0.8867545649590999 -0.473431254090067
10.5222421875 -0.8909884461454993 -0.47727899134373125
10.523390625 -0.8929407739791788 -0.47781878895387325
10.5245390625 -0.8938738719920263 -0.48081164978806357
10.5256875 -0.8956387970488963 -0.48311565290988273
10.5268359375 -0.8977672610434035 -0.4856044408431375
10.527984375 -0.8967322028123749 -0.4874481176572549
10.5291328125 -0.8990135450067743 -0.4901365102353815
10.53028125 -0.9020890382499337 -0.49214543244200243
10.5314296875 -0.9039893665560618 -0.49130788009650955
10.532578125 -0.9057643781568255 -0.4931155315505957
10.5337265625 -0.9069582175439863 -0.49389859071506226
10.534875 -0.9076968212976504 -0.4932819039229291
10.5360234375 -0.9059570014120717 -0.4954352004488313
10.537171875 -0.9069115499932842 -0.49668789998542495
10.5383203125 -0.9074939647329556 -0.49933326027258196
10.53946875 -0.9089666371690119 -0.5010297742418335
10.5406171875 -0.9095234339199625 -0.5036356690144717
10.541765625 -0.9120545102438871 -0.5051777418371222
10.5429140625 -0.9125230455687714 -0.504279445249515
10.5440625 -0.9133148206401774 -0.5058968680811022
10.5452109375 -0.9146368547719517 -0.5070395074674858
10.546359375 -0.9143055037413202 -0.5056694900682666
10.5475078125 -0.9140777881100629 -0.5073770391909901
10.54865625 -0.9137048454420795 -0.5079119255150943
10.5498046875 -0.9139367273770558 -0.5083025399340886
10.550953125 -0.9145321480703931 -0.5092550716871498
10.5521015625 -0.9153708146178499 -0.5093079429945939
10.55325 -0.9145611837100192 -0.5104248624572645
10.5543984375 -0.9114674788502272 -0.5091168288087187
10.555546875 -0.9128073478307697 -0.5136362993553314
10.5566953125 -0.9141197371004303 -0.5159310609995269
10.55784375 -0.9158007880364539 -0.5162865290985297
10.5589921875 -0.9166604375125467 -0.5162203511089778
10.560140625 -0.9173450221567214 -0.5154778834830904
10.5612890625 -0.9155933128350895 -0.5138955573198929
10.5624375 -0.9128103055538406 -0.5129695335914563
10.5635859375 -0.9101377109172281 -0.5149728194975216
10.564734375 -0.9082616722353924 -0.5178675036090588
10.5658828125 -0.9070759604026652 -0.5173566302202055
10.56703125 -0.9065749037988695 -0.5197787962025022
10.5681796875 -0.9063016605621634 -0.5216113136298612
10.569328125 -0.9028201195196048 -0.519693538064695
10.5704765625 -0.9028692752741979 -0.5239394761374954
10.571625 -0.9030978987813776 -0.5262697210763488
10.5727734375 -0.901875616886102 -0.5276941300154656
10.573921875 -0.9013451170780402 -0.5313869679583811
10.5750703125 -0.9008241338464797 -0.5336000160226337
10.57621875 -0.9008216814675536 -0.535157412381829
10.5773671875 -0.8986119970310903 -0.5357181884349379
10.578515625 -0.8977385729920693 -0.5396925470832724
10.5796640625 -0.898827625149546 -0.5426193573979503
10.5808125 -0.8968484962781804 -0.5425042849517815
10.5819609375 -0.896073329607869 -0.5444082981807319
10.583109375 -0.8975206068940229 -0.5458717263967277
10.5842578125 -0.8976096967514532 -0.54706564135544
10.58540625 -0.8961018831148856 -0.5488418696149652
10.5865546875 -0.8956477766603942 -0.5517178680599562
10.587703125 -0.8951533532532783 -0.5519664048787646
10.5888515625 -0.8916496753779041 -0.552690954009801
10.59 -0.8907986941272776 -0.5571460066741577
10.5911484375 -0.8891910563407474 -0.5627247981951149
10.592296875 -0.8884728809777891 -0.5663516638502875
10.5934453125 -0.8898684594224018 -0.5726518846858526
10.59459375 -0.8922531642186462 -0.5770655331882577
10.5957421875 -0.894168191509385 -0.5792283723609788
10.596890625 -0.8973435981988384 -0.5829161115450163
10.5980390625 -0.9010873941500753 -0.5864305604226145
10.5991875 -0.9054691589241538 -0.5864543220019097
10.6003359375 -0.9084728525691688 -0.5874333021425118
10.601484375 -0.9107966456148708 -0.5862294093185592
10.6026328125 -0.9124138294276107 -0.5855691887080678
10.60378125 -0.9124921937383805 -0.5849264692327092
10.6049296875 -0.9150216020400506 -0.586137706815396
10.606078125 -0.9177035030892086 -0.5842863874717872
10.6072265625 -0.9175978997614971 -0.5811604952625234
10.608375 -0.9175928192666407 -0.5813832931841931
10.6095234375 -0.9154246377781541 -0.5801636221036548
10.610671875 -0.9156923625912226 -0.5792687149907595
10.6118203125 -0.913479328632464 -0.5778199938132564
10.61296875 -0.9122850410831229 -0.578682305608258
10.6141171875 -0.9097213304195729 -0.5796716859132576
10.615265625 -0.9077351658501465 -0.581458423886983
10.6164140625 -0.905875803789596 -0.5859858081004198
10.6175625 -0.9062657535015018 -0.5893370583903039
10.6187109375 -0.9068037811254115 -0.5904112133825595
10.619859375 -0.9083771359740004 -0.5931882340868968
10.6210078125 -0.910134189793434 -0.5962990271702013
10.62215625 -0.9121370057106946 -0.5973412100356454
10.6233046875 -0.914039579779083 -0.598904800140827
10.624453125 -0.9163443841012089 -0.5986408806940684
10.6256015625 -0.9171856746374737 -0.5977525734084562
10.62675 -0.9188534857228089 -0.5972137429627367
10.6278984375 -0.9191060175624691 -0.5983565929422615
10.629046875 -0.9204147540372813 -0.5973939224892494
10.6301953125 -0.9218445300530758 -0.5942269096170414
10.63134375 -0.9224239904800611 -0.59496848022221
10.6324921875 -0.9222791020503611 -0.5930540932855092
10.633640625 -0.9200279434780024 -0.5920875452656681
10.6347890625 -0.9206012092195537 -0.5916911030470822
10.6359375 -0.9219699876227204 -0.5914415460164814
10.6370859375 -0.9206660777506769 -0.5899575854476987
10.638234375 -0.9196701988015554 -0.5867739017239126
10.6393828125 -0.9183653121258148 -0.5880388354277357
10.64053125 -0.9170865523558984 -0.5868302023136901
10.6416796875 -0.9159360320891068 -0.584745795649945
10.642828125 -0.9143793940761946 -0.5841223907549613
10.6439765625 -0.911368764529899 -0.5837916848804804
10.645125 -0.9085788973783038 -0.5820992158641434
10.6462734375 -0.9073023638175582 -0.5841055975390669
10.647421875 -0.9056629448679752 -0.5847367798263173
10.6485703125 -0.9026421700190235 -0.5821290319996976
10.64971875 -0.9006983217558621 -0.5840872787953619
10.6508671875 -0.8997856804686396 -0.5860858268034707
10.652015625 -0.8986092296263937 -0.5878813758310628
10.6531640625 -0.8980625444311621 -0.5871851174788678
10.6543125 -0.8976475731925009 -0.5892267036144674
10.6554609375 -0.8965946655918886 -0.58978559692712
10.656609375 -0.8949743045971617 -0.5881112055097737
10.6577578125 -0.893887596274494 -0.5911929500575763
10.65890625 -0.8930749719716239 -0.5912218566012717
10.6600546875 -0.8917150815407369 -0.5894307889698894
10.661203125 -0.8906041728259435 -0.590600853355595
10.6623515625 -0.8887530963033934 -0.5904824761643641
10.6635 -0.8869114959963572 -0.5911036872358225
10.6646484375 -0.8867171573710076 -0.5936856338061106
10.665796875 -0.8852047650531338 -0.5938235351186728
10.6669453125 -0.8842193263038934 -0.5959949021095983
10.66809375 -0.8846074718949208 -0.5965654696087022
10.6692421875 -0.8836431087950042 -0.5973146480998982
10.670390625 -0.8821699333204839 -0.5985121781309836
10.6715390625 -0.8811112985439351 -0.5984263764400338
10.6726875 -0.8824404895775542 -0.6003449823802478
10.6738359375 -0.8832718462221616 -0.6010155850590567
10.674984375 -0.8835867401912842 -0.6003470539791045
10.6761328125 -0.8839612778005147 -0.600221296033508
10.67728125 -0.8838558175988914 -0.5986973364011912
10.6784296875 -0.8832221299636592 -0.5968989604957082
10.679578125 -0.8816360597027812 -0.596806457622564
10.6807265625 -0.879298182677373 -0.5959107857994295
10.681875 -0.8775794509554767 -0.5966397035382989
10.6830234375 -0.8755673192816888 -0.5950482205095495
10.684171875 -0.8757660548986557 -0.5962831415109628
10.6853203125 -0.8752917489665054 -0.596254063998762
10.68646875 -0.8735002839984167 -0.5942489550517969
10.6876171875 -0.8733023237695661 -0.5950347382946446
10.688765625 -0.871589539606886 -0.5934600772162325
10.6899140625 -0.8701806802530805 -0.5907567023168868
10.6910625 -0.8680973203936408 -0.5901459755526497
10.6922109375 -0.8657875660696608 -0.589883683319528
10.693359375 -0.8629267204498762 -0.5903445023878063
10.6945078125 -0.8616824785431167 -0.588437657132132
10.69565625 -0.859555590019319 -0.5896088759631262
10.6968046875 -0.8576892957482026 -0.5885331141292648
10.697953125 -0.8568195917089055 -0.5876090189066553
10.6991015625 -0.8545893559402237 -0.5882074262528153
10.70025 -0.8537006750866248 -0.5867193975079437
10.7013984375 -0.85119972542471 -0.5834292265917672
10.702546875 -0.8485042346685222 -0.582642312044502
10.7036953125 -0.8458832275686647 -0.5813031965767377
10.70484375 -0.8421225361037361 -0.5791422692741219
10.7059921875 -0.837782157533836 -0.5776109514351448
10.707140625 -0.8346006852750649 -0.5775044498419897
10.7082890625 -0.832097705789578 -0.5762892962647602
10.7094375 -0.8286122371539015 -0.5744268893111828
10.7105859375 -0.8248580458345046 -0.574234702303839
10.711734375 -0.8210325712904223 -0.5721696128440815
10.7128828125 -0.8162220049775377 -0.5685857918654793
10.71403125 -0.8098390140769041 -0.5675440777280311
10.7151796875 -0.8052290893586675 -0.5677403641856309
10.716328125 -0.7989801643778424 -0.5650126743545989
10.7174765625 -0.7913550789141595 -0.5650009233051374
10.718625 -0.7848968596737879 -0.5639356247128662
10.7197734375 -0.7773343482752665 -0.5640206929049156
10.720921875 -0.7680577152233429 -0.5646707985499034
10.7220703125 -0.7618287016392149 -0.5680274159050318
10.72321875 -0.7538499691191723 -0.5712773267350266
10.7243671875 -0.7451104210098769 -0.5723003943191853
10.725515625 -0.7384060107990686 -0.5774490255158176
10.7266640625 -0.7308440326875766 -0.5811977020021496
10.7278125 -0.7225980924956167 -0.587061045608298
10.7289609375 -0.7150729060810324 -0.5926718372301337
10.730109375 -0.7086212667500974 -0.5988953564669448
10.7312578125 -0.7023134142304965 -0.6058735429218471
10.73240625 -0.6971945468335428 -0.6131966001420662
10.7335546875 -0.6924381610119144 -0.6209786639949042
10.734703125 -0.6893141700970264 -0.6299256331481654
10.7358515625 -0.6855159304170311 -0.6368644966707285
10.737 -0.6842986019234996 -0.6450850084939407
10.7381484375 -0.6828534518113467 -0.6540380736123901
10.739296875 -0.6824619343922443 -0.6593059887378581
10.7404453125 -0.6817366278300035 -0.6673208019509974
10.74159375 -0.6813135778471983 -0.6746567745859202
10.7427421875 -0.6807045531914115 -0.6810097703335396
10.743890625 -0.6814895880864393 -0.6873342036288701
10.7450390625 -0.6827772564476035 -0.694117928783058
10.7461875 -0.6845315950940417 -0.6996848835731104
10.7473359375 -0.6851736135806469 -0.7052609444807308
10.748484375 -0.6863051668317663 -0.7110498007126491
10.7496328125 -0.6880942816025711 -0.7170028608707524
10.75078125 -0.691377703137051 -0.7207853400996644
10.7519296875 -0.693077836515727 -0.724522758551165
10.753078125 -0.6965676712737404 -0.7282302576430364
10.7542265625 -0.6990603884931459 -0.7304560018130142
10.755375 -0.7008300368130784 -0.733447854814165
10.7565234375 -0.7032179589395394 -0.7364582886588915
10.757671875 -0.7049672061093942 -0.7358815430674761
10.7588203125 -0.7064095430339679 -0.7391483398027776
10.75996875 -0.7083725671509777 -0.7408386150725186
10.7611171875 -0.7087439918147226 -0.7427735475018616
10.762265625 -0.7090036559718716 -0.7429812246770356
10.7634140625 -0.7097687411752066 -0.7452347125829295
10.7645625 -0.7076368661307431 -0.7471206095200525
10.7657109375 -0.709427191198762 -0.7489281827598792
10.766859375 -0.7092890529058984 -0.7525079176893604
10.7680078125 -0.7119360484192803 -0.7550231409698417
10.76915625 -0.7119653012366147 -0.7552454194735754
10.7703046875 -0.7131371756903949 -0.7589423558658922
10.771453125 -0.7123770826028967 -0.7590335490814338
10.7726015625 -0.7137380406288619 -0.7596707659321865
10.77375 -0.7157174343890844 -0.7604497189732491
10.7748984375 -0.7152704930193164 -0.7623296433861301
10.776046875 -0.7148655170803451 -0.7633735877441297
10.7771953125 -0.7148980021522816 -0.7635563825857494
10.77834375 -0.7145564835322585 -0.7672698883901297
10.7794921875 -0.7150442816289632 -0.7672469885732305
10.780640625 -0.7147729788904224 -0.7672204045784144
10.7817890625 -0.7147756312094984 -0.7693263761685174
10.7829375 -0.7143069140787164 -0.7706261223141322
10.7840859375 -0.7133596128323052 -0.7709397762082202
10.785234375 -0.7130359728612079 -0.7730059752464358
10.7863828125 -0.7131340053799378 -0.7758992972456755
10.78753125 -0.7126401209495966 -0.7768646766859507
10.7886796875 -0.712439432740042 -0.7779463379984474
10.789828125 -0.7116922163816786 -0.7805649912630539
10.7909765625 -0.7126079819917825 -0.7823194019046766
10.792125 -0.7124286870521899 -0.7820573690921226
10.7932734375 -0.712747084429268 -0.7838686940675187
10.794421875 -0.712340886477985 -0.7862371405617969
10.7955703125 -0.7118547064654814 -0.7859092134284452
10.79671875 -0.7120143906022884 -0.7883671850452965
10.7978671875 -0.7119227503245584 -0.7904486712353671
10.799015625 -0.7118079928884289 -0.7902668255604857
10.8001640625 -0.7132284930579287 -0.7914819739869546
10.8013125 -0.7134069565005374 -0.7925887880990945
10.8024609375 -0.7130602446445153 -0.7939207786014355
10.803609375 -0.712819357310775 -0.7930140912217905
10.8047578125 -0.7124948219835449 -0.7937109116609252
10.80590625 -0.7133122580273804 -0.7949153301010525
10.8070546875 -0.7125274524711953 -0.7940926975795968
10.808203125 -0.7117982690836854 -0.7963406279264468
10.8093515625 -0.7120123675119274 -0.7978948724227148
10.8105 -0.7118113473606656 -0.796998387932931
10.8116484375 -0.7098438683294409 -0.7980955797311549
10.812796875 -0.7094108949510951 -0.8008405196122041
10.8139453125 -0.7096514030702115 -0.8004718352082131
10.81509375 -0.7099741632273866 -0.8021500548175073
10.8162421875 -0.7095820452721573 -0.8034959229806766
10.817390625 -0.7093029742177706 -0.8036170858394212
10.8185390625 -0.7088072969666819 -0.8023987116375686
10.8196875 -0.7083230273991642 -0.8045057675501865
10.8208359375 -0.707157044237119 -0.8053323226772302
10.821984375 -0.707454297547305 -0.8046997007910177
10.8231328125 -0.7059002468637843 -0.8065551361541279
10.82428125 -0.7051949177338167 -0.807721914605554
10.8254296875 -0.7052187711153745 -0.8074154744909483
10.826578125 -0.705050833912743 -0.8089375511813021
10.8277265625 -0.7045638011515999 -0.8094132208149188
10.828875 -0.704073229105111 -0.8109265530793425
10.8300234375 -0.7017049676033045 -0.8104671155741046
10.831171875 -0.7021118606464514 -0.8122781366509016
10.8323203125 -0.701685103653928 -0.8126479354586469
10.83346875 -0.7019645158529381 -0.811120749675516
10.8346171875 -0.7008838863773317 -0.8128908624588296
10.835765625 -0.6999068452352581 -0.8140720869824724
10.8369140625 -0.6988702897930439 -0.812320088362994
10.8380625 -0.6969703409945467 -0.8137201603751729
10.8392109375 -0.6969278434683254 -0.8143502309101099
10.840359375 -0.695612502496087 -0.8144629802300423
10.8415078125 -0.6946751407681381 -0.8147973904296596
10.84265625 -0.6936386303093721 -0.815941209805934
10.8438046875 -0.6920928746033814 -0.8181805460616542
10.844953125 -0.6906725299771923 -0.8170242524778739
10.8461015625 -0.6903421295089942 -0.8181416234804229
10.84725 -0.6899335266925977 -0.818809529450525
10.8483984375 -0.6882597748273511 -0.8183654695487967
10.849546875 -0.6873666642815095 -0.8206418245417859
10.8506953125 -0.6863908067261539 -0.8216684469502196
10.85184375 -0.6856661608672467 -0.820840893435605
10.8529921875 -0.6844943381963688 -0.8235430672896191
10.854140625 -0.6834111450131932 -0.8253992001367635
10.8552890625 -0.6831806721240362 -0.8256733416648726
10.8564375 -0.6823270219354824 -0.825199252470868
10.8575859375 -0.6802509702110328 -0.8272530387600032
10.858734375 -0.6798735838874665 -0.8278907274610996
10.8598828125 -0.6782361259463193 -0.8270400567955242
10.86103125 -0.6776075583323531 -0.8290433755632818
10.8621796875 -0.6770846515087471 -0.8306482810051743
10.863328125 -0.6764161311342869 -0.8307982636553756
10.8644765625 -0.675608711510886 -0.8330615902646861
10.865625 -0.6745452875214167 -0.8344045020259229
10.8667734375 -0.6736571891893719 -0.8340695463019787
10.867921875 -0.6730799167514815 -0.8345319285001815
10.8690703125 -0.6726119109521582 -0.8361148328618657
10.87021875 -0.672420246947271 -0.8363153235451473
10.8713671875 -0.6712386482238492 -0.8352377081416359
10.872515625 -0.6706655935627613 -0.8375212379016227
10.8736640625 -0.6706493079897372 -0.8381635469361162
10.8748125 -0.6694287382103085 -0.8362873816791441
10.8759609375 -0.6672334767393955 -0.8371448652284458
10.877109375 -0.6664552387161236 -0.837719237939692
10.8782578125 -0.6642359367833269 -0.8382092895521251
10.87940625 -0.6633454192845649 -0.8395094339761615
10.8805546875 -0.6610706067092476 -0.840385761669742
10.881703125 -0.6609414717000246 -0.8415219799480329
10.8828515625 -0.6596088821752125 -0.8407392879542175
10.884 -0.6581523460147103 -0.8432534051408842
10.8851484375 -0.6568733015808375 -0.8444747398580852
10.886296875 -0.656522592920874 -0.8436237680948785
10.8874453125 -0.6551146593728769 -0.8470091915801536
10.88859375 -0.6557297285282866 -0.8476356949904934
10.8897421875 -0.6542692875266818 -0.8454443494724704
10.890890625 -0.6544863754606478 -0.8476598466666107
10.8920390625 -0.6526779107814632 -0.8486770897817433
10.8931875 -0.6513935798354802 -0.848521075073456
10.8943359375 -0.6502538791045901 -0.8485560434318371
10.895484375 -0.6480109448229106 -0.8496505571633605
10.8966328125 -0.6477599999415747 -0.8528027716687361
10.89778125 -0.6459969600225656 -0.8513199803267971
10.8989296875 -0.6453350951022413 -0.8523599891425617
10.900078125 -0.6444409398202684 -0.8545259076416489
10.9012265625 -0.6442126357725988 -0.8537027737633984
10.902375 -0.6412762795190428 -0.8556163865693786
10.9035234375 -0.6402412892708594 -0.8539524661572742
10.904671875 -0.6393518072541627 -0.8538810247783244
10.9058203125 -0.6399822202271284 -0.8551813867606939
10.90696875 -0.6385847581048769 -0.855738371775751
10.9081171875 -0.6351674754370386 -0.8562425773484024
10.909265625 -0.6338498664432499 -0.8564701975227196
10.9104140625 -0.6346249541036802 -0.8578762701770439
10.9115625 -0.6318452107282325 -0.8601764159438192
10.9127109375 -0.6320476922829791 -0.8581108616824566
10.913859375 -0.6321590558473688 -0.8600783012152668
10.9150078125 -0.6293304220836693 -0.8632289562546461
10.91615625 -0.6279876096158188 -0.8617254964171079
10.9173046875 -0.6261417229251642 -0.8634255286657282
10.918453125 -0.6254049950744942 -0.8646236056927403
10.9196015625 -0.6230012426424123 -0.8636612806289959
10.92075 -0.6225935053014662 -0.8651960778956731
10.9218984375 -0.6233013413445766 -0.8672599479298728
10.923046875 -0.6211964312751301 -0.8678512054749477
10.9241953125 -0.620725868937076 -0.8675426705703124
10.92534375 -0.6186257422854737 -0.8685808905504082
10.9264921875 -0.6181815612945654 -0.8703658681499891
10.927640625 -0.6176385577229384 -0.8683476134649858
10.9287890625 -0.6160963440962639 -0.8698760592160383
10.9299375 -0.6154315795148394 -0.8710341844536775
10.9310859375 -0.6140153926417975 -0.8697790316506728
10.932234375 -0.6123517886480727 -0.870992784556918
10.9333828125 -0.6120252720028185 -0.8722297132727979
10.93453125 -0.6101535890344051 -0.871967835032574
10.9356796875 -0.6085001192599893 -0.871220157043209
10.936828125 -0.6074763743505087 -0.872269919199756
10.9379765625 -0.6055405625594807 -0.8739265511750963
10.939125 -0.6036021379271779 -0.8734640086746335
10.9402734375 -0.6015231704993098 -0.8741710756434538
10.941421875 -0.6005676902600663 -0.8759580950562006
10.9425703125 -0.5992975019678485 -0.8752806838489909
10.94371875 -0.5984536547255868 -0.878173918710415
10.9448671875 -0.5969305224992398 -0.8799521202328516
10.946015625 -0.5956531588557903 -0.8785425424888174
10.9471640625 -0.5944140263117664 -0.8798859644576658
10.9483125 -0.5933815878841777 -0.880999177515306
10.9494609375 -0.5923488260599452 -0.8814540769223153
10.950609375 -0.591789750097229 -0.8816296006886908
10.9517578125 -0.5895734433394275 -0.8830469265615761
10.95290625 -0.5880748401825144 -0.8837697937951092
10.9540546875 -0.5864678783733296 -0.8825233079173535
10.955203125 -0.5844982613548554 -0.8850408192172571
10.9563515625 -0.5832468493704335 -0.8865404305897399
10.9575 -0.5822739446417676 -0.8854422067687224
10.9586484375 -0.579259022761011 -0.8882081110913224
10.959796875 -0.5793472587366353 -0.8893293159256614
10.9609453125 -0.578074388292582 -0.888069221920534
10.96209375 -0.5773655487298095 -0.8904093508174558
10.9632421875 -0.5779481215503346 -0.8923553455531845
10.964390625 -0.5755776417914076 -0.8931716523648389
10.9655390625 -0.5753405655922308 -0.8921065512245328
10.9666875 -0.5723698675353701 -0.8927209859862103
10.9678359375 -0.5733393518193413 -0.8930542790790924
10.968984375 -0.5702915334148704 -0.8914630385827154
10.9701328125 -0.5684412112298687 -0.8915812547857165
10.97128125 -0.5676697737240146 -0.8945542829990579
10.9724296875 -0.5652313279426455 -0.8914084835378284
10.973578125 -0.561376341843 -0.8942752739703699
10.9747265625 -0.5592145638025837 -0.8980705079426616
10.975875 -0.5590824693669908 -0.8984890271246998
10.9770234375 -0.5586139913322123 -0.9005696934910153
10.978171875 -0.5582521544973366 -0.9027706800261284
10.9793203125 -0.5553528211745096 -0.9022273606926944
10.98046875 -0.5540005163747661 -0.9032163552718295
10.9816171875 -0.5531976735947365 -0.903456803882116
10.982765625 -0.5526269390605945 -0.905995893119704
10.9839140625 -0.5516619936037728 -0.9058575528802771
10.9850625 -0.5500973764475626 -0.907437751251777
10.9862109375 -0.5500744889047291 -0.9085778216317455
10.987359375 -0.5467259804251056 -0.9085088846065731
10.9885078125 -0.5467829363022016 -0.9093348794263516
10.98965625 -0.5442493244938928 -0.9122382392713201
10.9908046875 -0.5451449601981289 -0.9130926172406414
10.991953125 -0.5444374836786936 -0.9139776574530589
10.9931015625 -0.5427707038768441 -0.9122930765646594
10.99425 -0.5432837391278418 -0.911978973609207
10.9953984375 -0.5416744307673733 -0.9108845601934396
10.996546875 -0.5398016584228109 -0.9128352528031884
10.9976953125 -0.5393523868079251 -0.9137560189176558
10.99884375 -0.5368028174176134 -0.9119672691118803
10.9999921875 -0.5333138984448308 -0.9136906248095362
11.001140625 -0.533240845368901 -0.9139514838888589
11.0022890625 -0.5306752722310308 -0.9148483392685698
11.0034375 -0.5292567830890427 -0.916177599532199
11.0045859375 -0.5278555668371225 -0.9169652630167993
11.005734375 -0.5270980462571675 -0.9185287646252518
11.0068828125 -0.5260394591239891 -0.9166663162502757
11.00803125 -0.524727912210569 -0.9170796427591295
11.0091796875 -0.5216011509052727 -0.9177623624990585
11.010328125 -0.519260323322569 -0.9183663869162833
11.0114765625 -0.5170602886813599 -0.9208636634918632
11.012625 -0.5147609943426488 -0.9221848101716231
11.0137734375 -0.5139914982871434 -0.9221482776158649
11.014921875 -0.5122309231877367 -0.9241365040687617
11.0160703125 -0.5112820799284834 -0.9275508077747043
11.01721875 -0.5113376488894044 -0.9272595002149593
11.0183671875 -0.5098521339074882 -0.9271864536658155
11.019515625 -0.5069323140126123 -0.929000045116744
11.0206640625 -0.506147021515502 -0.9286677234952454
11.0218125 -0.5058453932833515 -0.9282850446945732
11.0229609375 -0.5034869504639918 -0.9303527052416254
11.024109375 -0.5023815161112715 -0.9325480804402544
11.0252578125 -0.5004879025548985 -0.9327519748370721
11.02640625 -0.497759148156192 -0.9354845567079992
11.0275546875 -0.4971905319151548 -0.937047622657663
11.028703125 -0.49763467295727015 -0.9383464733281619
11.0298515625 -0.49754570960527755 -0.9395064041465571
11.031 -0.4968211490170283 -0.9415555634508748
11.0321484375 -0.4959928698170653 -0.9404257547639312
11.033296875 -0.49625060868085996 -0.9409166321810569
11.0344453125 -0.4948985548124372 -0.9422154520144999
11.03559375 -0.4944030115540527 -0.9443779623613446
11.0367421875 -0.4938735678804619 -0.9433766665940746
11.037890625 -0.49215397014799966 -0.9443408103978026
11.0390390625 -0.49096659541033494 -0.9444621994558196
11.0401875 -0.49075672032494494 -0.9434951403497587
11.0413359375 -0.4887030587988637 -0.9456401063485198
11.042484375 -0.48714583161004293 -0.9450616303490262
11.0436328125 -0.48570995071468626 -0.9459856506367472
11.04478125 -0.4852082171854152 -0.9468366394967827
11.0459296875 -0.48326085777667394 -0.9485160966044188
11.047078125 -0.4828614602941526 -0.9497977647259435
11.0482265625 -0.48262584134349645 -0.9502181067418254
11.049375 -0.48062527181718373 -0.9498640522010502
11.0505234375 -0.4808239359243217 -0.9517487283940853
11.051671875 -0.47936387421701987 -0.9483389133225275
11.0528203125 -0.4775772627542623 -0.9503451513692132
11.05396875 -0.47722966798936406 -0.951002025422751
11.0551171875 -0.47638735551059774 -0.9504684993890951
11.056265625 -0.47504435167491216 -0.9521247186525092
11.0574140625 -0.4732137542381895 -0.9526406134852724
11.0585625 -0.4733906254392668 -0.9539038575845253
11.0597109375 -0.4702919325910248 -0.9528538498240993
11.060859375 -0.46841486371612645 -0.953843164257475
11.0620078125 -0.46694176552356603 -0.9524885367465437
11.06315625 -0.4653425991333346 -0.9525348614864554
11.0643046875 -0.46218413409381853 -0.9525794194706447
11.065453125 -0.46081114534863127 -0.9554561173452114
11.0666015625 -0.45975535809955276 -0.9544561877749342
11.06775 -0.45639106000572355 -0.9552939528767378
11.0688984375 -0.4539410528691141 -0.9578768579397556
11.070046875 -0.45208750692174626 -0.9583098234541967
11.0711953125 -0.45029520307056575 -0.9617030126589059
11.07234375 -0.4492914950575046 -0.9633341087986145
11.0734921875 -0.44832228858133283 -0.9646875365158853
11.074640625 -0.4482364191625788 -0.9655904455103279
11.0757890625 -0.4463645695790327 -0.9678134092527101
11.0769375 -0.446141037601938 -0.9686520742276536
11.0780859375 -0.444883535780684 -0.968369766464171
11.079234375 -0.4444235448678465 -0.9704667260677629
11.0803828125 -0.44220329974457384 -0.9734920734689756
11.08153125 -0.442787223130297 -0.9724290402176332
11.0826796875 -0.4421887503452895 -0.9743076791712816
11.083828125 -0.4415235954487921 -0.9764231506294088
11.0849765625 -0.44107964072914674 -0.97671480748234
11.086125 -0.44020106368024897 -0.9765465809710958
11.0872734375 -0.43962121686312283 -0.9781898168939005
11.088421875 -0.440747238017212 -0.9782121746200296
11.0895703125 -0.44008121389036725 -0.9768004230489109
11.09071875 -0.4392520053967702 -0.9764031411140452
11.0918671875 -0.4366485756034215 -0.9765798238520704
11.093015625 -0.4358012779099266 -0.975788196054076
11.0941640625 -0.43398561921348244 -0.9769896477586306
11.0953125 -0.4330954091127056 -0.9766454939181163
11.0964609375 -0.4312721535772907 -0.9765468156984636
11.097609375 -0.4304689114193964 -0.9759268849086868
11.0987578125 -0.4281728943658488 -0.977686879513203
11.09990625 -0.42677851334754274 -0.977073881907833
11.1010546875 -0.42657777485940707 -0.9760449516874838
11.102203125 -0.42340577461924456 -0.9775477900831981
11.1033515625 -0.42259457741036843 -0.9784729903962721
11.1045 -0.420960020216205 -0.9783358244986239
11.1056484375 -0.4173258280525172 -0.9794429896521104
11.106796875 -0.415355236341941 -0.9804851666302542
11.1079453125 -0.4143927367395833 -0.9803643471181491
11.10909375 -0.41240004239810907 -0.9818752446332586
11.1102421875 -0.4113214221438186 -0.9829042391838099
11.111390625 -0.4089266963318836 -0.9834903357005547
11.1125390625 -0.40884018433509967 -0.9837071145353314
11.1136875 -0.40623208918434167 -0.9846726717842359
11.1148359375 -0.40529227053328354 -0.9860273669778921
11.115984375 -0.40376686884210045 -0.9858976065236846
11.1171328125 -0.4012441691324076 -0.9876363692833334
11.11828125 -0.40020613074525724 -0.9902627060646229
11.1194296875 -0.40010721458670273 -0.9885043210260691
11.120578125 -0.3981173695886354 -0.9897299142708488
11.1217265625 -0.39751694394037573 -0.9919846435080331
11.122875 -0.3969336784338625 -0.9926172605911716
11.1240234375 -0.3942013294886648 -0.9940380093938872
11.125171875 -0.3935076659716081 -0.9944331121481339
11.1263203125 -0.3934598669522662 -0.9962668642624304
11.12746875 -0.39212042404607195 -0.9965222767603084
11.1286171875 -0.39159790734997935 -0.9988937964855436
11.129765625 -0.39140525120473435 -1.0006632165823621
11.1309140625 -0.3907704526549652 -0.9977344765707898
11.1320625 -0.3893041097284665 -1.0013792055370523
11.1332109375 -0.38859978301686643 -1.000676007817385
11.134359375 -0.3890826433910679 -1.0007477121798878
11.1355078125 -0.38780672962350526 -1.0012608324525527
11.13665625 -0.3872720988775449 -1.0022253021092364
11.1378046875 -0.38580524385055637 -1.001129532322944
11.138953125 -0.3851423509496126 -1.0013219767865378
11.1401015625 -0.38449375923208506 -1.001486886229818
11.14125 -0.38116045314000824 -1.0019580723092583
11.1423984375 -0.3816431976504693 -1.0004172718438258
11.143546875 -0.3786620886653126 -1.0013135235446091
11.1446953125 -0.37566376531140155 -1.0021546572475655
11.14584375 -0.3743173825130409 -1.000767593524994
11.1469921875 -0.37107076723595533 -1.0031396821532594
11.148140625 -0.3701393106361196 -1.0042532246565523
11.1492890625 -0.36766984689374704 -1.00345700462763
11.1504375 -0.3666033326057908 -1.003376915221443
11.1515859375 -0.3644364017296148 -1.0048161773703177
11.152734375 -0.36187489166733866 -1.0064407091126457
11.1538828125 -0.3607357933473445 -1.0058113538885036
11.15503125 -0.358985513537155 -1.00931012882435
11.1561796875 -0.3585606388271595 -1.0119292204968524
11.157328125 -0.35825928264799567 -1.0111531970686538
11.1584765625 -0.3566707422845562 -1.0129737955336753
11.159625 -0.35490900600421404 -1.0145535937036168
11.1607734375 -0.3539811844885523 -1.0137636046157703
11.161921875 -0.35172988539230177 -1.0164095815163543
11.1630703125 -0.35026175428397144 -1.017124812415461
11.16421875 -0.350156614589227 -1.017106721647687
11.1653671875 -0.3483881255063702 -1.0190725389805864
11.166515625 -0.3481206519029134 -1.020414512935105
11.1676640625 -0.3517723720293 -1.0219220194156164
11.1688125 -0.3491902917191597 -1.0192570707992947
11.1699609375 -0.3466380117565617 -1.0217767587265971
11.171109375 -0.34527159646371397 -1.019152694427881
11.1722578125 -0.344926979942646 -1.0161904611772872
11.17340625 -0.3424700430110992 -1.0183766600423556
11.1745546875 -0.3403352720225947 -1.0186594785364254
11.175703125 -0.34002816698404026 -1.020205357838271
11.1768515625 -0.33888726087521537 -1.0218507411437776
11.178 -0.3366623825285888 -1.0221640624402937
11.1791484375 -0.3368245019072831 -1.0221283241925685
11.180296875 -0.3359756516679613 -1.02319484542777
11.1814453125 -0.33368030121301684 -1.0223687155321222
11.18259375 -0.3323571985367012 -1.0240662867827415
11.1837421875 -0.33064685093490165 -1.0229131987031967
11.184890625 -0.32875718667929477 -1.0250867147637324
11.1860390625 -0.3279157044075389 -1.0274945631190735
11.1871875 -0.32682629910952277 -1.027621944410706
11.1883359375 -0.32382064260965315 -1.0277362065736455
11.189484375 -0.32211060092797095 -1.0304654502298272
11.1906328125 -0.32109318971138856 -1.0308283893096923
11.19178125 -0.3219350024991364 -1.0335277504509215
11.1929296875 -0.32052714427604395 -1.0335213367557
11.194078125 -0.3197622111451769 -1.0351906249083267
11.1952265625 -0.3190069547001805 -1.0356646886789296
11.196375 -0.31707775006742595 -1.0358516095263428
11.1975234375 -0.3160095406470738 -1.0366193056856248
11.198671875 -0.3166503638468941 -1.0377793980039431
11.1998203125 -0.31630214246641136 -1.0394227572506693
11.20096875 -0.31546683719360585 -1.041651015201712
11.2021171875 -0.31519045402479695 -1.0399596299252103
11.203265625 -0.31523071512232903 -1.0415863056835843
11.2044140625 -0.31490177694003885 -1.0428866078931422
11.2055625 -0.31491440750602695 -1.0417171522512387
11.2067109375 -0.31388145646342014 -1.0423035516051655
11.207859375 -0.3116392549514615 -1.0421811510150538
11.2090078125 -0.31010614287058813 -1.0421694698798616
11.21015625 -0.3106993455740563 -1.0407170259509464
11.2113046875 -0.30879487454551163 -1.0429194031457807
11.212453125 -0.3074400500740118 -1.0434850891734815
11.2136015625 -0.3077208690154136 -1.042394926335143
11.21475 -0.3073647571888424 -1.0459981962263372
11.2158984375 -0.3067918949693489 -1.0461379515134022
11.217046875 -0.3061061231006228 -1.0429282541776514
11.2181953125 -0.30489192832181844 -1.0432727531684813
11.21934375 -0.3030295581675151 -1.0446120864557713
11.2204921875 -0.30222405462376634 -1.0437412704927274
11.221640625 -0.30133858212024434 -1.0457582505290686
11.2227890625 -0.2999959764001 -1.0463743631589073
11.2239375 -0.29917268786411955 -1.0467135666379934
11.2250859375 -0.29982788494731566 -1.0450126706578562
11.226234375 -0.2993850771133939 -1.0452756686476736
11.2273828125 -0.29949697226796124 -1.0447576586745329
11.22853125 -0.29731521458563376 -1.043554174549241
11.2296796875 -0.2944167077860853 -1.044046057580207
11.230828125 -0.2952790441638094 -1.0429379030464703
11.2319765625 -0.29217655223616606 -1.0438698691232293
11.233125 -0.29064200412416236 -1.0426036311477822
11.2342734375 -0.2890727558898596 -1.0441876239450787
11.235421875 -0.28653424501643776 -1.0453315666578666
11.2365703125 -0.2840264601198659 -1.0443978536292848
11.23771875 -0.2823227058891309 -1.0476857633246788
11.2388671875 -0.2800156202310179 -1.0485874873746799
11.240015625 -0.2766331010893734 -1.0483566408101104
11.2411640625 -0.2759432480426867 -1.0528098038412315
11.2423125 -0.27494348537728985 -1.0556346867010293
11.2434609375 -0.2771262536798051 -1.05504377098816
11.244609375 -0.279456766859113 -1.0553220690093863
11.2457578125 -0.2794834586476987 -1.0522952252787154
11.24690625 -0.2779805100770765 -1.0528612675996258
11.2480546875 -0.2767367339578818 -1.0526431478226494
11.249203125 -0.27474281718981475 -1.0538026415879787
11.2503515625 -0.27333877088821085 -1.0516530029963183
11.2515 -0.272689360693751 -1.0501698543583176
11.2526484375 -0.2718933070883239 -1.0498043321138781
11.253796875 -0.27048946759885395 -1.0502662925472417
11.2549453125 -0.26857361668609475 -1.0503916678421452
11.25609375 -0.26644988929672975 -1.05201815624024
11.2572421875 -0.2649200670918658 -1.0528490208410641
11.258390625 -0.2663215430798982 -1.052276507222775
11.2595390625 -0.2649395294355405 -1.0520507612392895
11.2606875 -0.2642713416917258 -1.0525916919418812
11.2618359375 -0.26262757702310846 -1.050647176544885
11.262984375 -0.2618827377869453 -1.048023099460533
11.2641328125 -0.26004073613411577 -1.0477901114655594
11.26528125 -0.2565896047055505 -1.0486617448863402
11.2664296875 -0.2550940833459232 -1.047666439798189
11.267578125 -0.25236538317027407 -1.0498106922532424
11.2687265625 -0.24996795348905876 -1.0498986109563277
11.269875 -0.2503695987355958 -1.047611942576607
11.2710234375 -0.2487758321932786 -1.0488752288209127
11.272171875 -0.24624851050526286 -1.0485456877331167
11.2733203125 -0.24560028100798265 -1.0476505332299824
11.27446875 -0.24307001462993144 -1.049025318952161
11.2756171875 -0.24275273628074756 -1.0488566291560693
11.276765625 -0.24142777836344664 -1.0482915340354393
11.2779140625 -0.24137730055439793 -1.045879612712671
11.2790625 -0.23843497734427044 -1.0476094139011523
11.2802109375 -0.23626048514229758 -1.0482475113496021
11.281359375 -0.2348420947687742 -1.0480154021624952
11.2825078125 -0.2309310407153129 -1.0489525662074715
11.28365625 -0.22899327519707263 -1.0502761314701283
11.2848046875 -0.2287969299593124 -1.0487984738892298
11.285953125 -0.22697956015139775 -1.050224671595437
11.2871015625 -0.2236646426850828 -1.0507992705998368
11.28825 -0.22267198643601782 -1.0525450387490527
11.2893984375 -0.22146012010597854 -1.0515048569908738
11.290546875 -0.21891594544115972 -1.0539485724434812
11.2916953125 -0.219523095712703 -1.0539047021873762
11.29284375 -0.21897021431813535 -1.0532681012796452
11.2939921875 -0.21624473586536486 -1.053952522777238
11.295140625 -0.21370630531186618 -1.0540651622864292
11.2962890625 -0.2154571027334209 -1.054112741824089
11.2974375 -0.21119965211025926 -1.0542628655809518
11.2985859375 -0.20998893837675814 -1.0544849340188207
11.299734375 -0.20698726921578403 -1.0548892989739995
11.3008828125 -0.20773479286471275 -1.0531875995598372
11.30203125 -0.20116905455518308 -1.056131782183106
11.3031796875 -0.2003869375630163 -1.0584046076271183
11.304328125 -0.20031677632631495 -1.0614689695327466
11.3054765625 -0.2004236631184525 -1.0608511899616202
11.306625 -0.19862440267133097 -1.06403035910336
11.3077734375 -0.20058358772681895 -1.0623417051913098
11.308921875 -0.19835526199822273 -1.0642334130405706
11.3100703125 -0.19865511698757854 -1.066744616349618
11.31121875 -0.19729938054617824 -1.0643596966743714
11.3123671875 -0.19917980476654995 -1.0657986555533188
11.313515625 -0.19726242206447453 -1.066134539226189
11.3146640625 -0.19372695958150832 -1.0648301277751566
11.3158125 -0.19226876669287318 -1.067797954640527
11.3169609375 -0.19131695888080602 -1.0673223032250985
11.318109375 -0.19189401918871585 -1.0685527565867838
11.3192578125 -0.18946629276127025 -1.0668397263286034
11.32040625 -0.18955121502927252 -1.067666145946615
11.3215546875 -0.18832919170359164 -1.0683731270566614
11.322703125 -0.18766577719589383 -1.0646288427979114
11.3238515625 -0.18513044137281376 -1.0630905177248657
11.325 -0.18372822980699555 -1.0657845177574718
11.3261484375 -0.17975575693718215 -1.06448637562175
11.327296875 -0.18013874994525936 -1.0665747586720007
11.3284453125 -0.1794856618698467 -1.066421817424942
11.32959375 -0.17734931130953846 -1.0656256192096594
11.3307421875 -0.1731734534268896 -1.065658360035444
11.331890625 -0.17086091016420824 -1.0673284209307754
11.3330390625 -0.1678627074780833 -1.0678217320864902
11.3341875 -0.16747709522711351 -1.0689908833772352
11.3353359375 -0.1636285558979571 -1.0705428056782873
11.336484375 -0.16218837679913312 -1.0727561635229748
11.3376328125 -0.1606573153495493 -1.0744518353128854
11.33878125 -0.15952944747708953 -1.0772798787032516
11.3399296875 -0.15842828214186133 -1.0791318233769305
11.341078125 -0.160116910843139 -1.078761333869355
11.3422265625 -0.16067101293227254 -1.078317402697334
11.343375 -0.16154313877952464 -1.0789892312182303
11.3445234375 -0.15980304153749525 -1.0770968639114205
11.345671875 -0.15829633519574626 -1.0763669201393973
11.3468203125 -0.15606910890421188 -1.0766894102486209
11.34796875 -0.15421241757589055 -1.0773576094649535
11.3491171875 -0.15363096539652277 -1.0786617333801765
11.350265625 -0.14867702746727746 -1.0799102265801424
11.3514140625 -0.14829800281846195 -1.0803332101426901
11.3525625 -0.1473065590647703 -1.0787052124518441
11.3537109375 -0.1468058024191467 -1.0814779140378996
11.354859375 -0.1449109511954284 -1.0827304213089788
11.3560078125 -0.14391073664927534 -1.082393702033445
11.35715625 -0.14295187814835308 -1.083937634447129
11.3583046875 -0.1395303646834387 -1.0839414941585517
11.359453125 -0.13840239899372125 -1.0847691470084644
11.3606015625 -0.1399602442464406 -1.0851710182092753
11.36175 -0.13874562960163034 -1.0857181313225075
11.3628984375 -0.14046026691087804 -1.0865569372101678
11.364046875 -0.13721810905291681 -1.0897057298948343
11.3651953125 -0.1353078565473918 -1.0887214686694047
11.36634375 -0.13437191304771018 -1.0929068988179784
11.3674921875 -0.13398279580968364 -1.0922485150123946
11.368640625 -0.13092835830014593 -1.0936235165962855
11.3697890625 -0.1330327231385645 -1.0956794971933295
11.3709375 -0.13309900897330768 -1.0965952216686288
11.3720859375 -0.13564519627331553 -1.0956575302560363
11.373234375 -0.13410086014471276 -1.0977249849920216
11.3743828125 -0.1345478009251228 -1.0960332257765302
11.37553125 -0.13779314553878166 -1.0959219908893238
11.3766796875 -0.1352207901430889 -1.0919934605783495
11.377828125 -0.13682863939270878 -1.0919953285268467
11.3789765625 -0.13174968070067 -1.0923400415477427
11.380125 -0.13638136151328864 -1.0921010295317983
11.3812734375 -0.13568187757727845 -1.0921446075303387
11.382421875 -0.1321436678538979 -1.091255207406519
11.3835703125 -0.12869482427774254 -1.0892355109073333
11.38471875 -0.1278372591391449 -1.0921377995161525
11.3858671875 -0.12694326164539088 -1.0893998222843209
11.387015625 -0.12492448109724358 -1.087649906353479
11.3881640625 -0.12111327265338742 -1.0906621172025037
11.3893125 -0.12230892841930008 -1.0912882608163221
11.3904609375 -0.11863221539577956 -1.0904089592443293
11.391609375 -0.1175712151260796 -1.0948207802102607
11.3927578125 -0.11511968715347048 -1.091105222925581
11.39390625 -0.12215387505001876 -1.0910184275354977
11.3950546875 -0.11952411238273955 -1.0904948520605648
11.396203125 -0.11652307624310249 -1.0886784741904854
11.3973515625 -0.11344279475828281 -1.0880699950311257
11.3985 -0.1129211615575762 -1.085763653876336
11.3996484375 -0.10990680360927368 -1.087832393096223
11.400796875 -0.11045188902748238 -1.0874784436028284
11.4019453125 -0.10828781838025645 -1.088709664045564
11.40309375 -0.10640286490614975 -1.0899084966481958
11.4042421875 -0.10220609045783635 -1.0917017898274253
11.405390625 -0.1033405618554255 -1.0905962209274613
11.4065390625 -0.10413172541465263 -1.087610991756513
11.4076875 -0.10107200017352913 -1.0887964020106464
11.4088359375 -0.09828095713108378 -1.0899895710102312
11.409984375 -0.09911855993971744 -1.087886391073154
11.4111328125 -0.09560923242583033 -1.090152020318196
11.41228125 -0.09376242757040548 -1.0869996123141532
11.4134296875 -0.09061857303986692 -1.088277228965056
11.414578125 -0.08772243495158066 -1.093266615164992
11.4157265625 -0.08648235552092923 -1.0971732380669705
11.416875 -0.08706698891627587 -1.0993551167948914
11.4180234375 -0.0884981682737879 -1.102680830772176
11.419171875 -0.08682800533866236 -1.103007008959037
11.4203203125 -0.08929937720705941 -1.101344528462032
11.42146875 -0.0905599613054448 -1.1013755788879505
11.4226171875 -0.09192150366911192 -1.1009785832088754
11.423765625 -0.09012671672696673 -1.099789210538027
11.4249140625 -0.0888904087662159 -1.0990947920650154
11.4260625 -0.08859198468207885 -1.098565214527508
11.4272109375 -0.09008462493040278 -1.0984186940755767
11.428359375 -0.090515896767218 -1.0992312863052005
11.4295078125 -0.08791084881443692 -1.0967839371252817
11.43065625 -0.08785364406557838 -1.0965559249601982
11.4318046875 -0.09111153182887854 -1.0953701483022813
11.432953125 -0.0905869787932794 -1.0937327947653113
11.4341015625 -0.088819043655926 -1.0933800401091125
11.43525 -0.08818291840647297 -1.0917215325906209
11.4363984375 -0.0872500297569328 -1.0897842176195394
11.437546875 -0.08504129856625664 -1.0888702576508433
11.4386953125 -0.08280510709521949 -1.0889027814595669
11.43984375 -0.0818335309096648 -1.0877907526404385
11.4409921875 -0.08208076045903445 -1.0859229137043247
11.442140625 -0.07942091245444188 -1.0863621025812693
11.4432890625 -0.07831989400052511 -1.0830623595109097
11.4444375 -0.07412107410125976 -1.082699588499224
11.4455859375 -0.07140103239312154 -1.0849983828175014
11.446734375 -0.06970234400450709 -1.0838767890082905
11.4478828125 -0.0700291900980799 -1.0877200809779268
11.44903125 -0.06827524833151047 -1.0905108814994198
11.4501796875 -0.07195880386345027 -1.0936573565626881
11.451328125 -0.07367256427712118 -1.0896435277144036
11.4524765625 -0.07465627554632281 -1.0873566993471804
11.453625 -0.07446378173820853 -1.0833752590819683
11.4547734375 -0.07228612730408737 -1.078975593890594
11.455921875 -0.06636201378282844 -1.07920234364406
11.4570703125 -0.06393646209668186 -1.078699233346329
11.45821875 -0.06271861135710774 -1.0769041778357988
11.4593671875 -0.06312715669422936 -1.077289288903237
11.460515625 -0.05837644934635139 -1.0768132404544422
11.4616640625 -0.05927779870053565 -1.07808201447333
11.4628125 -0.054571040389134684 -1.0786809610795753
11.4639609375 -0.053097455766316165 -1.0791913182016837
11.465109375 -0.052315214307069036 -1.0796308592864334
11.4662578125 -0.054064054576913545 -1.0788305425881246
11.46740625 -0.0522920601477867 -1.0773834228296848
11.4685546875 -0.05028212543286553 -1.0774475119881024
11.469703125 -0.05000840457889666 -1.0777036601114838
11.4708515625 -0.045678292891798034 -1.0778025204133037
11.472 -0.04295476806563231 -1.0773706581329756
11.4731484375 -0.04138590407345172 -1.0772690819538264
11.474296875 -0.0418869132668348 -1.0801490374882732
11.4754453125 -0.04020559498716725 -1.081142320882546
11.47659375 -0.0386299346443143 -1.077799352587183
11.4777421875 -0.03779486716621289 -1.077227785611487
11.478890625 -0.03491573592073932 -1.0770487923515193
11.4800390625 -0.03345725208375233 -1.0760505826918396
11.4811875 -0.03506367387649001 -1.075514633481469
11.4823359375 -0.033021162619718436 -1.078013983311116
11.483484375 -0.030977121562205057 -1.0738204689262139
11.4846328125 -0.028995105358463336 -1.0732935944221407
11.48578125 -0.027414194438139472 -1.0709947563801847
11.4869296875 -0.0230745105625913 -1.0709868897889583
11.488078125 -0.018311069172687655 -1.0696174367267437
11.4892265625 -0.015936163969781314 -1.0699272191395945
11.490375 -0.011189602149382583 -1.0703085151445464
11.4915234375 -0.009733665625072052 -1.0737979826363857
11.492671875 -0.010876482248937447 -1.0732803412362983
11.4938203125 -0.009564064283611118 -1.074963022589717
11.49496875 -0.007369716986104224 -1.0775179229492926
11.4961171875 -0.007394645605209249 -1.075482896780854
11.497265625 -0.005829590995683254 -1.0763857292246068
11.4984140625 -0.004649626565715048 -1.0740416502606713
11.4995625 -0.0009500894212973732 -1.0740855799448736
11.5007109375 0.0014259764180651335 -1.07215848033878
11.501859375 0.002166013555071178 -1.0715183833478563
11.5030078125 0.005790691977441753 -1.0725292798237367
11.50415625 0.005699193038374795 -1.0759103991679995
11.5053046875 0.00896004077378637 -1.075760997733519
11.506453125 0.007537634403849358 -1.0738817263088554
11.5076015625 0.006980156129512416 -1.0718634071210607
11.50875 0.01073578956868837 -1.0737289837118125
11.5098984375 0.0142302712581725 -1.0734605586665484
11.511046875 0.011999623559472816 -1.0717878256510902
11.5121953125 0.014893917176402871 -1.0707498422143666
11.51334375 0.01683259172926166 -1.0723800022935301
11.5144921875 0.014815545770747951 -1.0697081838816553
11.515640625 0.019268609077970456 -1.0676627159811722
11.5167890625 0.022325975136533782 -1.0667477276307251
11.5179375 0.026181761928656455 -1.070047709224282
11.5190859375 0.02648978277773878 -1.0691795827080663
11.520234375 0.027968130882663256 -1.068814367368769
11.5213828125 0.02983808935391835 -1.069608069929751
11.52253125 0.03216833075855968 -1.06741313126958
11.5236796875 0.03459873162139798 -1.0671495440555994
11.524828125 0.037284940310799375 -1.0641686350727722
11.5259765625 0.03867639548675228 -1.0654777279482668
11.527125 0.04335460297606564 -1.0675312915965334
11.5282734375 0.046694366100287765 -1.0664027928463673
11.529421875 0.04890663980368348 -1.0673840844272806
11.5305703125 0.05208315937440855 -1.0682721828334953
11.53171875 0.05169388955870036 -1.0699387919639092
11.5328671875 0.05210451730476459 -1.0707620074944197
11.534015625 0.052691068749601916 -1.0720930162966775
11.5351640625 0.05568814540166395 -1.0705932516012244
11.5363125 0.06110441426740387 -1.0682671434734425
11.5374609375 0.06182461294009056 -1.0697814290666805
11.538609375 0.0667898059456925 -1.0714456135765995
11.5397578125 0.06955581563654661 -1.075159156702293
11.54090625 0.07049364257608598 -1.0776406644045726
11.5420546875 0.0715744871288741 -1.079778254395036
11.543203125 0.0748469296830847 -1.0821093797546868
11.5443515625 0.07444988306394715 -1.0846791788531656
11.5455 0.07658544530886763 -1.086256642350937
11.5466484375 0.07895774761219695 -1.088001713734013
11.547796875 0.07730265602032516 -1.091159206309543
11.5489453125 0.07573639629193568 -1.090500382194292
11.55009375 0.07637083211716658 -1.0939322837106702
11.5512421875 0.07688738947410795 -1.0931655320914926
11.552390625 0.07469630365781876 -1.0922011473513111
11.5535390625 0.07640048244020187 -1.0925655707550983
11.5546875 0.07768689643175675 -1.092540444894564
11.5558359375 0.07986071398690339 -1.092754196046644
11.556984375 0.08080353857086209 -1.0933036080396161
11.5581328125 0.08035094083473715 -1.0963056940989313
11.55928125 0.08005016603912712 -1.0966915532833128
11.5604296875 0.07688510550486455 -1.0940788246919215
11.561578125 0.07972127911680704 -1.0962514835929236
11.5627265625 0.07930835232610484 -1.0960249626116514
11.563875 0.07890563432532766 -1.0942373643779604
11.5650234375 0.08014746712037517 -1.096977613171351
11.566171875 0.08030801397108003 -1.0975405003765544
11.5673203125 0.0783621747535372 -1.0930562307152147
11.56846875 0.07861899383426622 -1.0928457211861078
11.5696171875 0.08248496347056768 -1.0918535695861893
11.570765625 0.08530885262640293 -1.0896406047873635
11.5719140625 0.08485171376220349 -1.0883487810576846
11.5730625 0.08577080210413386 -1.090044749911082
11.5742109375 0.08784434502998545 -1.0904891951873679
11.575359375 0.08829852772641797 -1.0887064573170582
11.5765078125 0.09202740891479469 -1.090919436421405
11.57765625 0.09275223322535027 -1.0903733261683515
11.5788046875 0.09152185642925423 -1.087597019638597
11.579953125 0.09519263606390964 -1.0888844208421842
11.5811015625 0.09501682461497668 -1.0912794153359369
11.58225 0.09340047264637663 -1.0881561204819923
11.5833984375 0.0952133870810129 -1.0877994191551648
11.584546875 0.09423390952138752 -1.0875187337126553
11.5856953125 0.09671327894196552 -1.0875979388328731
11.58684375 0.0957783062942362 -1.0854924456280695
11.5879921875 0.09796493301048256 -1.0834117510632857
11.589140625 0.09994651629992823 -1.0817176625290634
11.5902890625 0.1011341679026902 -1.0762856233941824
11.5914375 0.10422932621135886 -1.0756548492065292
11.5925859375 0.10490376560691707 -1.076305330653631
11.593734375 0.10787283582599512 -1.0764951320261782
11.5948828125 0.11074437905721016 -1.0759263144017985
11.59603125 0.11528323989074213 -1.0770533947497758
11.5971796875 0.11764916474398465 -1.0741684528424529
11.598328125 0.12029758142151846 -1.0729787617734616
11.5994765625 0.12316549816405067 -1.0739327896519022
11.600625 0.1288721938730464 -1.0777111537137076
11.6017734375 0.13048107827021876 -1.0764865276137663
11.602921875 0.13153136633890383 -1.0799582003168195
11.6040703125 0.13481198385921683 -1.0808961521321099
11.60521875 0.1352647141647576 -1.081160920244697
11.6063671875 0.13720597230873632 -1.0825554802666146
11.607515625 0.13948596450652034 -1.0841834086497482
11.6086640625 0.14276762360182288 -1.0827645197920839
11.6098125 0.14228115353185594 -1.0868427577288355
11.6109609375 0.14254869853749255 -1.0899543009169677
11.612109375 0.14110808166644867 -1.0916209943499067
11.6132578125 0.13811579273216834 -1.0879008948815987
11.61440625 0.14114625767605235 -1.087718851557108
11.6155546875 0.14121431609960763 -1.0873971548257906
11.616703125 0.14185666362837215 -1.0860903043002825
11.6178515625 0.14395979100399275 -1.0836796718562298
11.619 0.145870051568608 -1.082604977579461
11.6201484375 0.1491217124466752 -1.0823472684762083
11.621296875 0.15373445213068485 -1.0824298836382242
11.6224453125 0.15532209701554314 -1.0834449119592475
11.62359375 0.15703018718224138 -1.085868482011681
11.6247421875 0.158809500811459 -1.085647721228185
11.625890625 0.16312883978524917 -1.0881408080514556
11.6270390625 0.16495567355699534 -1.0903410170380134
11.6281875 0.1630296262956084 -1.0902011888913001
11.6293359375 0.1691782921298023 -1.0936960890294223
11.630484375 0.16630477022441426 -1.0942488687660292
11.6316328125 0.16843627383290322 -1.0916467473378932
11.63278125 0.16662474742320682 -1.0933647098140566
11.6339296875 0.1687016872376521 -1.0932266868066784
11.635078125 0.1699774000836784 -1.0930579600854982
11.6362265625 0.16908031607067217 -1.0953146978331867
11.637375 0.1698297499652811 -1.0959971827794992
11.6385234375 0.1707783038610067 -1.098115153246762
11.639671875 0.17088842663471188 -1.0950527133188885
11.6408203125 0.175351863634939 -1.0936834694268265
11.64196875 0.1745323989879139 -1.09489829103859
11.6431171875 0.17068250837989152 -1.0955651104469164
11.644265625 0.16994219536874575 -1.0945524226063568
11.6454140625 0.16914512817666513 -1.0961832662491415
11.6465625 0.1695533775370692 -1.0939088132825532
11.6477109375 0.17185462329839585 -1.092662919539129
11.648859375 0.17232986906503292 -1.0924067494255234
11.6500078125 0.17386179019578996 -1.0904869661139116
11.65115625 0.1748532809515079 -1.0874461143364005
11.6523046875 0.17783687408877139 -1.090518930052577
11.653453125 0.17952196825728656 -1.0875672179359637
11.6546015625 0.17884082768766094 -1.0849265776851262
11.65575 0.18118711452289316 -1.086748123641649
11.6568984375 0.18487358843438573 -1.0871153168559886
11.658046875 0.18352539044373595 -1.086648458552847
11.6591953125 0.1850477995936297 -1.0869174978919465
11.66034375 0.187370192408146 -1.0884914830678094
11.6614921875 0.18716091598338047 -1.0857405710640529
11.662640625 0.18735343008017616 -1.0816882959301604
11.6637890625 0.19290486957879432 -1.082204414911629
11.6649375 0.19804162356876548 -1.0825600332691245
11.6660859375 0.19863167050917363 -1.081054712882374
11.667234375 0.2016469070811719 -1.0841687459213911
11.6683828125 0.20376675733263383 -1.0834369567503732
11.66953125 0.20248081601658496 -1.0818961758666144
11.6706796875 0.20488700154679806 -1.0822298228403406
11.671828125 0.20946446713768813 -1.082775507371902
11.6729765625 0.21001807386224747 -1.084537242001388
11.674125 0.2125216000004468 -1.0841896941450542
11.6752734375 0.2144104948769618 -1.0897020021507724
11.676421875 0.21625112411099306 -1.091282374146011
11.6775703125 0.2136704162514169 -1.093488650824277
11.67871875 0.2140847049313948 -1.0950398987059924
11.6798671875 0.21389272679538945 -1.093107846004655
11.681015625 0.21209253018890417 -1.090504410725944
11.6821640625 0.21292897841632807 -1.0899912347786394
11.6833125 0.21440790940538484 -1.0908913234925524
11.6844609375 0.2116511834871303 -1.0865093094549745
11.685609375 0.21594363660517826 -1.0868101729641848
11.6867578125 0.21868032900182838 -1.0837320467450533
11.68790625 0.22273638274175248 -1.0868302394126026
11.6890546875 0.22284970941014104 -1.0846362626561261
11.690203125 0.22754870770140295 -1.0867066931017213
11.6913515625 0.22649874842048778 -1.09016383471434
11.6925 0.22702194261327763 -1.0904737845780044
11.6936484375 0.22859109778288444 -1.0923595386407385
11.694796875 0.23163738054912536 -1.091386972252326
11.6959453125 0.22897267344687788 -1.0902446786602171
11.69709375 0.2314238890710496 -1.094521179892192
11.6982421875 0.23154551186223898 -1.0929635166121963
11.699390625 0.22770927411879954 -1.0932722127221128
11.7005390625 0.22924353171304435 -1.0942093678362124
11.7016875 0.23204213668023116 -1.0935756608074485
11.7028359375 0.23256705749799256 -1.0925560988170284
11.703984375 0.23167800263178023 -1.0903021679931366
11.7051328125 0.2372481822883083 -1.0910832253409615
11.70628125 0.23572705948376693 -1.0931389700893632
11.7074296875 0.23829269724780078 -1.095118314062811
11.708578125 0.2385505377589201 -1.0931834748662457
11.7097265625 0.23793228448929765 -1.0923137098950733
11.710875 0.23542435647328364 -1.0912237349907035
11.7120234375 0.2377274046346724 -1.0866190039110466
11.713171875 0.2433441884934493 -1.0836440574354609
11.7143203125 0.24644003318598398 -1.0826229169470913
11.71546875 0.24941695096070823 -1.0855854759423607
11.7166171875 0.25386986948183055 -1.08688708476961
11.717765625 0.2549730261701236 -1.0885382823576453
11.7189140625 0.256503753212114 -1.0864230787043145
11.7200625 0.2573045683149348 -1.0893377918084606
11.7212109375 0.26092206214095526 -1.090280655728276
11.722359375 0.2593873920696806 -1.0915218232312216
11.7235078125 0.2586536680473943 -1.0923683051027429
11.72465625 0.25898852119711147 -1.0920377468398816
11.7258046875 0.2602953567087227 -1.0894204544621842
11.726953125 0.26064844940896453 -1.090016009385326
11.7281015625 0.2608867345381131 -1.0845566753298088
11.72925 0.2655518903776909 -1.0843928488136547
11.7303984375 0.2642218436676359 -1.083329387633831
11.731546875 0.2663513773155609 -1.086484501215275
11.7326953125 0.26874076633991545 -1.0871233316282765
11.73384375 0.26609713868307866 -1.087832834009838
11.7349921875 0.26924673676697675 -1.087004959788342
11.736140625 0.2685794572300726 -1.0893475022871957
11.7372890625 0.26685010177990154 -1.0889362040447106
11.7384375 0.2700889587014989 -1.0876383548208908
11.7395859375 0.27044851170371653 -1.088185017325337
11.740734375 0.26965893424492104 -1.0873237842238717
11.7418828125 0.2664634841907185 -1.0868988680036005
11.74303125 0.2647593461518348 -1.0850610869723365
11.7441796875 0.26540595793404476 -1.0824270141181676
11.745328125 0.2624795342909121 -1.080456500576066
11.7464765625 0.26688366657922796 -1.0813694338461204
11.747625 0.2638069210093772 -1.0802257227283827
11.7487734375 0.2631061108598551 -1.0777496340421946
11.749921875 0.261640868958464 -1.0748525387994234
11.7510703125 0.2626719100330845 -1.0707145936558664
11.75221875 0.267068778015322 -1.0655599623543623
11.7533671875 0.27099992347950214 -1.0642302292462098
11.754515625 0.2733808334621499 -1.0628933404146326
11.7556640625 0.27469467420110577 -1.0660008342626186
11.7568125 0.2721558314099171 -1.063938137485519
11.7579609375 0.2716848558932069 -1.0652928872617964
11.759109375 0.27453038876345287 -1.061922812473993
11.7602578125 0.2702661527132231 -1.0611446268317843
11.76140625 0.2761727281490929 -1.0578679099939412
11.7625546875 0.281118340281333 -1.0529393532912943
11.763703125 0.2813247424974829 -1.0502527445327323
11.7648515625 0.2862851370542119 -1.0490512981863835
11.766 0.28997847640620006 -1.047164763211974
11.7671484375 0.29271121379245413 -1.0501422438171697
11.768296875 0.29166142601097145 -1.04710733956099
11.7694453125 0.29452325313594335 -1.0490049132451142
11.77059375 0.2950600586245976 -1.0473912615285266
11.7717421875 0.29614916549207715 -1.0459008503240446
11.772890625 0.29663975365802125 -1.0490431675066003
11.7740390625 0.2954078578653898 -1.0448895305200765
11.7751875 0.29206061170553976 -1.0398153226285396
11.7763359375 0.2984723809342305 -1.0416664800939788
11.777484375 0.29487764243926595 -1.0422713635204202
11.7786328125 0.29708743144206157 -1.033388398462706
11.77978125 0.3033949824247812 -1.0352705653881278
11.7809296875 0.30519122673543597 -1.0314735777405244
11.782078125 0.3090197115253348 -1.0308076096820704
11.7832265625 0.3088373302328914 -1.0330368492167692
11.784375 0.31439505669668344 -1.0331033157781435
11.7855234375 0.3147090440177821 -1.030256284421615
11.786671875 0.3107131215373133 -1.029293497503752
11.7878203125 0.3108050179719461 -1.0296195342160035
11.78896875 0.31316328743510363 -1.0324345193336728
11.7901171875 0.3104184238979094 -1.0255387770256938
11.791265625 0.3116306437489824 -1.023258192029652
11.7924140625 0.3169162594222018 -1.0185442374858753
11.7935625 0.31799239429413034 -1.018603991134677
11.7947109375 0.3216054864435437 -1.0125361243679945
11.795859375 0.32312981760724746 -1.0128236813933653
11.7970078125 0.3305378296215157 -1.0094967437647389
11.79815625 0.3320570975523204 -1.012633221304768
11.7993046875 0.3327205776520624 -1.0089422502326417
11.800453125 0.33304349014420975 -1.012100558605976
11.8016015625 0.33553044185745323 -1.0138275931585041
11.80275 0.337861785031658 -1.0120186109615326
11.8038984375 0.33734289056643846 -1.0100772863224172
11.805046875 0.3363737922904081 -1.0064985503555368
11.8061953125 0.3394559980992227 -1.0057006428087716
11.80734375 0.34671423171918864 -1.0031649221175374
11.8084921875 0.34832765252823106 -1.0000785544624016
11.809640625 0.35132719509354604 -1.0017040273491467
11.8107890625 0.35534860198791757 -1.0028145623560534
11.8119375 0.3584136919848895 -1.004346101169514
11.8130859375 0.3548710004565805 -1.0014206335038747
11.814234375 0.35828995331465885 -1.0066383063184308
11.8153828125 0.35638854566240386 -1.0056639943916863
11.81653125 0.35304852456522184 -1.0022187692219067
11.8176796875 0.35610636229874604 -1.0001157578561537
11.818828125 0.35585215572373563 -0.9971572859282978
11.8199765625 0.35830515636112586 -0.996644120444507
11.821125 0.3577919762975983 -0.9958336639647292
11.8222734375 0.35996270626115034 -0.9939928190005238
11.823421875 0.35807025633576367 -0.9924035927966882
11.8245703125 0.3621043016536035 -0.9881615199648672
11.82571875 0.36797053762336507 -0.985649547581532
11.8268671875 0.3681055312486572 -0.9871209252838453
11.828015625 0.3678824554985659 -0.9827359140394223
11.8291640625 0.37524259849380087 -0.9794855951050508
11.8303125 0.3797495543564532 -0.9805457549773063
11.8314609375 0.3821236590919026 -0.9833628697364268
11.832609375 0.385551644311679 -0.9830530006557437
11.8337578125 0.3873775813079509 -0.9803354996631508
11.83490625 0.3846212513174589 -0.9745106211422876
11.8360546875 0.3849610811561642 -0.9792770602236418
11.837203125 0.38829150209165975 -0.9796693632008797
11.8383515625 0.39167822909856786 -0.9798041583289542
11.8395 0.38604606997004565 -0.9728548186685152
11.8406484375 0.39248025745091286 -0.9697644456278628
11.841796875 0.39679717014978505 -0.9730522215922383
11.8429453125 0.3973960669220158 -0.9717921091270961
11.84409375 0.40089314486059324 -0.9732553872313263
11.8452421875 0.4000732641161179 -0.9769042427860515
11.846390625 0.4008226440810997 -0.9734068853837266
11.8475390625 0.4044821153710146 -0.9716265860919249
11.8486875 0.4073736813296784 -0.9706263067774634
11.8498359375 0.4069701510237772 -0.9767954768109381
11.850984375 0.4073489441114651 -0.9715330766891401
11.8521328125 0.4059149541726169 -0.9764248678087849
11.85328125 0.40527336718517276 -0.9725580341335185
11.8544296875 0.4072117253176473 -0.968546342469579
11.855578125 0.40692610976622134 -0.971720654333024
11.8567265625 0.40726807140297905 -0.9677727422101374
11.857875 0.40430023852223745 -0.9632726647505768
11.8590234375 0.4112631857668901 -0.9586254234979373
11.860171875 0.4166640515738628 -0.9583883961257504
11.8613203125 0.41843618670916505 -0.9596849716845791
11.86246875 0.42163071595604024 -0.9630165107597515
11.8636171875 0.4298212976996411 -0.9707895246172131
11.864765625 0.43029410237817234 -0.9671079679551655
11.8659140625 0.42933306811097793 -0.9686728220795369
11.8670625 0.4330863397088404 -0.9728765756456446
11.8682109375 0.4309509771458614 -0.9765221312806944
11.869359375 0.4295152291893354 -0.9766314920490926
11.8705078125 0.4268066046644823 -0.9750576912459673
11.87165625 0.42635352934828497 -0.9770497869708858
11.8728046875 0.42525957922356106 -0.9755357061778721
11.873953125 0.42521142673317913 -0.9672117347067422
11.8751015625 0.426305150480504 -0.9703350762531471
11.87625 0.42855215347623615 -0.9683518328282883
11.8773984375 0.4302587805010616 -0.9655034200806051
11.878546875 0.4337596666257869 -0.968076105344722
11.8796953125 0.43300886362885505 -0.9649950747193334
11.88084375 0.431340292083117 -0.9646770839237294
11.8819921875 0.4318625972752783 -0.9611461080279978
11.883140625 0.4372236505440046 -0.9593053098272084
11.8842890625 0.4391992397833286 -0.9571750363966146
11.8854375 0.44269324719338604 -0.9571142356358482
11.8865859375 0.44256346718406 -0.9592759765613944
11.887734375 0.4441324772969444 -0.9554628597301862
11.8888828125 0.44783478151907935 -0.9560139120224523
11.89003125 0.4527494078184129 -0.9590702513575512
11.8911796875 0.4555561470658599 -0.9618613405204018
11.892328125 0.45417954627879414 -0.9651130964348623
11.8934765625 0.45243937637915954 -0.9652515057699288
11.894625 0.45300454320453776 -0.9659780116912052
11.8957734375 0.45236529695300964 -0.9647588114548379
11.896921875 0.45405535108987394 -0.9645681724338302
11.8980703125 0.45482152797826314 -0.9638278152099582
11.89921875 0.4483465882121218 -0.9645733734349615
11.9003671875 0.44713397237668834 -0.9648414561212902
11.901515625 0.4489911740571952 -0.9611738933306463
11.9026640625 0.44881802158838147 -0.9571550127177009
11.9038125 0.44643809600408624 -0.955404938758677
11.9049609375 0.448682879226188 -0.9517557180344175
11.906109375 0.4421092460090393 -0.9437229584575954
11.9072578125 0.4486828503673349 -0.9413163102843541
11.90840625 0.4556798224816473 -0.9384571132929359
11.9095546875 0.4608466916369871 -0.9345453228194615
11.910703125 0.4636509304679418 -0.9314672938671991
11.9118515625 0.4640765001239259 -0.9296531714096306
11.913 0.4666769623012187 -0.9250412958558767
11.9141484375 0.46849873276208487 -0.9164526177280221
11.915296875 0.47242493430663285 -0.9089295768821235
11.9164453125 0.47354169034474236 -0.9052443961258676
11.91759375 0.4782448042830093 -0.8992649356130853
11.9187421875 0.4746101197776901 -0.892586132288671
11.919890625 0.47631582093101915 -0.8799589072257578
11.9210390625 0.4857974054765213 -0.8740264482857871
11.9221875 0.49103552983610205 -0.8680078348581568
11.9233359375 0.5036606295024606 -0.8671285211141366
11.924484375 0.5040323982864211 -0.8678632619556461
11.9256328125 0.5090068366844333 -0.8665126083179973
11.92678125 0.5171914135228349 -0.8711771207618043
11.9279296875 0.5274969588280599 -0.8722937839314077
11.929078125 0.5279837238649965 -0.8768038245239055
11.9302265625 0.5316300260958806 -0.8864526958982695
11.931375 0.52850554795335 -0.8951368205324586
11.9325234375 0.5238092753027872 -0.9022349190003704
11.933671875 0.5277169310004712 -0.899855860043201
11.9348203125 0.533104765888109 -0.8948841979113894
11.93596875 0.535854315410433 -0.9001899587748959
11.9371171875 0.5342311072440592 -0.9032806552139153
11.938265625 0.5319840527663977 -0.9075154102604541
11.9394140625 0.5284650584847865 -0.906887012923651
11.9405625 0.5252604374072832 -0.9016924175348706
11.9417109375 0.5291680795443898 -0.8962080927444113
11.942859375 0.5352720107583235 -0.8953808401559389
11.9440078125 0.540890300964098 -0.8932968943865289
11.94515625 0.542978944469477 -0.8917814700520185
11.9463046875 0.5464843120987741 -0.8927139489535375
11.947453125 0.5438644913734163 -0.8940258703901331
11.9486015625 0.5412984636890432 -0.8942762618666124
11.94975 0.5431656079110905 -0.8937547645405485
11.9508984375 0.5439973671785683 -0.8929873326354771
11.952046875 0.5412269810782981 -0.8879748263565312
11.9531953125 0.5416556500297438 -0.8815701068081128
11.95434375 0.5486077456482428 -0.8742130658709797
11.9554921875 0.5583188552767181 -0.8662151339063662
11.956640625 0.570782841204663 -0.8599706726297063
11.9577890625 0.5873429404039735 -0.8637089510937986
11.9589375 0.5954686546312514 -0.8693703937867677
11.9600859375 0.5960156433881636 -0.8726500996144555
11.961234375 0.5974915256465388 -0.8750156950960961
11.9623828125 0.6036090605046517 -0.8813007140398924
11.96353125 0.6064708302958984 -0.8849646579871119
11.9646796875 0.6105269394992958 -0.8888604732742696
11.965828125 0.6126032653105857 -0.8934629075240702
11.9669765625 0.6116276288466934 -0.902262688727386
11.968125 0.6098154024633353 -0.9089351237289662
11.9692734375 0.6066917769816653 -0.9096025978550908
11.970421875 0.5990152514712981 -0.914909245423727
11.9715703125 0.5987582319283945 -0.9134437899645035
11.97271875 0.5991584001843436 -0.9170866802549725
11.9738671875 0.6001064680826579 -0.9166855781576077
11.975015625 0.5947805844827498 -0.9234030073414308
11.9761640625 0.5928051532303743 -0.9238728718191139
11.9773125 0.590110365791271 -0.9223857186450245
11.9784609375 0.5869400065508186 -0.9245695331249844
11.979609375 0.5856088577276453 -0.9202477342800557
11.9807578125 0.5838593193750319 -0.9205316134890592
11.98190625 0.5820773580516283 -0.922011127051376
11.9830546875 0.5766672412205062 -0.9213852742475264
11.984203125 0.5780731709303144 -0.9195815339895288
11.9853515625 0.5799629623270475 -0.9189779637727048
11.9865 0.5774532256722279 -0.9151117113165562
11.9876484375 0.57911826506333 -0.9143364877111468
11.988796875 0.5775494360932544 -0.9109006489731517
11.9899453125 0.5783072612411551 -0.9119216184225813
11.99109375 0.5813426809888084 -0.9155324758930201
11.9922421875 0.5828671976912507 -0.9183609805060977
11.993390625 0.5821823362121785 -0.9177615830348315
11.9945390625 0.5804733718913129 -0.9169639851944431
11.9956875 0.577490810317258 -0.9208955276929348
11.9968359375 0.571649166001254 -0.9201161859050586
11.997984375 0.5687124392439651 -0.9164151001923513
11.9991328125 0.5635141079922676 -0.9131162129963857
12.00028125 0.5635169776741333 -0.9077215871356217
12.0014296875 0.563474564444062 -0.907163066276655
12.002578125 0.5639107531757813 -0.8997706350943786
12.0037265625 0.5653251354375062 -0.8967335736798614
12.004875 0.5682923621162987 -0.8935398506765
12.0060234375 0.573331247490449 -0.8925440734315973
12.007171875 0.5735632721385742 -0.8864051009351515
12.0083203125 0.5820844703706217 -0.8852394259079591
12.00946875 0.5820192542229797 -0.8852465438431243
12.0106171875 0.5837973634110827 -0.8875209775251636
12.011765625 0.585385953596282 -0.887718814266662
12.0129140625 0.5858841754135429 -0.8877614556465661
12.0140625 0.5834637122399935 -0.8854710106129698
12.0152109375 0.584956137247806 -0.8852491939632211
12.016359375 0.5861642632192049 -0.884034919967214
12.0175078125 0.5863351789112886 -0.8815125511663618
12.01865625 0.5901188621521627 -0.8837171378597672
12.0198046875 0.5911529725808565 -0.879094172001325
12.020953125 0.5939974871858259 -0.8778084005626967
12.0221015625 0.5942626017485212 -0.8773095619599388
12.02325 0.59512101140665 -0.875129073055418
12.0243984375 0.5961590391965181 -0.8769486472763091
12.025546875 0.5975208465085233 -0.8760683796857903
12.0266953125 0.5974800197325523 -0.8752811251456796
12.02784375 0.5992527264934969 -0.8768952225580757
12.0289921875 0.6006007359739802 -0.873499891681175
12.030140625 0.6036442789542541 -0.8741346885155752
12.0312890625 0.6018695784319872 -0.8744088298178065
12.0324375 0.6050175262828874 -0.8727591420491272
12.0335859375 0.6043405978281085 -0.8696645777606073
12.034734375 0.6025272008216254 -0.8696004799903202
12.0358828125 0.606611238859724 -0.867531939614673
12.03703125 0.6065666595678446 -0.8657393111815734
12.0381796875 0.6114707495209117 -0.8653905985138143
12.039328125 0.6108336314463841 -0.8673844836838948
12.0404765625 0.6153285615374418 -0.8668172871489205
12.041625 0.6128232037260577 -0.8652340418384349
12.0427734375 0.6148335158257647 -0.8653467580337275
12.043921875 0.6129963320046262 -0.8628528978136868
12.0450703125 0.6125695282756982 -0.8581700594769037
12.04621875 0.6097206494328431 -0.8603603598236237
12.0473671875 0.6109162790780792 -0.8581417410527521
12.048515625 0.6095816452712832 -0.8560570584546183
12.0496640625 0.6084730019912702 -0.853193399696432
12.0508125 0.6069927213937127 -0.8499762445452789
12.0519609375 0.6052264689874961 -0.8410167399820563
12.053109375 0.614683778845249 -0.8386625365088354
12.0542578125 0.6152506757499214 -0.8379745791999864
12.05540625 0.6139051310073007 -0.8314318773607386
12.0565546875 0.6141044797886148 -0.831650616909187
12.057703125 0.6184832598421544 -0.8255411694167649
12.0588515625 0.6264584217118049 -0.8216550843714567
12.06 0.6289605177170743 -0.8147226439550164
12.0611484375 0.6338556563009758 -0.8173831686788217
12.062296875 0.6360101175733204 -0.8161818786246824
12.0634453125 0.6376787382446434 -0.8134595933503743
12.06459375 0.6407064340476912 -0.8167933315831019
12.0657421875 0.6431692609757088 -0.8132027357787018
12.066890625 0.6442680317714411 -0.8110407159569972
12.0680390625 0.6475686975321278 -0.8121590458797625
12.0691875 0.645534824170013 -0.8065890483748978
12.0703359375 0.6507692898539269 -0.8056756501782392
12.071484375 0.6523511412819785 -0.7998932903486224
12.0726328125 0.6575442166668957 -0.7977117471512605
12.07378125 0.6629878474593525 -0.7954086346138173
12.0749296875 0.6671880175437459 -0.7948481759815094
12.076078125 0.6729005038891676 -0.7992789128069862
12.0772265625 0.6784343643144553 -0.7984745351413463
12.078375 0.6813753422264188 -0.8012455165460752
12.0795234375 0.6825550248865458 -0.8048061174096193
12.080671875 0.6850927359167229 -0.8064400411681685
12.0818203125 0.6817951996752304 -0.8106698951576217
12.08296875 0.6839615555158112 -0.8100034209081554
12.0841171875 0.6840816296646928 -0.8059326474441967
12.085265625 0.687585722581123 -0.8084442230423553
12.0864140625 0.6840106841674924 -0.8065515585680016
12.0875625 0.6923215069800375 -0.8077398935695862
12.0887109375 0.6941953262630666 -0.8076847546731543
12.089859375 0.6944783815679448 -0.8091272045083022
12.0910078125 0.6970041634874927 -0.8069401913491292
12.09215625 0.7010590136509818 -0.814556287210656
12.0933046875 0.6944746846052032 -0.8142578487641746
12.094453125 0.7009403059548771 -0.8181981129987205
12.0956015625 0.7013395480979959 -0.8190109799856365
12.09675 0.702732656878584 -0.8156527273186126
12.0978984375 0.7048031173071232 -0.8129369780885389
12.099046875 0.7009924405007657 -0.8151122229864981
12.1001953125 0.7071434562689018 -0.8165053033065168
12.10134375 0.7016208510834254 -0.8156283941273282
12.1024921875 0.7029030731458038 -0.8177031719796478
12.103640625 0.7027470462261196 -0.8202839332357507
12.1047890625 0.7030905264771319 -0.8214460904251648
12.1059375 0.6990743685133243 -0.8179612885043219
12.1070859375 0.7007629434613778 -0.8170564154609081
12.108234375 0.7003706060102886 -0.8172415362001844
12.1093828125 0.7026048518714975 -0.8171839880766576
12.11053125 0.6993502980680872 -0.8121246193369532
12.1116796875 0.7006019129315141 -0.8105509519134386
12.112828125 0.6995458183551666 -0.8089405697368055
12.1139765625 0.7047889061165858 -0.8060695135625687
12.115125 0.7084576094231873 -0.8051251031179851
12.1162734375 0.7066476340301657 -0.8046647971048386
12.117421875 0.7071639999457766 -0.7998062943821824
12.1185703125 0.7106712123468423 -0.7985080338516745
12.11971875 0.7131301588434475 -0.8008953268402748
12.1208671875 0.7111678919095531 -0.8002093037672571
12.122015625 0.7144380914784257 -0.7968649583306406
12.1231640625 0.7192420964018869 -0.7942485092372376
12.1243125 0.7186296252455291 -0.7893853085686489
12.1254609375 0.7237503174627362 -0.7904948603932507
12.126609375 0.7273716499728102 -0.7842802931994937
12.1277578125 0.7266793971269421 -0.7901309550075066
12.12890625 0.728533316981151 -0.7890471386350771
12.1300546875 0.7290693631747132 -0.7946388734838015
12.131203125 0.732539520884667 -0.7938546194420573
12.1323515625 0.7316540486984522 -0.7932588654704507
12.1335 0.7275703830157568 -0.7918673946172305
12.1346484375 0.7278342269009788 -0.7905933128961633
12.135796875 0.7336948479270003 -0.7854236239031099
12.1369453125 0.738913010164685 -0.7866302927901816
12.13809375 0.7418409835232858 -0.789291497975863
12.1392421875 0.7408719439955626 -0.788269184368076
12.140390625 0.7417224037374278 -0.7832921392592795
12.1415390625 0.74550156352834 -0.7845981815265041
12.1426875 0.7423929712739743 -0.7778779545003324
12.1438359375 0.7487870493515263 -0.7780522388296829
12.144984375 0.7534235424900482 -0.778026310276169
12.1461328125 0.7511735930814033 -0.7798692868878403
12.14728125 0.758022612006023 -0.7850064930704765
12.1484296875 0.7606856147124588 -0.7859653532917104
12.149578125 0.7580738442468257 -0.7895277265678327
12.1507265625 0.7570177550415919 -0.7892676379499359
12.151875 0.753332344914633 -0.786321073647863
12.1530234375 0.7538013371823467 -0.7905322663048482
12.154171875 0.7557225293678886 -0.7888374184829834
12.1553203125 0.7575439942704632 -0.7908331924408721
12.15646875 0.7540514073196858 -0.7909852473148651
12.1576171875 0.748931374588285 -0.7895216106011338
12.158765625 0.747384085386415 -0.7859392840398021
12.1599140625 0.750155302856747 -0.784461128546251
12.1610625 0.7492587408511089 -0.7845282307616226
12.1622109375 0.7518123017903322 -0.7836891458424882
12.163359375 0.7512528487591229 -0.7835869984480102
12.1645078125 0.7477692339171378 -0.7812692073313334
12.16565625 0.7498760817504397 -0.7752876276845195
12.1668046875 0.7519233951816571 -0.77677663149155
12.167953125 0.752873001211104 -0.7719329232756799
12.1691015625 0.7508329097991658 -0.7770786660503177
12.17025 0.7467883672162521 -0.7792408495344398
12.1713984375 0.7476457403823913 -0.770344537013996
12.172546875 0.7455061276794475 -0.771922467153497
12.1736953125 0.7455754828400518 -0.7657605971476987
12.17484375 0.7471269012078012 -0.7593868231591049
12.1759921875 0.7464507570136896 -0.7583504307896191
12.177140625 0.7517022608711026 -0.7537542344510809
12.1782890625 0.7568436365550637 -0.7477672521152945
12.1794375 0.7586124570122175 -0.7465894161001343
12.1805859375 0.7576391742272015 -0.7453800194034854
12.181734375 0.7640439171239157 -0.7397117353135793
12.1828828125 0.7731448385230489 -0.7408872827993492
12.18403125 0.7790704344532513 -0.7426799024415626
12.1851796875 0.7818583754758585 -0.7451833101526492
12.186328125 0.7835869980108234 -0.7421102636981622
12.1874765625 0.7780194194309062 -0.7504407310389514
12.188625 0.7764920312593486 -0.7476808195295485
12.1897734375 0.774517544802557 -0.7535086821906665
12.190921875 0.7753311764274115 -0.7489575473200325
12.1920703125 0.7754634666530478 -0.7505065228953987
12.19321875 0.7764763413059589 -0.7462062058015211
12.1943671875 0.7789228236440392 -0.7392610555279144
12.195515625 0.777822779438735 -0.741767921834337
12.1966640625 0.7828673068421174 -0.7431658781444948
12.1978125 0.7797587901207899 -0.7425184955520088
12.1989609375 0.7729642036520673 -0.7399882791542057
12.200109375 0.7771066017086363 -0.7353207037431766
12.2012578125 0.7808555722174935 -0.7339915776628947
12.20240625 0.7834858959660749 -0.7275628010793089
12.2035546875 0.784898238175304 -0.7255347104281966
12.204703125 0.7874152661956082 -0.7224846821719206
12.2058515625 0.7849502584743824 -0.7195975748205317
12.207 0.7909649273832554 -0.7227349357319313
12.2081484375 0.7935878094064464 -0.7210052997654257
12.209296875 0.7941069430953204 -0.71928642606616
12.2104453125 0.7940870424819331 -0.7191190723144778
12.21159375 0.7941899863985048 -0.7155976684962937
12.2127421875 0.7995461840814082 -0.7125926992279792
12.213890625 0.8019104519131088 -0.7136435954434135
12.2150390625 0.8081364552916267 -0.7119466826470626
12.2161875 0.8093037586710694 -0.7102648107745119
12.2173359375 0.8107437841654566 -0.7117477561915371
12.218484375 0.8165326379757492 -0.7165552012018848
12.2196328125 0.8150876413582206 -0.716368046574415
12.22078125 0.8187056150834753 -0.7083895552228653
12.2219296875 0.8116865839671813 -0.7134893880955355
12.223078125 0.8177762570250128 -0.7132396035696185
12.2242265625 0.8185838879126434 -0.7088832268685716
12.225375 0.8175422524285069 -0.7094318419737072
12.2265234375 0.8263397455426422 -0.7148494476110394
12.227671875 0.8286271873221467 -0.7165761475873974
12.2288203125 0.8189808302044977 -0.7170980394951103
12.22996875 0.81862521564582 -0.7147320290671153
12.2311171875 0.8142346775615148 -0.7152716158655545
12.232265625 0.8143355805866322 -0.709527148028801
12.2334140625 0.8153260065744022 -0.7069165902821617
12.2345625 0.8200994942898557 -0.7016615397749331
12.2357109375 0.8083583052738483 -0.7091188522995194
12.236859375 0.8156425833121754 -0.7003242541989341
12.2380078125 0.8149914402717198 -0.7040297646793918
12.23915625 0.8158214524911342 -0.6948815773243155
12.2403046875 0.8130969457670607 -0.6973192889943995
12.241453125 0.8217947354845905 -0.6934089461515441
12.2426015625 0.8273865790317189 -0.6863193604033616
12.24375 0.8399049694097849 -0.6790751178555909
12.2448984375 0.8332021472286989 -0.6796155562614654
12.246046875 0.8422049358300727 -0.6899562238543823
12.2471953125 0.8470315544691706 -0.6859731073840452
12.24834375 0.8385485709497246 -0.6945598673498087
12.2494921875 0.8491250284773975 -0.685860262889581
12.250640625 0.8492791350251507 -0.6906304051312003
12.2517890625 0.8482666917816284 -0.69875787398978
12.2529375 0.8480032850496855 -0.6904062563007491
12.2540859375 0.8527840212276216 -0.7028777541674148
12.255234375 0.845806013021451 -0.7034927372525914
12.2563828125 0.84555809881133 -0.7102251443952938
12.25753125 0.8454302280349352 -0.7133906104083051
12.2586796875 0.8485671796328402 -0.7045218941506037
12.259828125 0.8519075498576415 -0.6953301398314566
12.2609765625 0.8369096837311556 -0.6965070485300937
12.262125 0.8384487337566533 -0.701293256003422
12.2632734375 0.8458445430950848 -0.6957899210098533
12.264421875 0.842662120600683 -0.6928170622263062
12.2655703125 0.8464084956883144 -0.6921016207364173
12.26671875 0.8453289315852913 -0.6965122084057679
12.2678671875 0.8447310651235836 -0.6979354785194636
12.269015625 0.8508778629009274 -0.6961375946874747
12.2701640625 0.8422986432167788 -0.6981077424097586
12.2713125 0.8455760445772927 -0.6942319859917125
12.2724609375 0.8412300155976548 -0.7013514771022936
12.273609375 0.8368748426676473 -0.692259896099926
12.2747578125 0.8356363382915712 -0.6846987010222291
12.27590625 0.8371952386771089 -0.6817056511099691
12.2770546875 0.8364551619246633 -0.677072414744172
12.278203125 0.8391724858652049 -0.6691556814862847
12.2793515625 0.8391311583850249 -0.6639557524123222
12.2805 0.8479701771497345 -0.6654554355519726
12.2816484375 0.8498643757874931 -0.6617431766072417
12.282796875 0.8492780934737492 -0.6617111321341347
12.2839453125 0.8579420023213644 -0.6613035683148614
12.28509375 0.8604804027208836 -0.6609633797632916
12.2862421875 0.8634505451494872 -0.6562018819120577
12.287390625 0.8631377365948698 -0.6585049105573362
12.2885390625 0.8663059799547502 -0.664465967387996
12.2896875 0.8642944906376242 -0.6614870539198748
12.2908359375 0.8668685030588199 -0.663701576870235
12.291984375 0.8715921003236129 -0.6630695787329124
12.2931328125 0.8659538871431136 -0.6639820980127562
12.29428125 0.8680418868198656 -0.6594445661001913
12.2954296875 0.867626056156672 -0.6566628249738429
12.296578125 0.8671660251427471 -0.657549178838011
12.2977265625 0.8654130082818955 -0.6578350618578683
12.298875 0.8668635868750263 -0.6591687284422766
12.3000234375 0.8672170071940319 -0.6581862298356805
12.301171875 0.8606689972150271 -0.6553870228963679
12.3023203125 0.8621916223310689 -0.6585446390697833
12.30346875 0.8672930386642292 -0.6533635592628673
12.3046171875 0.8609438175270012 -0.6502250678645859
12.305765625 0.865966927613285 -0.6567004899766444
12.3069140625 0.8604388435383794 -0.6466436300598151
12.3080625 0.8605201487526369 -0.6440235127945119
12.3092109375 0.8563742424852387 -0.6403723467291149
12.310359375 0.8609659201401618 -0.6393489917823665
12.3115078125 0.8637626331760677 -0.636289339108066
12.31265625 0.8456346155399019 -0.6342225066155538
12.3138046875 0.8492654548070591 -0.6338167841211849
12.314953125 0.8511232103511223 -0.6309671011101334
12.3161015625 0.8522688713455367 -0.6223623426532225
12.31725 0.8558061352760556 -0.6116384506540481
12.3183984375 0.8601383146347881 -0.6152303213645423
12.319546875 0.8550224242398365 -0.6061590074932126
12.3206953125 0.8614896353492981 -0.6090799352402803
12.32184375 0.8644941287171131 -0.6110015932918451
12.3229921875 0.8666008502774413 -0.6055324437031121
12.324140625 0.8645359464129787 -0.6041848111829262
12.3252890625 0.8640123999714915 -0.5975358115746079
12.3264375 0.8563260809206451 -0.5996357296583781
12.3275859375 0.8669760648096764 -0.5935222205284455
12.328734375 0.8740061261155694 -0.5868777460606228
12.3298828125 0.8672734552946549 -0.5895936968681543
12.33103125 0.8712516856911028 -0.5832675813305672
12.3321796875 0.8813880062266324 -0.5778683428667195
12.333328125 0.8765212629355758 -0.5790297322566302
12.3344765625 0.8787711375103845 -0.5786310201621454
12.335625 0.8891187278362483 -0.5788610561311109
12.3367734375 0.8821447199858949 -0.5844985567873835
12.337921875 0.8922451813723403 -0.5754852350573441
12.3390703125 0.8933194907837101 -0.5802405865335256
12.34021875 0.9012883622557369 -0.5773937863310037
12.3413671875 0.8897307561311368 -0.5752577603520459
12.342515625 0.8865526660104373 -0.5817022756859054
12.3436640625 0.8909627155849499 -0.5752777048659452
12.3448125 0.9011046970403401 -0.5794533361968651
12.3459609375 0.8935767407831985 -0.5734283111849667
12.347109375 0.8904244821877927 -0.5728329566730944
12.3482578125 0.8906500988505751 -0.5740952416912608
12.34940625 0.9018912897136337 -0.5742634330909151
12.3505546875 0.9039363695350169 -0.5648797212244243
12.351703125 0.906403156362796 -0.566513639555364
12.3528515625 0.9092718871305137 -0.5683033114653977
12.354 0.9033265695895364 -0.559750102597885
12.3551484375 0.9148161734275655 -0.5612164215077085
12.356296875 0.9145509074496534 -0.5666733657137789
12.3574453125 0.9165660985726931 -0.574562546994094
12.35859375 0.9148336520473492 -0.5711630308642756
12.3597421875 0.917865212966165 -0.5779451576753991
12.360890625 0.9129972051005962 -0.5744702278705753
12.3620390625 0.9144162063452614 -0.5723995788726997
12.3631875 0.9180014366018263 -0.5736899008870554
12.3643359375 0.9157503087894682 -0.5704775067123478
12.365484375 0.9141636376552793 -0.5709680840330069
12.3666328125 0.9132304914953859 -0.5715799066492293
12.36778125 0.9136687517025406 -0.5687804477719478
12.3689296875 0.9116603654333182 -0.5699851850376472
12.370078125 0.9100214086989389 -0.5661121101897786
12.3712265625 0.9118965256515164 -0.5628320082578269
12.372375 0.9027819030311757 -0.5636761807796695
12.3735234375 0.9072190917449823 -0.5604448513639523
12.374671875 0.9051797682434177 -0.5580853282402769
12.3758203125 0.9037590330192198 -0.5509346229773657
12.37696875 0.9014670314833335 -0.5453480848164403
12.3781171875 0.9012446491376958 -0.5500045050274033
12.379265625 0.9038350020218634 -0.5421367365549306
12.3804140625 0.9026720783831194 -0.5329482279356186
12.3815625 0.9033843436757312 -0.5262529619654364
12.3827109375 0.9083513100297897 -0.5236154593874904
12.383859375 0.9060578512614631 -0.5186598844425099
12.3850078125 0.9134740409084039 -0.5173383580613365
12.38615625 0.9151103898048245 -0.5094955435858668
12.3873046875 0.9147571500298651 -0.5093031159868081
12.388453125 0.9232295467491116 -0.5096035055211572
12.3896015625 0.9225241941607613 -0.49912994075791595
12.39075 0.9293263437095387 -0.49554933481741215
12.3918984375 0.9355880270717782 -0.5036299974617067
12.393046875 0.94154663864883 -0.5029026637910262
12.3941953125 0.936321183370412 -0.5104826776696563
12.39534375 0.9345671635807671 -0.5033142048391928
12.3964921875 0.9320279996087931 -0.5017251963053857
12.397640625 0.9319159984613871 -0.5010263147151
12.3987890625 0.9323413528100243 -0.49357777149092913
12.3999375 0.9322481114146104 -0.49804029719062987
12.4010859375 0.9307655041309053 -0.49192654069034897
12.402234375 0.9295420966781824 -0.4868493388133336
12.4033828125 0.9398184344545012 -0.4857087741305034
12.40453125 0.9430849824528512 -0.4912444478541623
12.4056796875 0.9435093886546062 -0.4920553261463115
12.406828125 0.9400712376060117 -0.49542844955678
12.4079765625 0.938660378779197 -0.49022529697864764
12.409125 0.9437488826613664 -0.4841404465238608
12.4102734375 0.9342459315134378 -0.4818721985752712
12.411421875 0.9478455479504672 -0.47579659647198125
12.4125703125 0.9434605415517712 -0.4801167921300375
12.41371875 0.940320153058714 -0.47501239782742316
12.4148671875 0.9440692809103908 -0.4747943545064853
12.416015625 0.9422866587666354 -0.4761615228349765
12.4171640625 0.9500218448571544 -0.4736817002354615
12.4183125 0.9417366374276449 -0.47540785758443344
12.4194609375 0.9383298651981629 -0.47085655446286945
12.420609375 0.9395469885197099 -0.465224916607623
12.4217578125 0.9418148654297038 -0.46116849168122187
12.42290625 0.9386599764098904 -0.4570865701143044
12.4240546875 0.9514784931863604 -0.4561461974229738
12.425203125 0.9517889857741488 -0.45429261980231483
12.4263515625 0.9510337390743688 -0.44857827827637303
12.4275 0.955274819172651 -0.45319751890166426
12.4286484375 0.9638650527717151 -0.4486082060380251
12.429796875 0.9640590696077643 -0.4517269471548322
12.4309453125 0.9678192593744596 -0.4561300589510681
12.43209375 0.9583659501860672 -0.45722746302015826
12.4332421875 0.9558300083848122 -0.4520493677826942
12.434390625 0.9553012441551342 -0.451840819184812
12.4355390625 0.9620371613896421 -0.44915804508880697
12.4366875 0.9586962152431644 -0.44468108725768635
12.4378359375 0.9614197881054316 -0.43999723726273554
12.438984375 0.9651006573794574 -0.4366897953136225
12.4401328125 0.96488314336164 -0.4426955657694441
12.44128125 0.9711578995045429 -0.4282421860202643
12.4424296875 0.9700725700573962 -0.4300313067630557
12.443578125 0.9708366608896412 -0.42965510680476005
12.4447265625 0.9716361827116957 -0.42516659272314206
12.445875 0.9786778045351578 -0.42047987687641863
12.4470234375 0.9855910688381783 -0.4218839650246911
12.448171875 0.9817899096228146 -0.4233172868381656
12.4493203125 0.989541688457253 -0.42833485639499624
12.45046875 0.9844076673551294 -0.42638078305279326
12.4516171875 0.9809809184307736 -0.42841073175883754
12.452765625 0.9850210912581876 -0.41895105221871
12.4539140625 0.986534997614896 -0.41653484836473054
12.4550625 0.9915837656079038 -0.41117800144695926
12.4562109375 0.9873413348904083 -0.40876042199112883
12.457359375 0.995740477708928 -0.4158704315358682
12.4585078125 1.0016332323608053 -0.41900456817189574
12.45965625 1.002308457519379 -0.4149507245805357
12.4608046875 0.9940639502759121 -0.40903033692043883
12.461953125 0.9966128338964199 -0.4150680246457487
12.4631015625 0.9986442762833658 -0.4175110569638322
12.46425 0.9997490264062169 -0.41434811826562157
12.4653984375 0.9944618903583293 -0.41180389454865873
12.466546875 0.9927844090252843 -0.41614271862972774
12.4676953125 0.9879051369581333 -0.41271498533391604
12.46884375 0.9974683874534597 -0.4099334270256796
12.4699921875 0.9893620152531197 -0.4085550779095908
12.471140625 0.9971018280947811 -0.4024547464172448
12.4722890625 0.9953788121253393 -0.3937783593355489
12.4734375 0.9920374383593397 -0.40053811106172554
12.4745859375 0.9918602559640364 -0.39709797227668425
12.475734375 0.9933662834502253 -0.3950739420087169
12.4768828125 0.9946390482787426 -0.3882977617475565
12.47803125 0.9968400116313345 -0.3876735099190477
12.4791796875 0.9931946107589982 -0.3878867942930809
12.480328125 0.9972574248822235 -0.3841180522136023
12.4814765625 0.9933790340623937 -0.38820158928416326
12.482625 0.9943455719785104 -0.38113213495269227
12.4837734375 0.9977718486771561 -0.37681046849892097
12.484921875 0.9957831004590378 -0.37378957982182315
12.4860703125 1.0004082271633414 -0.3731482270117803
12.48721875 0.9992614365359835 -0.3711760167505117
12.4883671875 1.0048007415865658 -0.36809164616152545
12.489515625 1.0042916804328252 -0.3658283577331749
12.4906640625 1.0058497297605653 -0.36382125880491345
12.4918125 1.0074232545663502 -0.3652821311792712
12.4929609375 1.0092521977740638 -0.3642618674569281
12.494109375 1.0142175753029026 -0.3666652382128872
12.4952578125 1.018458211150627 -0.3670663223782056
12.49640625 1.0157459355534255 -0.3734564715221744
12.4975546875 1.0143730522964374 -0.3714886394437985
12.498703125 1.014357740863408 -0.3699225874852168
12.4998515625 1.0154127733894538 -0.3626803309588438
12.501 1.0177195731443627 -0.36664046044194887
12.5021484375 1.0167026950294182 -0.37304518475338444
12.503296875 1.0112965176575934 -0.36902559836604787
12.5044453125 1.0059114020080968 -0.3704202383055276
12.50559375 1.0099911722669555 -0.3723716900633253
12.5067421875 1.0095682105964041 -0.3723575960562708
12.507890625 1.0034917614996575 -0.366208662120859
12.5090390625 1.0018369189297858 -0.3595442631969304
12.5101875 1.0011958133015153 -0.3581350195107961
12.5113359375 1.0027989732936038 -0.35311966955062757
12.512484375 1.002575959271029 -0.3514052957148035
12.5136328125 1.0101844432692721 -0.34360819359812644
12.51478125 1.00728973994786 -0.3461290180947649
12.5159296875 1.0104037281915708 -0.34120457292316325
12.517078125 1.0197868351235766 -0.3432704992597298
12.5182265625 1.019456162901913 -0.33654464570780895
12.519375 1.0108921181939163 -0.33351715863109227
12.5205234375 1.017860169565436 -0.3287333475829407
12.521671875 1.0150447247462817 -0.33398249437001515
12.5228203125 1.0124978351716316 -0.33005099063764165
12.52396875 1.0246606244052627 -0.32743346450005084
12.5251171875 1.0186113244045207 -0.32891777377376713
12.526265625 1.0170658866413937 -0.3276124158652658
12.5274140625 1.0219887088283741 -0.3288706839313448
12.5285625 1.0276587407841509 -0.3283907130067665
12.5297109375 1.0258135962166983 -0.32562036122110144
12.530859375 1.0272245112777458 -0.32070238155695896
12.5320078125 1.0319140698510154 -0.3196532124964449
12.53315625 1.0307818753622187 -0.31985589234721984
12.5343046875 1.0298122803420169 -0.3197837189327181
12.535453125 1.0279276581871861 -0.3194435067861774
12.5366015625 1.0321257241601591 -0.3163751458732777
12.53775 1.032083279053837 -0.3108361535769458
12.5388984375 1.024763385623138 -0.3119389422283367
12.540046875 1.0281400746504035 -0.3111598441319045
12.5411953125 1.038244805978736 -0.31612341464747956
12.54234375 1.0359392461716492 -0.2992981912100108
12.5434921875 1.0284161512112628 -0.30419667357411273
12.544640625 1.028619127287502 -0.30588331292509124
12.5457890625 1.0335973855106944 -0.2966243250629716
12.5469375 1.0300201658178225 -0.3032359697521859
12.5480859375 1.0370172940126545 -0.2982990276621086
12.549234375 1.0314151917205983 -0.2943625517468059
12.5503828125 1.0310835443175583 -0.2911570366820914
12.55153125 1.036743536331148 -0.28859228031962925
12.5526796875 1.0380090130959923 -0.29138797457576804
12.553828125 1.0379217980885358 -0.2837966882658768
12.5549765625 1.0394933114875176 -0.28339511467387674
12.556125 1.0370717669989276 -0.2836515262747242
12.5572734375 1.0346703052859436 -0.2810997811964008
12.558421875 1.0346495115937597 -0.2812558802801314
12.5595703125 1.033849880908933 -0.27883475624364135
12.56071875 1.034564323232678 -0.2765133683928921
12.5618671875 1.0368286462171123 -0.27101816211854246
12.563015625 1.0355091104596414 -0.26941394339727054
12.5641640625 1.0371948460989968 -0.2660013214358591
12.5653125 1.039623366604146 -0.26767665563793097
12.5664609375 1.0361376076460518 -0.27193868282678324
12.567609375 1.0337112978700351 -0.26701738428779676
12.5687578125 1.0356078392405008 -0.2622274824820062
12.56990625 1.034543639018505 -0.25817570791041133
12.5710546875 1.0399057733586792 -0.2577864551463682
12.572203125 1.0382673761057972 -0.25816022337178457
12.5733515625 1.0337056906818676 -0.2579474242130234
12.5745 1.0309119150513177 -0.25822134629278315
12.5756484375 1.033491135514825 -0.25098109987060135
12.576796875 1.030359757497409 -0.2537940752985399
12.5779453125 1.0331356060662094 -0.2547804165586707
12.57909375 1.0350541295033666 -0.2425650392232187
12.5802421875 1.0359675649141402 -0.24503703936117638
12.581390625 1.0406288310363743 -0.23854598531363258
12.5825390625 1.0424724235056733 -0.24487631845440372
12.5836875 1.0349530071447313 -0.2370879646887517
12.5848359375 1.0361223951309 -0.23426545907884588
12.585984375 1.0331657373260852 -0.23548545769034468
12.5871328125 1.039574699159515 -0.23614923988507563
12.58828125 1.0442010280758547 -0.22774351303696283
12.5894296875 1.0420626179818022 -0.2372261681158946
12.590578125 1.0474425861474992 -0.23823966150417086
12.5917265625 1.0459282164908863 -0.2433047962770063
12.592875 1.036351604486017 -0.2408045121750294
12.5940234375 1.0398583916501585 -0.23404305379065216
12.595171875 1.0443433994613083 -0.23614619941459047
12.5963203125 1.0449603564050132 -0.23351654836261626
12.59746875 1.0380196182259902 -0.23105085981167273
12.5986171875 1.0369380589196746 -0.21626912978255142
12.599765625 1.0426337122469371 -0.23311856054146607
12.6009140625 1.0480663395057959 -0.22234875830461043
12.6020625 1.0419829699843886 -0.21868643462858783
12.6032109375 1.0410270703647466 -0.2185440307154588
12.604359375 1.0358352611300878 -0.21742347389785988
12.6055078125 1.0437005124284475 -0.21438488260968835
12.60665625 1.043683804623415 -0.21190713084995738
12.6078046875 1.0443647983991418 -0.20353754538003732
12.608953125 1.0430925097671633 -0.2024278587200341
12.6101015625 1.0402117145384833 -0.1996173821494297
12.61125 1.0385957863771946 -0.2024848647227666
12.6123984375 1.0333902503119137 -0.19847594048749484
12.613546875 1.0376117846906316 -0.1803528769294307
12.6146953125 1.0420751378343167 -0.18699994150883703
12.61584375 1.0365887204523976 -0.18495686877564377
12.6169921875 1.0431411276132159 -0.17533756320734162
12.618140625 1.044287094111464 -0.16853543228210732
12.6192890625 1.0398225011299131 -0.17349832690974654
12.6204375 1.0525129431562688 -0.1742867027701217
12.6215859375 1.0521607902231607 -0.17219940692504765
12.622734375 1.0484159218974574 -0.16110885346592208
12.6238828125 1.0504530736908118 -0.16849841380759778
12.62503125 1.0562968595653004 -0.16672076848411999
12.6261796875 1.058088118811035 -0.1625766273106114
12.627328125 1.0635169296933924 -0.1609398251719435
12.6284765625 1.0583140082482472 -0.15634421273095855
12.629625 1.0545811980159838 -0.1599197999969012
12.6307734375 1.0532295718134494 -0.15525486555380197
12.631921875 1.0548277240585893 -0.15701804720737467
12.6330703125 1.062983694045605 -0.14659447919721047
12.63421875 1.0577658999577404 -0.15401805487582676
12.6353671875 1.0631287631050388 -0.15044939169283011
12.636515625 1.0585969764646088 -0.14202060847180564
12.6376640625 1.057383406389511 -0.1443367323022522
12.6388125 1.0588687901540204 -0.14223832876077858
12.6399609375 1.0600517552274276 -0.1462409412825426
12.641109375 1.0734375103460505 -0.14703710162136385
12.6422578125 1.0750074425829008 -0.14365427185794577
12.64340625 1.0647735554380042 -0.1416664990947598
12.6445546875 1.066600364974349 -0.1448450235794846
12.645703125 1.0676885566071 -0.1443445644965814
12.6468515625 1.0632476719292874 -0.14043199343325385
12.648 1.0649346373845558 -0.14323006567705832
12.6491484375 1.0570013904423594 -0.13595794018784602
12.650296875 1.0593993305635565 -0.13809312981922317
12.6514453125 1.06538735317072 -0.13137388562779195
12.65259375 1.065899719490267 -0.13417789283891834
12.6537421875 1.0631843044662468 -0.1338443091322412
12.654890625 1.0687168264028841 -0.12271586236905763
12.6560390625 1.0675048291587181 -0.11842961796455187
12.6571875 1.0633316810620133 -0.12351805757491896
12.6583359375 1.0594125912463812 -0.1234698471784601
12.659484375 1.0713388818175038 -0.12267197717899425
12.6606328125 1.0700521229961208 -0.11963160732066658
12.66178125 1.0735122829343497 -0.11189746783653598
12.6629296875 1.0716073710543141 -0.12192466594894857
12.664078125 1.0631280085858017 -0.12394388840166837
12.6652265625 1.063642360721108 -0.12471877931982844
12.666375 1.072559389704341 -0.11250364033336968
12.6675234375 1.0672665037318763 -0.11730828935099069
12.668671875 1.07172938715123 -0.10900281375650256
12.6698203125 1.0628298876572693 -0.11016384571022708
12.67096875 1.0834526923868908 -0.10188498405294644
12.6721171875 1.0657626701093115 -0.11617385707347894
12.673265625 1.0709118760267242 -0.11498941264976958
12.6744140625 1.0675704759215359 -0.10797635555648888
12.6755625 1.0608605864187548 -0.11339993940074045
12.6767109375 1.074269167241434 -0.10519858286279693
12.677859375 1.0638586756823607 -0.10436377125791996
12.6790078125 1.0681142959960097 -0.10883307899486838
12.68015625 1.06191439255494 -0.10149000131483699
12.6813046875 1.0536384926952647 -0.10186680267474646
12.682453125 1.074178707550974 -0.10248608154787908
12.6836015625 1.071009096875591 -0.09632982528384004
12.68475 1.0643779771773223 -0.09123010469452097
12.6858984375 1.071455098527059 -0.09775894450509826
12.687046875 1.077152370776418 -0.09190611011795402
12.6881953125 1.0639720386685105 -0.09426589913488648
12.68934375 1.0591876904877513 -0.09254224186546256
12.6904921875 1.0650728706494048 -0.08848122728765095
12.691640625 1.0721956030134243 -0.08247661417700702
12.6927890625 1.0687062232591464 -0.0791553845923314
12.6939375 1.0749595736810709 -0.07889378346396014
12.6950859375 1.0700086547364118 -0.07677570420206126
12.696234375 1.0690017488048635 -0.0775935551865079
12.6973828125 1.075009667507106 -0.07039273198319174
12.69853125 1.0660814165487638 -0.0691197864731129
12.6996796875 1.075959624739009 -0.07101954135140287
12.700828125 1.0678834209036898 -0.06787921005029518
12.7019765625 1.0693499344631792 -0.06793010109238806
12.703125 1.069334405363941 -0.06743889050670637
12.7042734375 1.070450350388959 -0.06499255300717488
12.705421875 1.0686765177984108 -0.06104024053169277
12.7065703125 1.0746545381305912 -0.060485540524728654
12.70771875 1.0721424558684411 -0.055495476107880526
12.7088671875 1.0690900960357939 -0.05409206139613254
12.710015625 1.0694547081967276 -0.05079778310800964
12.7111640625 1.0696326439500503 -0.05154000748121157
12.7123125 1.0746507775538614 -0.05018195832249517
12.7134609375 1.0687357076627297 -0.043345783073198474
12.714609375 1.067959033256805 -0.0444911297493753
12.7157578125 1.0683450894693978 -0.039249340061268345
12.71690625 1.0688142268824519 -0.042838667365696526
12.7180546875 1.0706627191407645 -0.0354438303411041
12.719203125 1.0691782286024245 -0.03658462763180881
12.7203515625 1.0688128339527094 -0.03363816888825499
12.7215 1.0651476685480783 -0.03060087698943792
12.7226484375 1.0634808008025944 -0.02950947581666208
12.723796875 1.0660460637563223 -0.03171065563697506
12.7249453125 1.0734525440681124 -0.023266197384670062
12.72609375 1.068934635081256 -0.022815768408631976
12.7272421875 1.071267420838658 -0.02266520062273758
12.728390625 1.0602292639160078 -0.018266096751823224
12.7295390625 1.061606909613768 -0.01949074111280924
12.7306875 1.068237294980596 -0.012459787929088528
12.7318359375 1.0661369471593984 -0.014573811600533837
12.732984375 1.0723570640721407 -0.01006442468822688
12.7341328125 1.0635501632096895 -0.005488405065845248
12.73528125 1.0711249520646131 -0.005199075579883972
12.7364296875 1.0710402791130327 -0.007203015573234106
12.737578125 1.069004693741954 -0.0014391448767451243
12.7387265625 1.0744783341983721 -0.0019805952836935425
12.739875 1.0716465328597817 0.00016126095353330427
12.7410234375 1.0735982112907405 0.004631699681072132
12.742171875 1.0726422539585116 0.008409512150059695
12.7433203125 1.0756954650464532 0.002470306154704671
12.74446875 1.0631698398736846 0.0028477775054354115
12.7456171875 1.0717283760541902 0.007486221777367574
12.746765625 1.0666636078818683 0.013179348955286052
12.7479140625 1.065205051628122 0.006430182453624922
12.7490625 1.0671583195033403 0.004027704762997519
12.7502109375 1.0749693605654902 0.017408322051946534
12.751359375 1.076301783599858 0.011080039323735691
12.7525078125 1.0676210705749603 0.020052557501906598
12.75365625 1.0688743813369896 0.011052433781710613
12.7548046875 1.0687245872794324 0.014852346764547053
12.755953125 1.070193160121559 0.022716219341839428
12.7571015625 1.0763546732361178 0.01531294274512518
12.75825 1.0695153886059847 0.017792445380972133
12.7593984375 1.0655541921637903 0.020791753971973193
12.760546875 1.0671790232252718 0.017951349858799315
12.7616953125 1.0595763721381923 0.022393410621205923
12.76284375 1.0662448099982405 0.023282543117979726
12.7639921875 1.0627154734756297 0.02389327903414218
12.765140625 1.069152600378963 0.028723505270654814
12.7662890625 1.067911330333381 0.03368295120916853
12.7674375 1.0597357245529784 0.03626731831615515
12.7685859375 1.0613756997105748 0.0375775194242689
12.769734375 1.0638350655893223 0.039681458871143827
12.7708828125 1.0652062538414513 0.039950234328885004
12.77203125 1.069610416066859 0.04295460078679347
12.7731796875 1.0668653318125543 0.045417598317588403
12.774328125 1.0667447479705923 0.04807401516905174
12.7754765625 1.0644474076574018 0.04748272637833151
12.776625 1.065807037325171 0.04578171434534284
12.7777734375 1.0629814872171788 0.050063548378764144
12.778921875 1.0667758357223116 0.05289505381973292
12.7800703125 1.0612436272237795 0.057151376537270204
12.78121875 1.0633909366776653 0.06429748965462523
12.7823671875 1.0658573304450332 0.059719208886960806
12.783515625 1.0663294656836442 0.06415313840757442
12.7846640625 1.0701869744496848 0.06646283027949329
12.7858125 1.0673582453454573 0.06994424777240216
12.7869609375 1.0656187259203798 0.0696837612872302
12.788109375 1.0628197184933117 0.06375623827672638
12.7892578125 1.0704907639207435 0.0666832951410643
12.79040625 1.0617816990767737 0.07457998052881498
12.7915546875 1.06525290333709 0.07766548337095702
12.792703125 1.0767082196081574 0.08049773403391758
12.7938515625 1.0627186872821337 0.08246265242519868
12.795 1.0737376384979276 0.0938071688615204
12.7961484375 1.0724229865150656 0.0792924589905154
12.797296875 1.0748812438329307 0.08471135636940719
12.7984453125 1.0683779402218505 0.09915714717846835
12.79959375 1.070601495338654 0.09243930701856717
12.8007421875 1.0780074923507605 0.08517869655808452
12.801890625 1.0678410826203408 0.10367031878814792
12.8030390625 1.0765884167121578 0.09517005185367067
12.8041875 1.073675991091966 0.10391283899285597
12.8053359375 1.0648890440947738 0.10541374385019553
12.806484375 1.0700479493562747 0.10427438916766918
12.8076328125 1.0585068666418938 0.09085384566922627
12.80878125 1.0733595705811303 0.09836070221542093
12.8099296875 1.084073157336952 0.1050141006223454
12.811078125 1.087374218243498 0.10149539448006406
12.8122265625 1.0763767957510693 0.11075273636979877
12.813375 1.0814061744120487 0.11147838107108665
12.8145234375 1.0670589868421567 0.11672845218053363
12.815671875 1.0749879142208587 0.10058396144077963
12.8168203125 1.0727219760613615 0.11597178180166368
12.81796875 1.0556598203739642 0.12167783664485465
12.8191171875 1.0757111220872075 0.1059773018518475
12.820265625 1.0694426218935882 0.11474052106521082
12.8214140625 1.0661698055299116 0.10914693954938348
12.8225625 1.0833363681820738 0.11217684184680032
12.8237109375 1.068214883612513 0.11687052557264954
12.824859375 1.0705762239194196 0.11603778898859263
12.8260078125 1.08171557274804 0.1187584386873306
12.82715625 1.0739449766631948 0.111339169089963
12.8283046875 1.0726834158175036 0.12166460540563584
12.829453125 1.0801497634836499 0.12492898593779911
12.8306015625 1.0796537804428024 0.11205779729827547
12.83175 1.0677090918505607 0.11049679603207052
12.8328984375 1.077488816131384 0.12157870020882944
12.834046875 1.0678044329688363 0.13082872888132735
12.8351953125 1.0634390180604254 0.11846372214285272
12.83634375 1.0655538360536068 0.12761914235320682
12.8374921875 1.0669018523737681 0.12696882802176057
12.838640625 1.074351521576344 0.12817424294722102
12.8397890625 1.0642494604432364 0.13253265567419747
12.8409375 1.0646153043669102 0.13715436972321593
12.8420859375 1.0626465322482934 0.13376284730080135
12.843234375 1.056687198392679 0.13189519960931873
12.8443828125 1.062153032267668 0.13361842589111017
12.84553125 1.0716850583972706 0.14542188406977952
12.8466796875 1.0642166528773185 0.14795797025776114
12.847828125 1.066532940804228 0.14254676958790902
12.8489765625 1.0604388312038293 0.1494725723662922
12.850125 1.0656920027673649 0.1487134790507365
12.8512734375 1.0612841951543002 0.15480526504437708
12.852421875 1.0635686906565247 0.16021053729486068
12.8535703125 1.0635528328611903 0.15481907527367444
12.85471875 1.0598768489493735 0.16272948954245858
12.8558671875 1.0665592987309922 0.16573980681248002
12.857015625 1.0710688632446224 0.16696325322763883
12.8581640625 1.067318002597482 0.16757415230987305
12.8593125 1.0696576125557156 0.16590112635596765
12.8604609375 1.065123278982861 0.1668446154363935
12.861609375 1.0633673430759931 0.16823626068300968
12.8627578125 1.0640434636030291 0.17240222866313304
12.86390625 1.067584229321277 0.17264141293734725
12.8650546875 1.0700138679131401 0.17308157478799768
12.866203125 1.0642131691041803 0.1751455216390837
12.8673515625 1.066194886050677 0.17124349807035955
12.8685 1.05767338155162 0.17572463138860528
12.8696484375 1.0662858468317995 0.17556603222513167
12.870796875 1.0619973091870176 0.1809969126786739
12.8719453125 1.0600588360966263 0.1844381606107638
12.87309375 1.0569640610335878 0.1858951968665853
12.8742421875 1.0597868391438685 0.18834287453361087
12.875390625 1.0592550661436015 0.19606625083482265
12.8765390625 1.0620927762100432 0.19792130587304213
12.8776875 1.0639970298968298 0.19756076248954546
12.8788359375 1.0618262458592231 0.20261221152020192
12.879984375 1.0653936340142618 0.20036552080419212
12.8811328125 1.0722169183510777 0.20059504973372366
12.88228125 1.0666942337850742 0.2053928890485397
12.8834296875 1.0600042079363305 0.20115679826799138
12.884578125 1.066738737279951 0.20363973225654686
12.8857265625 1.0580654484259173 0.2074176893814157
12.886875 1.0523479320062519 0.2053861527065608
12.8880234375 1.0573302952108394 0.2062337333413381
12.889171875 1.0521459299363467 0.20257203549731795
12.8903203125 1.0510804852320184 0.2084437534217033
12.89146875 1.0557876663864223 0.21088817685642192
12.8926171875 1.0534644742291304 0.21779516301547241
12.893765625 1.0514157235794124 0.2187827621471976
12.8949140625 1.052376806077726 0.2225522870242942
12.8960625 1.05011552940568 0.22171293850481988
12.8972109375 1.05166224606726 0.2259016560714192
12.898359375 1.0483293520815846 0.23110735609508548
12.8995078125 1.0494557520401062 0.2318534917386531
12.90065625 1.0510755402454357 0.23572125511133846
12.9018046875 1.050455585335626 0.23284188885394808
12.902953125 1.049482596323951 0.23518533836430733
12.9041015625 1.0500368251807135 0.241937334447766
12.90525 1.0524121657379268 0.24203087661286404
12.9063984375 1.054824432795991 0.2405993743588658
12.907546875 1.0515836196607777 0.2430781028270259
12.9086953125 1.0517394384885896 0.24696172627334734
12.90984375 1.0512902095143473 0.24584670674116094
12.9109921875 1.0552215303642898 0.2510311805340345
12.912140625 1.062108377517657 0.2484508816610017
12.9132890625 1.0536179971861293 0.24623089786382135
12.9144375 1.0535804154660373 0.24910530195234437
12.9155859375 1.052735085416801 0.24902436738243094
12.916734375 1.0588602340480233 0.2561972306306626
12.9178828125 1.0594557785643848 0.2504048564364715
12.91903125 1.0566022665009622 0.25262833311049515
12.9201796875 1.050858418650769 0.24973887363952985
12.921328125 1.05547322721578 0.2540773904240624
12.9224765625 1.0538642463024823 0.25434233028151276
12.923625 1.0537102502301285 0.25498364907764515
12.9247734375 1.051579154097226 0.2547846149238785
12.925921875 1.0545495109273548 0.2556400679711831
12.9270703125 1.054235780510079 0.26074532069228284
12.92821875 1.0512789045796245 0.25803878612193004
12.9293671875 1.049838898084924 0.26038305627909264
12.930515625 1.053843846323978 0.26440338704359856
12.9316640625 1.0492844277966347 0.2642367540776755
12.9328125 1.0559937948842344 0.2651329363812057
12.9339609375 1.056001574820213 0.27370795085923066
12.935109375 1.0539113813052712 0.27328904266689724
12.9362578125 1.051552382991773 0.27495897800311764
12.93740625 1.0484007750167277 0.27520517478949336
12.9385546875 1.0431814551622054 0.2775218512249019
12.939703125 1.0468046700418263 0.27970738473488554
12.9408515625 1.0426122120795636 0.28189776522262355
12.942 1.0482025169503368 0.28550054168518074
12.9431484375 1.0420421421290726 0.2808902492971329
12.944296875 1.0410674369696997 0.28711719114995404
12.9454453125 1.038558666145201 0.2873592051788596
12.94659375 1.0388197844146212 0.2927555201136808
12.9477421875 1.0370356688417806 0.2931723646697765
12.948890625 1.03451652448463 0.29289543360196374
12.9500390625 1.0356064173637625 0.2954478331512647
12.9511875 1.0347315227450073 0.2952234354989233
12.9523359375 1.0333774297206113 0.30228232644556363
12.953484375 1.0292195832442987 0.30843188130361987
12.9546328125 1.0310693622733744 0.3078435283782319
12.95578125 1.0272104743991801 0.3113684090316211
12.9569296875 1.0291267062234741 0.31694854538920564
12.958078125 1.031875541863871 0.3124710763635054
12.9592265625 1.0298239123244908 0.3158253459174962
12.960375 1.0294407038593625 0.32365944968887406
12.9615234375 1.0259076573483703 0.3209617152078434
12.962671875 1.0267434318894315 0.3285309376282069
12.9638203125 1.0262169288711092 0.33445389956673066
12.96496875 1.0282280880161423 0.3313906596529252
12.9661171875 1.0276036973738516 0.3268129658942266
12.967265625 1.0245306612146445 0.3349573816492397
12.9684140625 1.023800242412926 0.3350593122550163
12.9695625 1.02316006559994 0.34035589781146575
12.9707109375 1.0230617570538314 0.3397035344697985
12.971859375 1.0233660029835132 0.34418663089867224
12.9730078125 1.015433689954163 0.34354502200746334
12.97415625 1.022420517926114 0.35379906892964746
12.9753046875 1.0209574892040498 0.35434917182402026
12.976453125 1.0233665573794006 0.3547677265825857
12.9776015625 1.0197586081092003 0.36652628787595487
12.97875 1.0191137928187597 0.3611655155164918
12.9798984375 1.0257216138890781 0.3636579348062414
12.981046875 1.0194799445721072 0.36446855528245137
12.9821953125 1.0190332407208174 0.3650004643900734
12.98334375 1.0235870892301873 0.36995199510774013
12.9844921875 1.0194691964963933 0.35858555024341
12.985640625 1.022237961980751 0.3729038827873087
12.9867890625 1.0181741554871286 0.37188092215480995
12.9879375 1.0249413414055573 0.36682640244042464
12.9890859375 1.0180841213882899 0.37524585760686746
12.990234375 1.0173716536006918 0.37488582525360237
12.9913828125 1.0257647035945907 0.382119752741083
12.99253125 1.0207386277978618 0.3853359473109895
12.9936796875 1.0300837220659695 0.37996193077396345
12.994828125 1.0252861546130843 0.3837196515221073
12.9959765625 1.028186770330266 0.37558213973787624
12.997125 1.0245448441378522 0.37752038768471485
12.9982734375 1.0256810048992029 0.3745090205717707
12.999421875 1.0296102384717511 0.3802366818119082
13.0005703125 1.0219212174422725 0.37334893936665847
13.00171875 1.0205128156463532 0.3690819873753337
13.0028671875 1.0192383296967726 0.37905012960315765
13.004015625 1.0169405988984865 0.3815851979457079
13.0051640625 1.0140304046284911 0.3804112693653168
13.0063125 1.0108532984036873 0.3851281225141052
13.0074609375 1.0122352114732804 0.3786272025636771
13.008609375 1.0070747709272512 0.3837483419078823
13.0097578125 1.01231889230308 0.39031105070754
13.01090625 0.9969371673823338 0.3890378422490166
13.0120546875 1.0030959436440214 0.3978544606885399
13.013203125 1.002480270544634 0.394913859802821
13.0143515625 1.0093113229660815 0.39537065501745405
13.0155 1.0079620323505825 0.4016326577530831
13.0166484375 1.0057489369831587 0.405455040926635
13.017796875 1.0083244592310159 0.4060044711800232
13.0189453125 0.9986007167985584 0.40547456686872785
13.02009375 1.0063034489540743 0.4098431218131701
13.0212421875 1.0004727130158726 0.4081940211076941
13.022390625 1.000289177441327 0.41306713731929084
13.0235390625 0.9934573232044369 0.42196182903260715
13.0246875 0.991655870042792 0.4170338797718436
13.0258359375 0.9893008220849879 0.41583645023423166
13.026984375 0.9908446188150015 0.42050135187509874
13.0281328125 0.9966619883883323 0.4274262639019737
13.02928125 0.9833452338900164 0.43355413335387216
13.0304296875 0.9840624423846458 0.43678706135610157
13.031578125 0.9824148094175836 0.4365380854955597
13.0327265625 0.9837827059730103 0.43557341160743196
13.033875 0.9833865951148705 0.4507774187246511
13.0350234375 0.9842651339557729 0.45132645919794423
13.036171875 0.977377941521822 0.45883455048760063
13.0373203125 0.9870095427864705 0.4530344197324532
13.03846875 0.9827532788314155 0.4562675594647256
13.0396171875 0.9826538846984401 0.4647113789076981
13.040765625 0.9769154476556008 0.4700430677563798
13.0419140625 0.9814059283753312 0.47654280254138653
13.0430625 0.980390660978193 0.4695113600275247
13.0442109375 0.9766327504326152 0.46839472550358024
13.045359375 0.9836971942698772 0.475853032033968
13.0465078125 0.9863714413127658 0.4858919347352355
13.04765625 0.9847497281213817 0.487849379340319
13.0488046875 0.9892174075381462 0.49437901973660514
13.049953125 0.9926802669863514 0.48676529227242643
13.0511015625 0.9840962561607836 0.49193023192660545
13.05225 0.9796886865916418 0.4853075147725536
13.0533984375 0.9839767906109542 0.4969307262428004
13.054546875 0.9870122931142274 0.5013221856330203
13.0556953125 0.9844239417092215 0.4942004838322138
13.05684375 0.9771117752300462 0.492938061591914
13.0579921875 0.9726610446929702 0.49274039513476087
13.059140625 0.9728256452232195 0.49816501713792277
13.0602890625 0.9789617318299593 0.5079280357691962
13.0614375 0.978221917242361 0.5086483120535333
13.0625859375 0.9824339150958286 0.5069555769111393
13.063734375 0.9706031195019451 0.5043566899478333
13.0648828125 0.9698072457341034 0.510388454033021
13.06603125 0.9767476303952449 0.5146930974071513
13.0671796875 0.9740744419020045 0.5240434927246473
13.068328125 0.9722115456378089 0.5106727908882827
13.0694765625 0.9717125589411628 0.5210966125119143
13.070625 0.9721561117171054 0.51916111170943
13.0717734375 0.9708406152688911 0.5257195740117118
13.072921875 0.9740296127478048 0.5336852360580389
13.0740703125 0.974947174840238 0.526534410988917
13.07521875 0.9797696587425714 0.5259492803248585
13.0763671875 0.9707274768207252 0.5311972695595091
13.077515625 0.970742265973185 0.5415715168603056
13.0786640625 0.9668943151212182 0.5471947598292001
13.0798125 0.9717146219396189 0.5395625190362134
13.0809609375 0.9806249219360116 0.5328469477378555
13.082109375 0.9779335331653984 0.5473818292439527
13.0832578125 0.9678489681068764 0.551501488067862
13.08440625 0.9766851368824903 0.552619217489484
13.0855546875 0.9623651515847831 0.5432689971554228
13.086703125 0.971509007549105 0.5472908580471685
13.0878515625 0.9682883679712766 0.5594262437244105
13.089 0.9580982308748096 0.5587529473217936
13.0901484375 0.9604337484682104 0.5613225359630044
13.091296875 0.9632779205587968 0.557543751809495
13.0924453125 0.9606872343651627 0.5675948956869978
13.09359375 0.9695411551906243 0.568277048855248
13.0947421875 0.9629820439363336 0.5819736310558782
13.095890625 0.9570167390785222 0.5727980228176027
13.0970390625 0.9679964658665393 0.5737509864661082
13.0981875 0.9588348632723995 0.5837103975754689
13.0993359375 0.9670112979823003 0.587856944185734
13.100484375 0.9621163719864692 0.58365670311602
13.1016328125 0.9702226201014648 0.5866568178284681
13.10278125 0.9733558188565485 0.5888622553795868
13.1039296875 0.9644661126613187 0.587822374366857
13.105078125 0.9615824020950638 0.5987108578831145
13.1062265625 0.964819025577386 0.5993933026010112
13.107375 0.9672987924788894 0.602651090076395
13.1085234375 0.9689068967459995 0.5976168742209169
13.109671875 0.9651309549157965 0.6023090906999486
13.1108203125 0.9644979806272811 0.6034798992888677
13.11196875 0.9560335816992622 0.608997685277314
13.1131171875 0.9595813758842455 0.6178154728905643
13.114265625 0.956813205739306 0.619336413778629
13.1154140625 0.9588445932037205 0.6256170583211873
13.1165625 0.9618051661299016 0.6305098926209058
13.1177109375 0.9641400544903114 0.6380831618092495
13.118859375 0.9629863920783758 0.6437486910891485
13.1200078125 0.9607795700714867 0.6430444151191415
13.12115625 0.9628959377509243 0.6443259117922308
13.1223046875 0.9720914398373086 0.6555160185652368
13.123453125 0.9680122328434592 0.6571542477811477
13.1246015625 0.9735815224920796 0.6620653719677547
13.12575 0.9755269396331683 0.658269822283883
13.1268984375 0.9760646245715908 0.6607422288988103
13.128046875 0.974872735946146 0.6653485188864832
13.1291953125 0.9736420167249702 0.6712284623294004
13.13034375 0.9747703859516426 0.6770738060479923
13.1314921875 0.9803669046189588 0.6778427124054904
13.132640625 0.9800654455925193 0.6827163180333352
13.1337890625 0.984481482303736 0.693703877088582
13.1349375 0.9902917790980865 0.6934717380243699
13.1360859375 0.9956935534240283 0.6957329033047617
13.137234375 1.0052858983622763 0.6994738085861004
13.1383828125 1.0117468201486863 0.702707329038982
13.13953125 1.0199396363524917 0.6959746794996449
13.1406796875 1.0237171810619623 0.6965565878435833
13.141828125 1.026558194960868 0.6872568741596309
13.1429765625 1.0235294305826046 0.6772559652412141
13.144125 1.022654245487298 0.6718777506615147
13.1452734375 1.0180323221456464 0.6746574223554258
13.146421875 1.0145901071250516 0.6720968903593131
13.1475703125 1.0153220514054948 0.6753524144796929
13.14871875 1.0210929025701576 0.6777857910696415
13.1498671875 1.019323850923037 0.6727025050821716
13.151015625 1.0186609486292562 0.6673751056662984
13.1521640625 1.0164643547892442 0.6660427703128629
13.1533125 1.0249176592006157 0.6662249211299741
13.1544609375 1.024105417342251 0.6602759484875077
13.155609375 1.0199269218096414 0.6648895496047734
13.1567578125 1.0164245287020053 0.6623253668484557
13.15790625 1.0199811072344545 0.6607451830826241
13.1590546875 1.0219089910612307 0.6607195981625371
13.160203125 1.0182215392727043 0.653941776444422
13.1613515625 1.0089598618175555 0.654854929512582
13.1625 1.0058877915796052 0.6570433339801067
13.1636484375 1.0077620478923195 0.6582456731395218
13.164796875 1.0095483266570568 0.6571855436045394
13.1659453125 1.005623300860021 0.657513229380151
13.16709375 1.0049753763948277 0.6551541324437604
13.1682421875 1.0041577165372273 0.6541550993540869
13.169390625 0.9934024744388096 0.6524350108079238
13.1705390625 0.9918925636945 0.6542778025854514
13.1716875 1.0025460007979858 0.6540856280512654
13.1728359375 0.9967309824266171 0.656547774322805
13.173984375 0.9958667574712886 0.6602989295575485
13.1751328125 0.9931723360168744 0.6537202004614598
13.17628125 0.9898583135002964 0.6575431039675972
13.1774296875 0.9955935552595172 0.6536254304654641
13.178578125 0.9872966527496847 0.653258843695544
13.1797265625 0.98930818287066 0.6532127051973098
13.180875 0.9834639869785387 0.6486693357248005
13.1820234375 0.9804810416721148 0.6606106638783095
13.183171875 0.9827888151188044 0.657580261486089
13.1843203125 0.9829142465225366 0.6513248693063811
13.18546875 0.9807703894875612 0.6511575372214043
13.1866171875 0.9743380620164812 0.6522114836103976
13.187765625 0.9681211148550126 0.6583493836705665
13.1889140625 0.9691278781965664 0.6587451158677264
13.1900625 0.9667032175774475 0.6611912931407262
13.1912109375 0.9657543501937202 0.6574670560833077
13.192359375 0.9666580543770802 0.6560844871928608
13.1935078125 0.9581332866784233 0.6521805406108938
13.19465625 0.9553945088518372 0.658885390193132
13.1958046875 0.9484786657901552 0.6542772112569747
13.196953125 0.9492927744489351 0.6551489907331705
13.1981015625 0.9402951049431936 0.6592808367537795
13.19925 0.9364757432372575 0.6633408319905545
13.2003984375 0.9347073682943657 0.6726037827087982
13.201546875 0.936673745213294 0.6713592353239635
13.2026953125 0.9324669205652604 0.6715721595002991
13.20384375 0.9336554938143921 0.675103555409153
13.2049921875 0.933346007476977 0.6854549570784342
13.206140625 0.9224011269190513 0.6814241731677382
13.2072890625 0.9185314981076599 0.6882609316351789
13.2084375 0.9171758728908997 0.6982588636050481
13.2095859375 0.9160734093486682 0.6960718751047629
13.210734375 0.9204041507241683 0.6911197220042095
13.2118828125 0.9190539899321694 0.6932365582460446
13.21303125 0.9193464608919406 0.6957479990509371
13.2141796875 0.9128078813816116 0.6897920757849216
13.215328125 0.9120896250876072 0.7055352067372525
13.2164765625 0.913179868409356 0.7053013467068778
13.217625 0.9179375035718382 0.6978424580264855
13.2187734375 0.9174620241476958 0.7111791659375035
13.219921875 0.9159880214326609 0.7073776001868151
13.2210703125 0.9057052600189279 0.7048992651734229
13.22221875 0.9124956306637593 0.6975723774251952
13.2233671875 0.8952160333401333 0.7000897500419745
13.224515625 0.8987061916446963 0.7044224978327226
13.2256640625 0.900389955863712 0.7102270912744859
13.2268125 0.8920686481777933 0.7110277999151723
13.2279609375 0.8872580508128974 0.7232926612181749
13.229109375 0.8862149112181459 0.7154391291847778
13.2302578125 0.8878738529732408 0.7226735637140086
13.23140625 0.8906362587620318 0.7269106389697682
13.2325546875 0.8826570839424126 0.7188976929032307
13.233703125 0.8813957134484027 0.7299692364133321
13.2348515625 0.8980307660805232 0.723809309996574
13.236 0.8797662812160065 0.7242712591532674
13.2371484375 0.8774283852668576 0.726901925994021
13.238296875 0.8857001604702646 0.7286308855148911
13.2394453125 0.8716508970561201 0.7215931444122852
13.24059375 0.8709265033529131 0.7250009827269202
13.2417421875 0.8723631266400493 0.7391677782618182
13.242890625 0.8901443361199779 0.7339342258992817
13.2440390625 0.8806791695870713 0.7382701226265299
13.2451875 0.8923247408778705 0.7353979421077401
13.2463359375 0.8850279849598044 0.7341017574165554
13.247484375 0.8713157636927344 0.7603471442153593
13.2486328125 0.8763637100982182 0.7552516480435987
13.24978125 0.8763209430516192 0.7462578674932316
13.2509296875 0.8769139942962517 0.7612651918296445
13.252078125 0.8758595323360299 0.7413842324164157
13.2532265625 0.879559051548419 0.7401084241066793
13.254375 0.880828537604508 0.7384039832300958
13.2555234375 0.8696388132016194 0.745786263057371
13.256671875 0.8644138613888934 0.747179085706855
13.2578203125 0.87053207313515 0.7480739992202597
13.25896875 0.869112179220609 0.7479016075156132
13.2601171875 0.8657082269710902 0.7494632105717568
13.261265625 0.8568950725922925 0.7591743405055111
13.2624140625 0.8605396291105032 0.7476708595207372
13.2635625 0.8595527963191957 0.7550566770588633
13.2647109375 0.8563161780286919 0.7541053500073673
13.265859375 0.8570047645298005 0.7520943471908091
13.2670078125 0.8587704779176967 0.7453855527841762
13.26815625 0.8482522776568583 0.7517487525089743
13.2693046875 0.8469527577105913 0.7542667126140555
13.270453125 0.8409700455767961 0.7537632354000572
13.2716015625 0.8380240827098475 0.7641934469846597
13.27275 0.8354741165630327 0.7606571131080468
13.2738984375 0.8331066503944096 0.7630583641609582
13.275046875 0.8281609124283673 0.769680699194655
13.2761953125 0.8280755787877006 0.7747743067269044
13.27734375 0.8303475269709982 0.7778590841039185
13.2784921875 0.8267277944589544 0.775969504589742
13.279640625 0.8284276344251367 0.7742283591988909
13.2807890625 0.8222233459214264 0.7758375400157091
13.2819375 0.8189539449868618 0.7747197721135332
13.2830859375 0.8155600085516093 0.786020742440966
13.284234375 0.8163212359140382 0.7937362934755342
13.2853828125 0.8107935103536421 0.7922433790181435
13.28653125 0.8108049899270848 0.7916334713423288
13.2876796875 0.8124239483707221 0.7969935139500502
13.288828125 0.8114953896296677 0.8027179901154291
13.2899765625 0.8070408641744357 0.8076331102482892
13.291125 0.810260124027669 0.8117233706366723
13.2922734375 0.8091891273789822 0.8077602980495392
13.293421875 0.8074271309505185 0.8021067628598657
13.2945703125 0.8088021159490661 0.8054425447566795
13.29571875 0.8049847032862789 0.8094030726103447
13.2968671875 0.8059129251342501 0.8077681134886506
13.298015625 0.8028967008784761 0.8133970425150016
13.2991640625 0.8045472275880683 0.8095808111616798
13.3003125 0.8010581780385349 0.8103184857914076
13.3014609375 0.7982567638373477 0.8097139223687848
13.302609375 0.792778827328525 0.813361287190514
13.3037578125 0.7862664244557647 0.8183621994351888
13.30490625 0.7852358597180582 0.8116268218333913
13.3060546875 0.7837479472972724 0.8124364739745615
13.307203125 0.7824649063205911 0.8172903289703574
13.3083515625 0.7769923506011045 0.8163525593740041
13.3095 0.7775357011451449 0.82068178680268
13.3106484375 0.7747128542675061 0.8250272953796736
13.311796875 0.773129488838886 0.8206332967689393
13.3129453125 0.7707886733352184 0.8265330059460001
13.31409375 0.7671817931559676 0.8235688856614889
13.3152421875 0.7650913603303344 0.8247357120184593
13.316390625 0.7646388017746658 0.8267220241116657
13.3175390625 0.7637964427146013 0.8288371112889198
13.3186875 0.7595090759864509 0.8332225331680403
13.3198359375 0.7570777592409278 0.8263071991243536
13.320984375 0.7510298091172645 0.8301758509137493
13.3221328125 0.749464361107741 0.8326078973659665
13.32328125 0.7484904944042436 0.8291849639643789
13.3244296875 0.7467956029624896 0.8340306858000914
13.325578125 0.7441794184620829 0.8373228753717177
13.3267265625 0.7387187397968706 0.8348513770873476
13.327875 0.7376058511646177 0.8369820266857246
13.3290234375 0.7373699272749612 0.8397459143665676
13.330171875 0.7344436663103615 0.84176284002705
13.3313203125 0.7306882827862757 0.8383317336556433
13.33246875 0.7271258391165951 0.8427944292811755
13.3336171875 0.7267552594045465 0.8426712712860754
13.334765625 0.726295387946893 0.8409179062038692
13.3359140625 0.7224030518674148 0.8454935919042927
13.3370625 0.7174680210477522 0.8480753385997958
13.3382109375 0.7168949895975205 0.8463801492977754
13.339359375 0.7112029478205893 0.8491029791466074
13.3405078125 0.710034247035896 0.8535757123385533
13.34165625 0.7058484768208794 0.8518592058199796
13.3428046875 0.7066044312699213 0.8517805773399088
13.343953125 0.7018679415427845 0.8525976470022099
13.3451015625 0.6994652019861823 0.8568065481785807
13.34625 0.698322705353052 0.8560542557065487
13.3473984375 0.6941340978444612 0.8589194956039508
13.348546875 0.6874079146604404 0.8609435169333074
13.3496953125 0.6900815186799409 0.864443775248
13.35084375 0.6850703481272521 0.8649834125977925
13.3519921875 0.6876196064213195 0.8671935093469616
13.353140625 0.6836616187706027 0.86350038310126
13.3542890625 0.6779946303413814 0.8650378160288661
13.3554375 0.6765014114594947 0.8736391824935903
13.3565859375 0.6706208240764164 0.8748407266486589
13.357734375 0.6675672437082408 0.8766003867990312
13.3588828125 0.6652310947421339 0.876271714785281
13.36003125 0.6622068728936861 0.8787543710795441
13.3611796875 0.6629868970165145 0.8768358561382679
13.362328125 0.6568968911297957 0.8793930011587054
13.3634765625 0.6542715174001212 0.8858605425641691
13.364625 0.6528655467869858 0.8792271510031687
13.3657734375 0.6463557846314016 0.8845033245104932
13.366921875 0.6440155777279885 0.8871388894162294
13.3680703125 0.6385839642365403 0.8872537168485986
13.36921875 0.6391993696985026 0.8911999322484806
13.3703671875 0.6334904135439592 0.8912210939954125
13.371515625 0.6261477469559905 0.8918691755313555
13.3726640625 0.6220819053508239 0.8956123140176422
13.3738125 0.6144328119202211 0.8991621192924237
13.3749609375 0.6115601100615919 0.9083479427111947
13.376109375 0.6110102071848182 0.9081419189514514
13.3772578125 0.6046284841637066 0.9106134809612256
13.37840625 0.6036606423329473 0.9139999349637745
13.3795546875 0.596303738589083 0.9194202266466409
13.380703125 0.5950099641842324 0.9264516197880361
13.3818515625 0.5905712724064536 0.9298705166701715
13.383 0.5893227279195392 0.9361341524685598
13.3841484375 0.5868132666711189 0.9433442195329134
13.385296875 0.5914111095768596 0.9475486619728167
13.3864453125 0.5853459246147636 0.9490041640456843
13.38759375 0.5882361357581204 0.9453516316140067
13.3887421875 0.5911998821638024 0.9470640789529593
13.389890625 0.58622704089069 0.9467428286434716
13.3910390625 0.5756751234788922 0.9441159898055387
13.3921875 0.5745834968359398 0.9513435984870529
13.3933359375 0.5708754597244297 0.960324198956817
13.394484375 0.5650930353432957 0.9651344993717672
13.3956328125 0.5702081851331791 0.9708991277322051
13.39678125 0.5703176281193831 0.9779261222930876
13.3979296875 0.5731879645930104 0.9819863720889372
13.399078125 0.5735888982404793 0.9827702155594884
13.4002265625 0.5678429956387067 0.9864432983184477
13.401375 0.569711855145687 0.9883922877660433
13.4025234375 0.5701498226377213 0.9968910484548517
13.403671875 0.5645687979363315 1.0021417796877756
13.4048203125 0.5681419621967247 1.007626412348938
13.40596875 0.5795331339726076 1.0044196574706081
13.4071171875 0.58192673135722 1.0038692104275202
13.408265625 0.5815397326236504 1.0073037657097996
13.4094140625 0.5776704904732098 1.0045873354211317
13.4105625 0.580957754504685 1.0090202213036323
13.4117109375 0.5822165340826158 1.0102814883892643
13.412859375 0.5858583915675928 1.0054292785296468
13.4140078125 0.5942796433246005 1.004703326364687
13.41515625 0.5909830761648857 1.0021113259271774
13.4163046875 0.5905377982483206 0.9946375937935797
13.417453125 0.5784873150039991 0.9848158497348418
13.4186015625 0.5751065441422556 0.9817131715478198
13.41975 0.5640513442421745 0.9817889290398472
13.4208984375 0.5534164594637828 0.9905248613196582
13.422046875 0.5509986712820071 0.9982159500525445
13.4231953125 0.5544454698409291 1.0023062755425007
13.42434375 0.5559712946612859 1.009470538550857
13.4254921875 0.5583271664591833 1.0017044903092474
13.426640625 0.5546861576082357 1.0047649481620264
13.4277890625 0.5582854858950752 1.008485053398482
13.4289375 0.5564610711379683 1.0046010261792162
13.4300859375 0.5516712730468072 1.0004667170185035
13.431234375 0.5427814018207138 1.0018541942481507
13.4323828125 0.5304736631095459 1.0072376659353162
13.43353125 0.5358177590468118 1.0188695660124154
13.4346796875 0.5386478208876335 1.0308626371107137
13.435828125 0.5426726192613284 1.0201991660024166
13.4369765625 0.5442939939908569 1.0122464318964353
13.438125 0.5443938588077377 1.008997776475365
13.4392734375 0.5302821139226988 1.0057367030763829
13.440421875 0.5216909471424528 1.0076237004725397
13.4415703125 0.5166366372414936 1.0129736300070509
13.44271875 0.5093907036410071 1.0233306465301015
13.4438671875 0.5075436082052732 1.01887667726217
13.445015625 0.5042810858992575 1.025158484111515
13.4461640625 0.4996269280126297 1.0348234644542422
13.4473125 0.49969677411473595 1.0363453540415195
13.4484609375 0.5043412312465695 1.041590168584254
13.449609375 0.5027081687975797 1.0448402734403106
13.4507578125 0.49968932647363196 1.0448852063562617
13.45190625 0.5050026628430058 1.0466143781227935
13.4530546875 0.500344543098566 1.0437514830526373
13.454203125 0.49594431645506043 1.0499782600886676
13.4553515625 0.49497370019011544 1.0446944894185848
13.4565 0.49429835027216384 1.0470417147565865
13.4576484375 0.4901213510499237 1.0511784388626142
13.458796875 0.4893980589536288 1.052064958962683
13.4599453125 0.48751155446568506 1.0595492868713523
13.46109375 0.4842674342526757 1.0629116426973981
13.4622421875 0.4833585902261195 1.0604171639182645
13.463390625 0.48252172584073894 1.0582895110272275
13.4645390625 0.48467158996969584 1.0616824829824583
13.4656875 0.48468872478995306 1.064014229614144
13.4668359375 0.4845141039027483 1.0573268363107309
13.467984375 0.4805306576858367 1.0598286292989332
13.4691328125 0.47483881760463864 1.0584992035817185
13.47028125 0.4670868230079468 1.0539798583615227
13.4714296875 0.46592087750657585 1.061681172027876
13.472578125 0.46626351728893267 1.0666150026142425
13.4737265625 0.4674587069637456 1.0658549504564954
13.474875 0.4655373929355817 1.073020245608112
13.4760234375 0.4636550539807324 1.0661547638256443
13.477171875 0.4604349705741182 1.0637733722359517
13.4783203125 0.4612042376765282 1.0541176090513702
13.47946875 0.455097526841328 1.0630672387331845
13.4806171875 0.4485632925535508 1.0678284883418279
13.481765625 0.4420099320561948 1.0682673742589008
13.4829140625 0.4413823279158741 1.0703083265321967
13.4840625 0.4428719160492343 1.072235148335199
13.4852109375 0.4401071149897082 1.0742719717174891
13.486359375 0.4356969797299167 1.078092862941136
13.4875078125 0.4345263392978551 1.0811166039845992
13.48865625 0.43189608915330924 1.082968871515987
13.4898046875 0.4355665755527507 1.0815677910306474
13.490953125 0.43890668596199195 1.0835776291153278
13.4921015625 0.4347652352059663 1.08609515019798
13.49325 0.4365764794984149 1.083254692649541
13.4943984375 0.4343524253316691 1.081736640308145
13.495546875 0.43014425414016333 1.0808538880050826
13.4966953125 0.42520022190598744 1.0796038486371218
13.49784375 0.4213694744574805 1.0838455048540647
13.4989921875 0.41576231901381533 1.0896524777908567
13.500140625 0.41488185286484236 1.088171927291378
13.5012890625 0.4125345411568965 1.0877559318248058
13.5024375 0.4119296782855706 1.0902531860685458
13.5035859375 0.411371228294159 1.0882509273913803
13.504734375 0.4099704024833565 1.0852880378442529
13.5058828125 0.4081613424022238 1.0867488883649878
13.50703125 0.40257288685128906 1.0879873207258257
13.5081796875 0.4017435938437487 1.0879303437988501
13.509328125 0.39637630465745327 1.084974908980622
13.5104765625 0.3955692541240128 1.0853236622299962
13.511625 0.38944866732042305 1.0880357548109707
13.5127734375 0.3893061820021164 1.0879001667752242
13.513921875 0.3826604967060937 1.0924278993717724
13.5150703125 0.37893929348658173 1.0925383839584275
13.51621875 0.3729740748774108 1.0910910619920622
13.5173671875 0.36775747014567844 1.0985511615797927
13.518515625 0.36922796218755216 1.0978077742231007
13.5196640625 0.3667467690866475 1.0968409462764483
13.5208125 0.36404534468721617 1.1006222009055253
13.5219609375 0.3601573626480836 1.1042045233986129
13.523109375 0.36018366761735554 1.1000162855017277
13.5242578125 0.3562200660394349 1.1048140910964057
13.52540625 0.3533281946500955 1.1071869160863232
13.5265546875 0.3496316137388147 1.1067252222593051
13.527703125 0.3440850726713966 1.1048785704647475
13.5288515625 0.34062192018262044 1.1042907762346585
13.53 0.337947802484998 1.1092026636501244
13.5311484375 0.33415329359232737 1.1035035264684017
13.532296875 0.3317433163831044 1.1087796989601517
13.5334453125 0.3246533654865692 1.1120874241604934
13.53459375 0.32374744804778843 1.106988804762704
13.5357421875 0.3173962624278631 1.1102563357770165
13.536890625 0.31203539093630694 1.1163151043546118
13.5380390625 0.3078498022143228 1.1185463322086708
13.5391875 0.3060248628131484 1.1237053988062415
13.5403359375 0.30490958980423777 1.131403516261812
13.541484375 0.3022000281502367 1.1341765011251268
13.5426328125 0.30361322658213896 1.1324761011114317
13.54378125 0.301051451677978 1.1364202492284203
13.5449296875 0.30237298173240135 1.1356356296534065
13.546078125 0.2961901508172271 1.137989024060961
13.5472265625 0.2958611514434477 1.139157758440085
13.548375 0.29752157510353394 1.1396383424365837
13.5495234375 0.2937392352891537 1.1383798811234371
13.550671875 0.2922443727081496 1.1412684606810886
13.5518203125 0.286301703410558 1.141714526663661
13.55296875 0.28690936799749645 1.139256735424556
13.5541171875 0.2791377834627855 1.1415807247010432
13.555265625 0.27613587427701536 1.1422401973177692
13.5564140625 0.2726037772004761 1.145469797850169
13.5575625 0.27310985755819406 1.1490531159824333
13.5587109375 0.2668310852548849 1.1533324091931354
13.559859375 0.26474060668212196 1.1561942385978603
13.5610078125 0.27041559177921465 1.149763496158004
13.56215625 0.27224868800018087 1.1574885053974722
13.5633046875 0.2727912829687054 1.1574485641871601
13.564453125 0.26989545728219866 1.1502212126726126
13.5656015625 0.26291597426304203 1.153989356018204
13.56675 0.262775828323001 1.1497189195932487
13.5678984375 0.259924932511394 1.1496349425802654
13.569046875 0.2592591760944122 1.1476552875048844
13.5701953125 0.254603819905283 1.1509101814631304
13.57134375 0.25467109350652667 1.1534125870480343
13.5724921875 0.25053628326394894 1.153181232091519
13.573640625 0.24891665782956746 1.1528023951865112
13.5747890625 0.24594328834134238 1.1527558203466057
13.5759375 0.241225033191741 1.1473388324138558
13.5770859375 0.23669297665343317 1.1532064064097853
13.578234375 0.23805343588983102 1.1547507213863737
13.5793828125 0.2377210235118744 1.1509861103907388
13.58053125 0.23518767730664217 1.1531555874425932
13.5816796875 0.23284637776324657 1.1473950114053797
13.582828125 0.22599635904701953 1.1446901345653033
13.5839765625 0.22105877133980212 1.1400553035116414
13.585125 0.2176234348355574 1.1413791550370522
13.5862734375 0.21289448893859514 1.1450929924505144
13.587421875 0.2092219325854543 1.145420745391634
13.5885703125 0.1978842080624622 1.1512926411690942
13.58971875 0.19737716328627566 1.1520289855369596
13.5908671875 0.19338125905434697 1.1504945217907923
13.592015625 0.1899988740554363 1.149803926753733
13.5931640625 0.18569317995349277 1.1517978137237823
13.5943125 0.18036973825200747 1.1545213807775698
13.5954609375 0.17802613428044725 1.1547885463709302
13.596609375 0.17153266700396672 1.1598447477629024
13.5977578125 0.16843513185158196 1.1613509340084505
13.59890625 0.16532830848283775 1.1614098596202511
13.6000546875 0.15792882231295602 1.1649795143462112
13.601203125 0.15412412746054363 1.167554634850038
13.6023515625 0.15247805006370257 1.1663064334590176
13.6035 0.14804926862778944 1.1701155362831068
13.6046484375 0.1439149538514241 1.1783627176072047
13.605796875 0.14391853193432796 1.1817850592887427
13.6069453125 0.14487685779225065 1.1859889998112705
13.60809375 0.14447867335480521 1.182784621600403
13.6092421875 0.14556723969865037 1.1845608146389972
13.610390625 0.1438302930775636 1.1810784664995273
13.6115390625 0.14094253637225218 1.1816683188015022
13.6126875 0.13903688252140567 1.1790335853275757
13.6138359375 0.13425257690409392 1.1738582240747124
13.614984375 0.1262665238867664 1.1739200979413547
13.6161328125 0.11606607610243774 1.1794563037717922
13.61728125 0.11463994038985559 1.1825645720938285
13.6184296875 0.11155897474267365 1.1857432761840712
13.619578125 0.10647566462663466 1.188976165126348
13.6207265625 0.10609684971345887 1.1880597108235924
13.621875 0.10816586661638003 1.1874398431923483
13.6230234375 0.10266890406991017 1.1889834390769145
13.624171875 0.09861102954291268 1.1903411948347637
13.6253203125 0.09862931318272622 1.190667595920154
13.62646875 0.09109121801189551 1.189885600809627
13.6276171875 0.08681227504303646 1.1872506961008409
13.628765625 0.08219391147079433 1.1877690065699844
13.6299140625 0.07412971912351751 1.1990859366187059
13.6310625 0.06803619558034374 1.197140376577037
13.6322109375 0.0650169881522571 1.1977005172436452
13.633359375 0.05947462982596541 1.2036261134250268
13.6345078125 0.06232120634129368 1.2088755872002168
13.63565625 0.058664795882035936 1.2091983784375502
13.6368046875 0.05778845201057259 1.2084268854339828
13.637953125 0.0548887541714258 1.2131878909615486
13.6391015625 0.0529218764785051 1.2150464422340173
13.64025 0.048055822343051224 1.2141162657139888
13.6413984375 0.045549983982165365 1.2172190978264164
13.642546875 0.04043124932972064 1.2172615854928428
13.6436953125 0.04562546887690866 1.2223753296889637
13.64484375 0.038051773884905105 1.2258800292227108
13.6459921875 0.034638011625718335 1.2263189339808775
13.647140625 0.03327615791937921 1.225505469738919
13.6482890625 0.031095487443433212 1.2241443129704304
13.6494375 0.027244675511401972 1.2292820492328604
13.6505859375 0.027965286488508212 1.2335651168093356
13.651734375 0.01871206985930013 1.2288695436577761
13.6528828125 0.020344465826493296 1.235617258739668
13.65403125 0.019057607307834068 1.2392335793043516
13.6551796875 0.01870718151725792 1.2342830280275434
13.656328125 0.016710465206057568 1.2444866252809017
13.6574765625 0.013708044569580413 1.2439752822566872
13.658625 0.012691867097930576 1.245695175946307
13.6597734375 0.00397200856080171 1.240658581893378
13.660921875 0.006307838747764638 1.2501021602336462
13.6620703125 0.007528493900689659 1.2475266009045562
13.66321875 0.004234362955351845 1.2469175447983893
13.6643671875 0.0016551852266374345 1.2467146914200713
13.665515625 -0.003576477484123375 1.2458192123544443
13.6666640625 -0.005636449352570794 1.2471907501561679
13.6678125 -0.015488929604333235 1.2507398596324877
13.6689609375 -0.02024789146646422 1.2513029891367615
13.670109375 -0.024967454875884476 1.2506619154564125
13.6712578125 -0.025719671988367 1.2566204698993633
13.67240625 -0.023488970912254103 1.2642747267874077
13.6735546875 -0.02980821314686455 1.271551406407176
13.674703125 -0.022124577610418306 1.2694956225253629
13.6758515625 -0.027277848711333652 1.2773401361602503
13.677 -0.03007494779713571 1.2893805647642107
13.6781484375 -0.02267871808759092 1.2836724719325612
13.679296875 -0.02416291028877693 1.2819388208362423
13.6804453125 -0.02296836188954643 1.2822937878440304
13.68159375 -0.017376338772339905 1.2823121144912242
13.6827421875 -0.021527928012162967 1.2816758223348974
13.683890625 -0.020134808309885788 1.2808009110964982
13.6850390625 -0.022999016087091317 1.2797483700991048
13.6861875 -0.02152062275781974 1.274302529066228
13.6873359375 -0.020567863271019116 1.275899685730645
13.688484375 -0.026232911553643268 1.279465650440352
13.6896328125 -0.029066100051395538 1.2723881498025293
13.69078125 -0.03381698077368711 1.2767712657905304
13.6919296875 -0.03839434108308626 1.2790288691849059
13.693078125 -0.03253164335295633 1.2784487352753269
13.6942265625 -0.03666968485857447 1.2772674322582085
13.695375 -0.03709025237846719 1.2770393470595365
13.6965234375 -0.03281196766527816 1.27356320711257
13.697671875 -0.03672534060677379 1.273336098594593
13.6988203125 -0.04038480527153537 1.2714722319815184
13.69996875 -0.04450230708188729 1.2717087082969427
13.7011171875 -0.04682822286281629 1.2711847017180555
13.702265625 -0.054743009277736676 1.2737557326007845
13.7034140625 -0.05689331223819444 1.272412586782894
13.7045625 -0.05288147138002597 1.2688838464231358
13.7057109375 -0.06075291118980941 1.2681386678742075
13.706859375 -0.0636855902386061 1.2698385787453608
13.7080078125 -0.06610604014647337 1.268880800127501
13.70915625 -0.07294366400596558 1.2719220785291734
13.7103046875 -0.07464403502794126 1.2731254993425951
13.711453125 -0.07693672830659948 1.2704121665756007
13.7126015625 -0.08413280278503643 1.2715742980699338
13.71375 -0.08529599922155495 1.276629294598533
13.7148984375 -0.09033440571951012 1.2777994662325793
13.716046875 -0.09075321673939862 1.27836272270571
13.7171953125 -0.09484758102136512 1.2858446887001287
13.71834375 -0.10006229692747892 1.2910079650320938
13.7194921875 -0.09869778507599425 1.2943160733003034
13.720640625 -0.09744866618436204 1.2953988590915462
13.7217890625 -0.09863925521042521 1.3008282914584066
13.7229375 -0.09757628549008829 1.3010029722484575
13.7240859375 -0.09603644876948814 1.305925995089498
13.725234375 -0.09216418521166825 1.3066500890415873
13.7263828125 -0.0842888819549556 1.304924251226731
13.72753125 -0.08027860811860343 1.2954072662064255
13.7286796875 -0.08130669746282587 1.289368859814985
13.729828125 -0.08554815342111603 1.2845706337131548
13.7309765625 -0.08816096597521868 1.2796321105633495
13.732125 -0.09674473062882095 1.2782139930004497
13.7332734375 -0.09823000010046326 1.28011976998992
13.734421875 -0.10360004672485423 1.27697868995537
13.7355703125 -0.1077925203341372 1.2780888214190442
13.73671875 -0.11125171889371768 1.2781208260119061
13.7378671875 -0.1173967632736719 1.2777654804133458
13.739015625 -0.1189693995209582 1.273185483385781
13.7401640625 -0.12350578968393988 1.2736382576811196
13.7413125 -0.13279224738804904 1.2790647889333098
13.7424609375 -0.13277827277509435 1.2812443694534181
13.743609375 -0.1371214715659258 1.2875781765842715
13.7447578125 -0.13828897378363225 1.2933877442156907
13.74590625 -0.13425826822613376 1.2926270003476903
13.7470546875 -0.13601469989531847 1.2961345605106986
13.748203125 -0.13373827039247524 1.3002559287575997
13.7493515625 -0.12669474177597181 1.2997907822523485
13.7505 -0.12186124405916361 1.2957260493570604
13.7516484375 -0.12087246603929638 1.2959270231181406
13.752796875 -0.12210039978217847 1.289670389887753
13.7539453125 -0.12211606825755372 1.2829742014918013
13.75509375 -0.12483008115232955 1.2836069814084916
13.7562421875 -0.12919496524592097 1.285263370399732
13.757390625 -0.124661159122533 1.2831736900781574
13.7585390625 -0.12470759375302395 1.2817899101208008
13.7596875 -0.12489742291057176 1.2767778304051913
13.7608359375 -0.12345677298182173 1.2699470567236937
13.761984375 -0.12246042706845817 1.2671355581698163
13.7631328125 -0.12772355083861306 1.2618679658143959
13.76428125 -0.12935667483325164 1.2552749097509963
13.7654296875 -0.13452842424903702 1.2531009746834103
13.766578125 -0.13936091145158427 1.250010806158333
13.7677265625 -0.14478709399502052 1.2480543557221386
13.768875 -0.14619820755028146 1.2456409140858313
13.7700234375 -0.1518845672988431 1.2459026893903034
13.771171875 -0.1559872322226325 1.2425408442540995
13.7723203125 -0.1574302997882904 1.2391843841310612
13.77346875 -0.1635663973786747 1.242319826707826
13.7746171875 -0.16660408862324502 1.2426835016089472
13.775765625 -0.16953520038952646 1.2389953527657571
13.7769140625 -0.17168782687762424 1.2400510877314717
13.7780625 -0.17340950811364242 1.2415776390692652
13.7792109375 -0.17211945467510736 1.2414338339283777
13.780359375 -0.17373491343890618 1.2398492823835658
13.7815078125 -0.1761442837165829 1.2368776875790006
13.78265625 -0.18016788473653056 1.234071245300217
13.7838046875 -0.17952417261434095 1.2319482288125077
13.784953125 -0.18943121626115483 1.2315616609773608
13.7861015625 -0.19183397765156507 1.2333217679025095
13.78725 -0.18855046433961353 1.2270585881765843
13.7883984375 -0.19345173518295655 1.2247780052371464
13.789546875 -0.1953848224795346 1.2228948448165338
13.7906953125 -0.2005241367330593 1.218433351592521
13.79184375 -0.20447348016509237 1.2165294559814972
13.7929921875 -0.21147214497691735 1.2184284295740715
13.794140625 -0.21498364112920426 1.2180384118441379
13.7952890625 -0.21579034471421982 1.2148074492064314
13.7964375 -0.21743107647606658 1.2190226298538094
13.7975859375 -0.22457647338318476 1.218659136383884
13.798734375 -0.2230408778085508 1.2162603802868868
13.7998828125 -0.2258372594675897 1.2188848021020702
13.80103125 -0.22947315281484293 1.218338799384342
13.8021796875 -0.22947876986739824 1.2089038339097595
13.803328125 -0.23152926603722213 1.206297280849053
13.8044765625 -0.23532577665328336 1.2065381475585706
13.805625 -0.2410674132856636 1.2022778830233087
13.8067734375 -0.24251494160173004 1.2010500956429895
13.807921875 -0.24843678898556631 1.200447614658363
13.8090703125 -0.2506425822596179 1.199452455254876
13.81021875 -0.25091971714130235 1.1945010492382913
13.8113671875 -0.2540973025240977 1.1940221838303329
13.812515625 -0.2580839357961654 1.1929598161705468
13.8136640625 -0.26037070635510884 1.1864321500695698
13.8148125 -0.2684890279493265 1.182826865219643
13.8159609375 -0.2770847094730925 1.1815300956747175
13.817109375 -0.2796333966021276 1.1832281796100126
13.8182578125 -0.2871971499001492 1.1822591966106515
13.81940625 -0.29111802004145915 1.185455135919081
13.8205546875 -0.29756456080058824 1.1853812418052814
13.821703125 -0.2977872970757327 1.1862989248611129
13.8228515625 -0.3007498087978101 1.1893924104961235
13.824 -0.3006035277602592 1.189264264551725
13.8251484375 -0.29955484267145915 1.1877412957489701
13.826296875 -0.3079125965401469 1.191405376456142
13.8274453125 -0.3052507802499733 1.1920390250323678
13.82859375 -0.30462317520535653 1.1878279189888064
13.8297421875 -0.30650029913259924 1.181037083630065
13.830890625 -0.30820650134648764 1.179937050355048
13.8320390625 -0.3055266647754731 1.1783716567598783
13.8331875 -0.3109327134046733 1.1731990324086379
13.8343359375 -0.31768239912203866 1.1723840910095928
13.835484375 -0.318283267011635 1.1713317851809073
13.8366328125 -0.32155337492550495 1.1675840256890513
13.83778125 -0.32666797243308904 1.1647962389240176
13.8389296875 -0.3350236116373338 1.162905453460978
13.840078125 -0.3360583029317694 1.1612804928066762
13.8412265625 -0.33947493840053056 1.1613710774556578
13.842375 -0.3382977596049658 1.1616056392808338
13.8435234375 -0.34090599694123586 1.1583468684478508
13.844671875 -0.34534513743808826 1.1553058846188924
13.8458203125 -0.35230117999288635 1.152310321961974
13.84696875 -0.35556948213851375 1.154738308142376
13.8481171875 -0.36100221718248526 1.151018815404649
13.849265625 -0.36602302577603774 1.1487660740282377
13.8504140625 -0.36633256971676653 1.1485721939036138
13.8515625 -0.37264256389079653 1.1479314159052403
13.8527109375 -0.3783916920103131 1.148048620743661
13.853859375 -0.3815971071248101 1.1521782624737968
13.8550078125 -0.3822747963528793 1.1485977137321481
13.85615625 -0.3864579279148378 1.146093867847737
13.8573046875 -0.39110759847178656 1.1512290291115588
13.858453125 -0.3899545703665688 1.148794171907319
13.8596015625 -0.3921840903078414 1.1530198063644836
13.86075 -0.3941469400688101 1.1518900281622555
13.8618984375 -0.39411308612272145 1.151037696516723
13.863046875 -0.3903747522273947 1.1460382106678133
13.8641953125 -0.40101016068446166 1.1404942695927822
13.86534375 -0.3990218191156853 1.1408122298107601
13.8664921875 -0.3991724501603266 1.1384469163446125
13.867640625 -0.40933429566192364 1.1350291019585454
13.8687890625 -0.40839083135604465 1.1313756982201304
13.8699375 -0.41278757022028384 1.1313171433835976
13.8710859375 -0.4191363147670225 1.1276653990289978
13.872234375 -0.42521047917166643 1.1263832686873654
13.8733828125 -0.43331671194793575 1.12577663672921
13.87453125 -0.4341166307325048 1.1265739482963497
13.8756796875 -0.43811868070308885 1.122497731071748
13.876828125 -0.4406565397317431 1.1249967136258658
13.8779765625 -0.4438369077067075 1.1208944502978522
13.879125 -0.4492280098838448 1.1179023350843411
13.8802734375 -0.4491952955586661 1.1173433031369355
13.881421875 -0.4509935841558138 1.1100337249648968
13.8825703125 -0.4594018567860919 1.1116367468199908
13.88371875 -0.4649869034826788 1.1116030369366863
13.8848671875 -0.46949888848824495 1.11033697319955
13.886015625 -0.4714624332889298 1.1120237633678336
13.8871640625 -0.4777454316973859 1.1106190566053065
13.8883125 -0.47962316128587085 1.1124000373647185
13.8894609375 -0.4764733255954024 1.1145504999544196
13.890609375 -0.4798441807983495 1.1107082843883942
13.8917578125 -0.48383331063813373 1.1103251241142589
13.89290625 -0.4817258647394409 1.1045570177144624
13.8940546875 -0.48655397263159866 1.1051899400159715
13.895203125 -0.49093439467241645 1.104556460082808
13.8963515625 -0.4932051377539537 1.1055178035350397
13.8975 -0.4974169810644592 1.1056324246578533
13.8986484375 -0.5010508387622883 1.1039391970437598
13.899796875 -0.503594506362903 1.1071215373008827
13.9009453125 -0.5052123476505143 1.104355113006038
13.90209375 -0.5010755352010652 1.1037759196269856
13.9032421875 -0.5046162270403899 1.1009498414501748
13.904390625 -0.5057876161644899 1.0950995245941408
13.9055390625 -0.5139916450915795 1.0912647660505124
13.9066875 -0.518916185542074 1.0915560767490333
13.9078359375 -0.5227138634959153 1.0880318307524492
13.908984375 -0.5262481811942104 1.0874640841205494
13.9101328125 -0.5280773949444136 1.0910453816542955
13.91128125 -0.532261511263562 1.0877533067370042
13.9124296875 -0.5328216519704841 1.0819180453491373
13.913578125 -0.5343881509875255 1.0803637643399306
13.9147265625 -0.5361184682163047 1.0796871315766934
13.915875 -0.5386742805444344 1.077120954097343
13.9170234375 -0.5446670720939113 1.0740777011518738
13.918171875 -0.5509027528102608 1.0775716589817295
13.9193203125 -0.5460463921219707 1.0719583522667202
13.92046875 -0.5537006618921821 1.0692313085289802
13.9216171875 -0.5566374659768205 1.0663669663470652
13.922765625 -0.5577763636031003 1.060142267112524
13.9239140625 -0.567227294134062 1.0573860489580968
13.9250625 -0.5736077473574235 1.0572268996884762
13.9262109375 -0.5794532405656151 1.0563069861823993
13.927359375 -0.5770775530195418 1.0589814591906117
13.9285078125 -0.5822986293357325 1.0578690689500962
13.92965625 -0.5850656751003003 1.0587959273817247
13.9308046875 -0.5795134544923647 1.0555579996795859
13.931953125 -0.5880513643723331 1.0511437706212683
13.9331015625 -0.5914031437224427 1.0499452166450711
13.93425 -0.5951076222215061 1.0445151667537742
13.9353984375 -0.6047303977175935 1.0388887464895808
13.936546875 -0.6110157668324669 1.0388001119448607
13.9376953125 -0.6179264913543867 1.03751614820721
13.93884375 -0.6251047142587001 1.0416404813128568
13.9399921875 -0.6298301494198041 1.0449406569030186
13.941140625 -0.6331915384363116 1.0482127083009343
13.9422890625 -0.6314450343163966 1.051386673351362
13.9434375 -0.6337862217673744 1.0467481005896615
13.9445859375 -0.632999835835826 1.046591291537692
13.945734375 -0.6328721139339124 1.04290764794375
13.9468828125 -0.6379104743695485 1.0390199344857856
13.94803125 -0.6438351896150629 1.0385241386557011
13.9491796875 -0.646773881252089 1.0331001042331192
13.950328125 -0.6550166650530402 1.0343655274017673
13.9514765625 -0.6593063140850224 1.0343092785020565
13.952625 -0.660266676132296 1.0336942274223415
13.9537734375 -0.66580316655448 1.0330713271681182
13.954921875 -0.6715748579398831 1.0315058096077194
13.9560703125 -0.6763948990821147 1.0324474371534689
13.95721875 -0.6784404671932149 1.0355444358488897
13.9583671875 -0.6858639038039912 1.0360128131627295
13.959515625 -0.6893084707979571 1.040343211772862
13.9606640625 -0.6877272090890867 1.0370183067968313
13.9618125 -0.688075097508664 1.0409464758936657
13.9629609375 -0.6876407141078897 1.0374045981996773
13.964109375 -0.6880945586238331 1.0335771751517702
13.9652578125 -0.6884127050195129 1.0340144229528907
13.96640625 -0.6983926272401522 1.034498237936469
13.9675546875 -0.7007986239100271 1.0360672153625001
13.968703125 -0.7006033522186745 1.0375513891651662
13.9698515625 -0.7083193223187896 1.0399800601611178
13.971 -0.7088123407275745 1.0452490002097046
13.9721484375 -0.7072040646726989 1.0439284473015775
13.973296875 -0.7052887932711009 1.048059314787702
13.9744453125 -0.7061215875984218 1.0450325057129821
13.97559375 -0.6972194245155818 1.0399532160733171
13.9767421875 -0.6981503746177464 1.0402595133274155
13.977890625 -0.7046860374618452 1.0388931776939483
13.9790390625 -0.7079084588595886 1.034226837124962
13.9801875 -0.7113294859055493 1.0355921729873352
13.9813359375 -0.7160516030237147 1.0365761774875009
13.982484375 -0.7178615681069831 1.0403648090871953
13.9836328125 -0.7182964880498334 1.0427146399538867
13.98478125 -0.7196055222755329 1.0433279065412417
13.9859296875 -0.7119207640674275 1.051118869848625
13.987078125 -0.7073014989314215 1.0456912728042658
13.9882265625 -0.7096398949613643 1.0405800312420936
13.989375 -0.7085397478682607 1.035336304718727
13.9905234375 -0.7097840781198229 1.0323370769229385
13.991671875 -0.7077722346400847 1.0271574250493476
13.9928203125 -0.7061470306653762 1.030410661151102
13.99396875 -0.7059048306301359 1.0300141342403928
13.9951171875 -0.7025039211441233 1.0219455676397475
13.996265625 -0.7071693278151666 1.0186403852774066
13.9974140625 -0.7094723109576634 1.0194255383596684
13.9985625 -0.7068730480840943 1.013024648151797
13.9997109375 -0.7130662158968628 1.0050338958464557
14.000859375 -0.7180574437019116 0.9997873340946637
14.0020078125 -0.7193317704663748 0.9984900101660745
14.00315625 -0.728230721807786 0.9951792979785616
14.0043046875 -0.7336741584747744 0.9945125563724039
14.005453125 -0.731692979609246 0.9941510177198889
14.0066015625 -0.7320738013908292 0.9935752708058189
14.00775 -0.7367070368748732 0.9928687675589956
14.0088984375 -0.7428387698607305 0.9892717881473638
14.010046875 -0.7418620744615095 0.9891431496887906
14.0111953125 -0.7430766554342212 0.986781490422556
14.01234375 -0.7448935379831144 0.9855112414285301
14.0134921875 -0.7477132214139446 0.9804271922569596
14.014640625 -0.7517689543070893 0.9728920933819912
14.0157890625 -0.7563849899328278 0.9699711740701726
14.0169375 -0.7585762125115051 0.9679914112484731
14.0180859375 -0.7617037001971676 0.9709716656311059
14.019234375 -0.7646102136116015 0.9707369746433895
14.0203828125 -0.7667018962747304 0.9713565489186058
14.02153125 -0.7675815103352981 0.9678651057475282
14.0226796875 -0.773091692254255 0.9650847075097688
14.023828125 -0.7791470503384929 0.9666498306755107
14.0249765625 -0.7809661590135943 0.9665265404801001
14.026125 -0.7814776968554977 0.9634389038142197
14.0272734375 -0.7801225800366879 0.962784375114875
14.028421875 -0.7770479644281019 0.9628526303160027
14.0295703125 -0.7774882798750314 0.9640099036756293
14.03071875 -0.7794374027427013 0.9613553114793697
14.0318671875 -0.7777692777275729 0.9572184859524933
14.033015625 -0.7783551759809572 0.9453280245868763
14.0341640625 -0.7872687558284709 0.9417697751570103
14.0353125 -0.7928419318641139 0.9436450872200934
14.0364609375 -0.7947889619189301 0.9447801613096392
14.037609375 -0.7989916915461526 0.9427616985539845
14.0387578125 -0.7943654147942021 0.9427469725745936
14.03990625 -0.7999820399518475 0.9419106961778175
14.0410546875 -0.799936047140537 0.9429726638777852
14.042203125 -0.7975678862725472 0.9356127471297199
14.0433515625 -0.793981069972225 0.932582505507264
14.0445 -0.7992566983665016 0.930434578103048
14.0456484375 -0.7888529269934692 0.9350282826649822
14.046796875 -0.8003205801028016 0.9342277292767045
14.0479453125 -0.7907891171013477 0.9404228913911449
14.04909375 -0.7889048662679596 0.9421196828892904
14.0502421875 -0.797156832937348 0.9284985211904649
14.051390625 -0.790207588195743 0.9189685125548427
14.0525390625 -0.7914503089202718 0.9212791070626118
14.0536875 -0.8080511563324166 0.9206578675976195
14.0548359375 -0.7997847348097051 0.915235414314938
14.055984375 -0.8109745754003769 0.9140628883576614
14.0571328125 -0.8017287969661377 0.9067724122834125
14.05828125 -0.8013477257245218 0.9006191359782814
14.0594296875 -0.8037414878664538 0.8955786740822935
14.060578125 -0.8152704830333268 0.9033513507710521
14.0617265625 -0.8183570746269266 0.9029230687148672
14.062875 -0.8178915865938879 0.8947091789816214
14.0640234375 -0.8209769210557247 0.9008065352714552
14.065171875 -0.818485176807072 0.9054029858802792
14.0663203125 -0.8240777422076393 0.8991963864050202
14.06746875 -0.8255903993208591 0.8938653074920607
14.0686171875 -0.8313779830822101 0.9021487300502794
14.069765625 -0.8325027879485837 0.9046617466718716
14.0709140625 -0.8290992580213686 0.9086595898199452
14.0720625 -0.8248058889339456 0.8871242215399218
14.0732109375 -0.8218210031657738 0.8960469265841101
14.074359375 -0.8322769543682679 0.8907727986071197
14.0755078125 -0.8291384468308196 0.8882162898487126
14.07665625 -0.8264460333004904 0.8883730809334772
14.0778046875 -0.837160401824658 0.8725229293763506
14.078953125 -0.8426587603392528 0.877730369156698
14.0801015625 -0.8532752990935342 0.8650803852010654
14.08125 -0.8448311164521566 0.875272195463374
14.0823984375 -0.8620739395616256 0.8770954334963899
14.083546875 -0.855263596389251 0.8733569392882163
14.0846953125 -0.8579978844059741 0.8774838645368533
14.08584375 -0.859169074694991 0.8745146984886787
14.0869921875 -0.8674600536163339 0.8763534718475712
14.088140625 -0.8698693339136149 0.8784228952024182
14.0892890625 -0.8681026322551173 0.8822039648269019
14.0904375 -0.8689133440776964 0.8741492062802457
14.0915859375 -0.8670082924582441 0.8741002733394534
14.092734375 -0.8673225943514034 0.8726959441354902
14.0938828125 -0.8761725263475804 0.8647412633410523
14.09503125 -0.884652177731377 0.8697767367518401
14.0961796875 -0.8897775047463781 0.8715854723696643
14.097328125 -0.8922928453862016 0.8712434952623156
14.0984765625 -0.8938638101872138 0.871880745674697
14.099625 -0.892936337906484 0.8713695503527639
14.1007734375 -0.8989735183254225 0.8733576376633206
14.101921875 -0.9056759046625138 0.8806892024889832
14.1030703125 -0.9090822090063674 0.8820603953089569
14.10421875 -0.9138305150011639 0.8864524087613336
14.1053671875 -0.9198774217715477 0.8846650963537274
14.106515625 -0.9219370138269212 0.8915808442900197
14.1076640625 -0.9218828805980088 0.8972298059805984
14.1088125 -0.9231635511588558 0.903674519434855
14.1099609375 -0.9254466959015942 0.9102611998250779
14.111109375 -0.9203750883216744 0.9180539886085367
14.1122578125 -0.9202549678460894 0.9266972720109146
14.11340625 -0.9215113979895275 0.9394837537499583
14.1145546875 -0.9140505991672263 0.938056173068637
14.115703125 -0.9139171510722632 0.9477196795367464
14.1168515625 -0.9098754471195838 0.9561345375324839
14.118 -0.904497354446514 0.9740056649410984
14.1191484375 -0.8962625950518361 0.9808662025563908
14.120296875 -0.8854686551646651 0.9839136646838554
14.1214453125 -0.8738792497106158 0.9908845750521016
14.12259375 -0.8716988311579662 0.992896029425861
14.1237421875 -0.8616114345765429 0.9932772754344205
14.124890625 -0.8442595930955035 1.0030085355856633
14.1260390625 -0.8275124091415023 1.0001726295746995
14.1271875 -0.8185128379204943 0.9989958896483528
14.1283359375 -0.7978630842781468 0.9878785183940826
14.129484375 -0.8084422544916541 0.9959800814354456
14.1306328125 -0.7860301205198031 0.9938853373748975
14.13178125 -0.7817882248869902 0.9866163081497995
14.1329296875 -0.7793378845357113 0.9887452050614332
14.134078125 -0.759241900997462 0.9870484932403065
14.1352265625 -0.7421402967326689 0.9752608074632853
14.136375 -0.7345748115444872 0.9844253851396925
14.1375234375 -0.7251692927193513 0.9790647657206655
14.138671875 -0.7144432496610974 0.9644781213854627
14.1398203125 -0.7121914158050886 0.9726131181660815
14.14096875 -0.6985454983791927 0.9554367988742298
14.1421171875 -0.6845066009554915 0.9517405963466083
14.143265625 -0.6741491539078063 0.9309494950274086
14.1444140625 -0.6805217687769567 0.941834558677329
14.1455625 -0.6773786009762078 0.939107482657389
14.1467109375 -0.6568830710414724 0.9278389754909623
14.147859375 -0.6460726335789215 0.9183689574337248
14.1490078125 -0.6367460584850455 0.9101759818256908
14.15015625 -0.633008999515253 0.889035237273909
14.1513046875 -0.6305411855994776 0.876703539379223
14.152453125 -0.6350621881246006 0.8663594547613761
14.1536015625 -0.6302177453214635 0.8577297466093574
14.15475 -0.6312230134597192 0.8557552929332827
14.1558984375 -0.6261109494620244 0.8524881307042576
14.157046875 -0.6113727882286861 0.8377780171207658
14.1581953125 -0.6174585244596922 0.8267668376838633
14.15934375 -0.6145521413645436 0.8273431452343571
14.1604921875 -0.6066038258386542 0.8126328916355496
14.161640625 -0.6091468750870928 0.8055661153563978
14.1627890625 -0.6041421825545552 0.7938130305235189
14.1639375 -0.6041260387218531 0.7854302880222371
14.1650859375 -0.6050163904931223 0.7692876937677318
14.166234375 -0.5967061085219669 0.7662688855066052
14.1673828125 -0.5984707865305063 0.7538658002627977
14.16853125 -0.5980904139958096 0.7433623142275468
14.1696796875 -0.5997308095797595 0.7336509795963172
14.170828125 -0.5993195795133361 0.7279729096123204
14.1719765625 -0.5960925842419307 0.7235552403078495
14.173125 -0.590910131036318 0.7165659265719939
14.1742734375 -0.5873132884638129 0.7163966365802346
14.175421875 -0.5803907299453356 0.707846722387966
14.1765703125 -0.5774674107834861 0.6931349892903839
14.17771875 -0.5756674339048071 0.6836503821092784
14.1788671875 -0.5676269878361213 0.674367824115451
14.180015625 -0.5714313714916107 0.6659570167349096
14.1811640625 -0.5657884120611087 0.6588570736768714
14.1823125 -0.5631213879626675 0.6472056155469443
14.1834609375 -0.5643788904723902 0.6369004158768051
14.184609375 -0.5611410128355858 0.62819952014335
14.1857578125 -0.560909710807254 0.6230864992534487
14.18690625 -0.5554056967232754 0.6183862433591514
14.1880546875 -0.5521496555053444 0.61047155898695
14.189203125 -0.5486381111421411 0.6027670883508172
14.1903515625 -0.5442699250332992 0.5925888860972297
14.1915 -0.5413478304283124 0.5811475870017634
14.1926484375 -0.5339816431111795 0.5754571160195044
14.193796875 -0.527002691466875 0.5652671291116803
14.1949453125 -0.5217561901923409 0.5524823722187882
14.19609375 -0.5189385823166941 0.5444447808762319
14.1972421875 -0.5191977486834171 0.5302448305709657
14.198390625 -0.5104450277502683 0.5169090985699036
14.1995390625 -0.5043604314040422 0.5001954777816573
14.2006875 -0.5047080477904202 0.49235409472155833
14.2018359375 -0.5016700413169382 0.4792592094714173
14.202984375 -0.5007204528720822 0.46051934261650795
14.2041328125 -0.498420022623001 0.45221721733246734
14.20528125 -0.4951490050183546 0.438280687743115
14.2064296875 -0.4900644272970287 0.42272150389765906
14.207578125 -0.49046019145615155 0.4114603139735722
14.2087265625 -0.4905709353932586 0.3935655308294559
14.209875 -0.4915608263259338 0.37660075854203345
14.2110234375 -0.4889059623051173 0.3536082613856252
14.212171875 -0.4896156547154103 0.3408736542720384
14.2133203125 -0.4917570440429655 0.3239540014972495
14.21446875 -0.4941027717618665 0.3022394765448677
14.2156171875 -0.5002422821406511 0.29000019278975253
14.216765625 -0.5017576027921339 0.27091302522808636
14.2179140625 -0.5071191193948894 0.24978265611118855
14.2190625 -0.5145286894959147 0.23423282252670108
14.2202109375 -0.5214785997586138 0.2188014899502151
14.221359375 -0.5333830037805782 0.19939803562254144
14.2225078125 -0.5422269885351186 0.18713189348841952
14.22365625 -0.5484522364994994 0.17392693755137156
14.2248046875 -0.5583978069628563 0.1642369666809692
14.225953125 -0.5704661316055715 0.1406905750299151
14.2271015625 -0.5809038257124834 0.13209383621105486
14.22825 -0.5933512023688622 0.12454347330608329
14.2293984375 -0.6135057239949958 0.10957731982666208
14.230546875 -0.6199513412819821 0.10344905514487912
14.2316953125 -0.6289868896395474 0.09732603429763165
14.23284375 -0.6430768617261761 0.08549581156188435
14.2339921875 -0.651770833834477 0.07409215000584646
14.235140625 -0.6651200894839255 0.06950239312769302
14.2362890625 -0.679969559395283 0.06255678472735782
14.2374375 -0.6855414591047658 0.052021580154335445
14.2385859375 -0.7006659428640212 0.054007012869454085
14.239734375 -0.7111972340665991 0.048018320400443404
14.2408828125 -0.7237404948793169 0.03852975603217801
14.24203125 -0.7269934778265241 0.0278960331057011
14.2431796875 -0.740344767807688 0.0354488882105537
14.244328125 -0.7611134511998955 0.02535723013399238
14.2454765625 -0.7685538509909858 0.026231751860949948
14.246625 -0.7713212523436297 0.023452790766118836
14.2477734375 -0.784369121645559 0.02493534722288948
14.248921875 -0.7923954157616453 0.021236387365697995
14.2500703125 -0.7935645224512372 0.024490678210840278
14.25121875 -0.8043264171720369 0.02572523261311188
14.2523671875 -0.8089078605297941 0.014389983293718656
14.253515625 -0.8074473618776368 0.01982937819568631
14.2546640625 -0.8135421655063731 0.01304198942665269
14.2558125 -0.8342625484040116 0.0010652795280557958
14.2569609375 -0.8326352838825732 0.0047919307329487015
14.258109375 -0.8417009047915567 0.010758085913637805
14.2592578125 -0.8492420520332337 -0.001445187678765003
14.26040625 -0.851136704102359 0.001400721741887767
14.2615546875 -0.8588233225848333 0.003139311034050074
14.262703125 -0.8633041686575106 -0.004450187369020475
14.2638515625 -0.8737394634755697 -0.004590847378882601
14.265 -0.8773652047594992 -0.004903303686028648
14.2661484375 -0.890731435295876 0.0008657509471081681
14.267296875 -0.8930115823063475 0.0035844094294437134
14.2684453125 -0.8948127528268016 -0.005610054886185378
14.26959375 -0.8902408167819311 -0.009135724143014778
14.2707421875 -0.9040101123943578 -0.00872326496974729
14.271890625 -0.903267172001105 -0.0017689094203356959
14.2730390625 -0.902633566356261 -0.007115286423205691
14.2741875 -0.9001156534163356 -0.009671308167226167
14.2753359375 -0.9027248578511442 -0.018224879275231642
14.276484375 -0.9120209051412685 -0.011095112284325914
14.2776328125 -0.9118808042855492 -0.01195968285688953
14.27878125 -0.9165088008054683 -0.021739113882181638
14.2799296875 -0.91697404015796 -0.01696549298837091
14.281078125 -0.9250170379838226 -0.02405121670068977
14.2822265625 -0.9330201478817051 -0.028068283394687366
14.283375 -0.9291299232345771 -0.019305933075769333
14.2845234375 -0.937639980480213 -0.020363091326521143
14.285671875 -0.9416826485375608 -0.016050297830396354
14.2868203125 -0.9420367128768523 -0.017989741380362023
14.28796875 -0.9366125112981253 -0.017148599392344255
14.2891171875 -0.9340517564467429 -0.015599020851267964
14.290265625 -0.9334757147752816 -0.026194489605983695
14.2914140625 -0.9388107859252681 -0.027921699596268224
14.2925625 -0.9351409113876701 -0.01797638225121767
14.2937109375 -0.9396007649971243 -0.026319266542777386
14.294859375 -0.9352286037765574 -0.03057967747345247
14.2960078125 -0.9271725748166602 -0.03244430011658228
14.29715625 -0.9211100034042192 -0.04405349743134379
14.2983046875 -0.9275253810462538 -0.050123867111004694
14.299453125 -0.9331402341665449 -0.05063417789027047
14.3006015625 -0.9306948101777259 -0.045384612711210526
14.30175 -0.9197101648285124 -0.055174300547984334
14.3028984375 -0.9272306316974437 -0.06048215888048425
14.304046875 -0.9273186185184361 -0.059916501064644745
14.3051953125 -0.9287093895693868 -0.06426136105205127
14.30634375 -0.9248173368625432 -0.06774162120639582
14.3074921875 -0.9297037578334891 -0.07185121422651058
14.308640625 -0.924586404567218 -0.08173774262201516
14.3097890625 -0.9245118714840526 -0.08528733313826165
14.3109375 -0.9257923319789926 -0.0944702505093894
14.3120859375 -0.9265248657647326 -0.1023282974315628
14.313234375 -0.9215561464998036 -0.10686907064183537
14.3143828125 -0.9326794978016348 -0.11163038881889681
14.31553125 -0.9317734441845816 -0.11903529121057566
14.3166796875 -0.9334453605133501 -0.13541624176895817
14.317828125 -0.9378005728899533 -0.13128948148833203
14.3189765625 -0.9415257365502375 -0.13667020189271284
14.320125 -0.9548667901054999 -0.13954169895709068
14.3212734375 -0.9527161583514713 -0.14860591120900624
14.322421875 -0.9600107174313947 -0.15345861102741942
14.3235703125 -0.9651425111436259 -0.16081339576441017
14.32471875 -0.9624257066407583 -0.15737437239899568
14.3258671875 -0.9670610099641807 -0.15875614789392833
14.327015625 -0.9613216949498283 -0.16304417872521773
14.3281640625 -0.9661857894591354 -0.16908707271149015
14.3293125 -0.9756130346702555 -0.17725941917058907
14.3304609375 -0.9800587595569152 -0.1818061684828105
14.331609375 -0.989167372698961 -0.18156761042731095
14.3327578125 -0.9920167630414531 -0.18359138251630247
14.33390625 -1.000355361890204 -0.17901550168882535
14.3350546875 -1.0069346782589315 -0.17574949246684823
14.336203125 -1.0050545245939322 -0.18001666815002343
14.3373515625 -1.0093921197443934 -0.18040952666918442
14.3385 -1.0087645068002649 -0.17981397585396958
14.3396484375 -1.0056750255251299 -0.17574406194270692
14.340796875 -1.001616742574304 -0.18293549092689182
14.3419453125 -0.9994790996208902 -0.1892632871056597
14.34309375 -1.0031602603393477 -0.192223958197053
14.3442421875 -1.0079792307587876 -0.18656984584365904
14.345390625 -1.0084290725838625 -0.18779331776845826
14.3465390625 -1.0029606066887522 -0.19028576953521104
14.3476875 -1.0035157768436997 -0.1896095804523985
14.3488359375 -0.9997596901998735 -0.18529585197410425
14.349984375 -1.0016990348578236 -0.19185296980305966
14.3511328125 -0.9981884399591607 -0.19594030643859672
14.35228125 -0.9889828977234324 -0.19893778118370997
14.3534296875 -0.9955130385723041 -0.20749989470691893
14.354578125 -0.9871895371978928 -0.21033239520985164
14.3557265625 -0.9915636922073214 -0.2212377021232404
14.356875 -0.9861153560906024 -0.2158388327312335
14.3580234375 -0.9833606050166221 -0.2270522752954376
14.359171875 -0.9869009712960518 -0.2310812459811919
14.3603203125 -0.9824126359776293 -0.23749200938727577
14.36146875 -0.9829905661627056 -0.24183296329338333
14.3626171875 -0.9874161434324804 -0.2512439666789916
14.363765625 -0.9770298704188031 -0.25316769059487576
14.3649140625 -0.9733064522063066 -0.2610888050537521
14.3660625 -0.9783446770066812 -0.26681535815853036
14.3672109375 -0.9823334523060446 -0.272704008216706
14.368359375 -0.9739061376032558 -0.2735954518299091
14.3695078125 -0.9716963587393704 -0.2905547525931376
14.37065625 -0.9722932769194912 -0.29764439376881746
14.3718046875 -0.9703752927100296 -0.3049390758879053
14.372953125 -0.9707924789761624 -0.3098790384197915
14.3741015625 -0.9746004333498983 -0.32148800091739715
14.37525 -0.9781751767214784 -0.3320432681592253
14.3763984375 -0.9780773723917856 -0.3434473434769382
14.377546875 -0.9796618658185239 -0.35889732239484023
14.3786953125 -0.9884572495898084 -0.367746494848359
14.37984375 -0.9935913196643642 -0.37284703253247065
14.3809921875 -0.9998258028137984 -0.3833092591862544
14.382140625 -1.0126401992306007 -0.39397240943589623
14.3832890625 -1.0190528517964457 -0.3846359732775132
14.3844375 -1.0258937149700662 -0.3961177274062828
14.3855859375 -1.0394155192607286 -0.3887524432608086
14.386734375 -1.0371229675305773 -0.3887364287003548
14.3878828125 -1.0300263740073008 -0.4106408177637372
14.38903125 -1.0262792269653995 -0.4078037137249526
14.3901796875 -1.0421010857121578 -0.42144183708092275
14.391328125 -1.0482933376642425 -0.4208524471014986
14.3924765625 -1.0582330480326692 -0.42881916225491373
14.393625 -1.0735955886652353 -0.435732357651147
14.3947734375 -1.0743445996043435 -0.4333934352357224
14.395921875 -1.0820045313394184 -0.44037986655579564
14.3970703125 -1.081512106240113 -0.420824310242667
14.39821875 -1.0796846504578472 -0.4236400832578576
14.3993671875 -1.0809017064008777 -0.4395208618768077
14.400515625 -1.0849316389673267 -0.44042862859926657
14.4016640625 -1.0962058127445355 -0.44846551901600606
14.4028125 -1.0983796586061412 -0.44557552138488526
14.4039609375 -1.107018641218041 -0.45123725367763584
14.405109375 -1.1232891873936932 -0.45776745438199423
14.4062578125 -1.1270545526359272 -0.4486055299499425
14.40740625 -1.1276387690265013 -0.44900556146224146
14.4085546875 -1.1381328170298413 -0.4539776496139035
14.409703125 -1.1413141618962488 -0.43656470636384004
14.4108515625 -1.1492333541280637 -0.4441071595087238
14.412 -1.1419764328063695 -0.4621860051619976
14.4131484375 -1.1460435198928365 -0.4483406830522059
14.414296875 -1.139519985330511 -0.44624371300496524
14.4154453125 -1.1522864078590103 -0.4650982133012084
14.41659375 -1.155409373746437 -0.4499448731635048
14.4177421875 -1.155287994936441 -0.4428918814304371
14.418890625 -1.1632937220140136 -0.44714909326109253
14.4200390625 -1.1749869400021957 -0.4489963732772895
14.4211875 -1.167317688608378 -0.44006285733246
14.4223359375 -1.1830708737645208 -0.43336119115263694
14.423484375 -1.176085863909097 -0.42865058993794514
14.4246328125 -1.1805355122973678 -0.42805591894172546
14.42578125 -1.1780230925101807 -0.42555411815118155
14.4269296875 -1.1726611337278445 -0.4304996324810241
14.428078125 -1.1713089413783186 -0.4179406036656057
14.4292265625 -1.160601871870111 -0.415042229654474
14.430375 -1.1623833622044293 -0.42350805427104127
14.4315234375 -1.166227314886465 -0.42135086561726154
14.432671875 -1.1572399227420997 -0.41950691547471
14.4338203125 -1.1635919978701281 -0.423815317415555
14.43496875 -1.1539486669496553 -0.4277239399030717
14.4361171875 -1.1488795833190544 -0.42644761094755396
14.437265625 -1.1548492881782566 -0.4284431877046089
14.4384140625 -1.1450985742134696 -0.4276867601868458
14.4395625 -1.1457575428248963 -0.43899074573560937
14.4407109375 -1.1483264498605152 -0.4461255606208067
14.441859375 -1.1469087181359972 -0.45281798179826527
14.4430078125 -1.1494460722453013 -0.45515062293919345
14.44415625 -1.1503586350913617 -0.4592507944223209
14.4453046875 -1.1459327000946313 -0.45738610546680314
14.446453125 -1.1505932436783093 -0.4580681266415604
14.4476015625 -1.1421881758208627 -0.4594165932206952
14.44875 -1.1379530829991444 -0.46494247714998527
14.4498984375 -1.141007490251268 -0.4627114806507673
14.451046875 -1.1305254961677833 -0.46869701785127543
14.4521953125 -1.1240385794356669 -0.4745549965019808
14.45334375 -1.1246941236145744 -0.47153430030870486
14.4544921875 -1.1272334136444817 -0.4666371952418084
14.455640625 -1.114573650203525 -0.47801080296360277
14.4567890625 -1.103184096239425 -0.5085204831086128
14.4579375 -1.120624873336617 -0.49449282255571575
14.4590859375 -1.116286334739041 -0.5056697595515699
14.460234375 -1.1128334508530295 -0.49146696779952626
14.4613828125 -1.110940052920415 -0.49621578076666234
14.46253125 -1.1180060011773434 -0.5134441767549509
14.4636796875 -1.108929319685886 -0.5005012958687007
14.464828125 -1.1208230436137923 -0.518920350514773
14.4659765625 -1.1128254478426034 -0.5109889628353953
14.467125 -1.105089484228995 -0.5329757562520872
14.4682734375 -1.1184878320186944 -0.5415234386776664
14.469421875 -1.1168256883712429 -0.5351058605641328
14.4705703125 -1.1104820779330384 -0.5528787595745135
14.47171875 -1.1267957011667011 -0.5417805115884047
14.4728671875 -1.115076834725535 -0.5556717491730331
14.474015625 -1.1209025044798775 -0.5524936115486583
14.4751640625 -1.1168789196475322 -0.5455393987519389
14.4763125 -1.1116619927248723 -0.5685286880812452
14.4774609375 -1.1183180584771266 -0.5621017602380054
14.478609375 -1.110658996531256 -0.5669415797239268
14.4797578125 -1.111016892908057 -0.5731527118585668
14.48090625 -1.1028375892868483 -0.5774920753387723
14.4820546875 -1.1023116144193033 -0.597958318713169
14.483203125 -1.095058157432016 -0.5901533490233395
14.4843515625 -1.1156601070506782 -0.5982192182223571
14.4855 -1.1127015490164678 -0.5907610101582534
14.4866484375 -1.1080494463237205 -0.6058332815860671
14.487796875 -1.1310955747580826 -0.6020676195622789
14.4889453125 -1.1259649503029683 -0.6038419241082642
14.49009375 -1.1166308034824157 -0.6105889293932524
14.4912421875 -1.1167351601659858 -0.6155729292240419
14.492390625 -1.121701811605964 -0.6135817456389924
14.4935390625 -1.1159903795149992 -0.6270705542243006
14.4946875 -1.131170571663476 -0.6248890124461084
14.4958359375 -1.1261599157137745 -0.6282158364673536
14.496984375 -1.1173160385093355 -0.6397862649964283
14.4981328125 -1.1211322009197122 -0.6398025439685618
14.49928125 -1.1272712109237824 -0.6458394166000627
14.5004296875 -1.1337014343899088 -0.6482493210860361
14.501578125 -1.1332836565919044 -0.6490954663661639
14.5027265625 -1.138172222755344 -0.644230621754453
14.503875 -1.1314224123907954 -0.6414507582989728
14.5050234375 -1.136358589752383 -0.6486859842315759
14.506171875 -1.1373719761399603 -0.6505271842135315
14.5073203125 -1.1322978769492313 -0.6605198908943068
14.50846875 -1.1291807761307515 -0.6713846887712049
14.5096171875 -1.1323510674556272 -0.6778209586044943
14.510765625 -1.1319529793592884 -0.6805024798967352
14.5119140625 -1.1319176344154158 -0.6876651367276314
14.5130625 -1.1466834129111787 -0.6938927993414856
14.5142109375 -1.1548293764618656 -0.6905975493139869
14.515359375 -1.1495476825760798 -0.6878198896900288
14.5165078125 -1.1405878671057805 -0.6787216917339675
14.51765625 -1.1329561939696309 -0.6867304688038944
14.5188046875 -1.1368859055900538 -0.6992154320020055
14.519953125 -1.1464772109509163 -0.7087863715588567
14.5211015625 -1.1544428686146908 -0.7187910220553974
14.52225 -1.1718593851223116 -0.7159954665411784
14.5233984375 -1.160471831490414 -0.7192666122343987
14.524546875 -1.177147952442127 -0.7135626846743411
14.5256953125 -1.178647101582869 -0.7125020941305642
14.52684375 -1.1811444461743479 -0.698624450911738
14.5279921875 -1.1920125462839062 -0.7093086457075721
14.529140625 -1.179501303719969 -0.7004054673318593
14.5302890625 -1.1688811273037205 -0.7124845597181555
14.5314375 -1.1728257355330014 -0.7068754754188058
14.5325859375 -1.190940803090324 -0.7094915345697791
14.533734375 -1.1827364553557311 -0.7189156528179961
14.5348828125 -1.1878709873443676 -0.7023029285354536
14.53603125 -1.1778255922296565 -0.7028875201109399
14.5371796875 -1.1917931682289682 -0.7072831661871998
14.538328125 -1.1645275331793277 -0.6833676081458608
14.5394765625 -1.1894636646686785 -0.6986953073412312
14.540625 -1.1912069632278617 -0.7093994444696605
14.5417734375 -1.2046768504330438 -0.7043016993026314
14.542921875 -1.1877012152544753 -0.710277386395594
14.5440703125 -1.1944032560114797 -0.6945963564754571
14.54521875 -1.189244025618017 -0.6850670721604389
14.5463671875 -1.1867854441561514 -0.7020882397069119
14.547515625 -1.2005893763462323 -0.6934203455586988
14.5486640625 -1.1942938727731907 -0.6642879453230776
14.5498125 -1.1743245049303819 -0.6673334160698758
14.5509609375 -1.188092547413999 -0.6756971589978716
14.552109375 -1.1883785737362238 -0.6698692537832711
14.5532578125 -1.1857807126090694 -0.6718311233657503
14.55440625 -1.1552981604246442 -0.6596924478813149
14.5555546875 -1.1700646500386924 -0.688902176418958
14.556703125 -1.163591579244713 -0.682114552932487
14.5578515625 -1.1646441684531939 -0.6773923298229488
14.559 -1.1746053841775195 -0.672413690944707
14.5601484375 -1.1774819920726607 -0.6584185566323499
14.561296875 -1.1471748083754423 -0.6633653917387821
14.5624453125 -1.1400599060635437 -0.647309388829728
14.56359375 -1.1339196434629963 -0.6589695024445302
14.5647421875 -1.117995988025838 -0.6718888804438186
14.565890625 -1.1083846867966605 -0.6731841400735403
14.5670390625 -1.1083911412934693 -0.6849364695305304
14.5681875 -1.1143496016511372 -0.6821248653551182
14.5693359375 -1.09494879399727 -0.694674083535064
14.570484375 -1.102825350819765 -0.6952181214950361
14.5716328125 -1.1019995703234708 -0.6860967944299947
14.57278125 -1.098035076829908 -0.6985168299216489
14.5739296875 -1.0961879273076853 -0.6966668119274595
14.575078125 -1.096645712562386 -0.6956642365230461
14.5762265625 -1.080375997175179 -0.7097323885790372
14.577375 -1.0798119997465983 -0.7109035104036057
14.5785234375 -1.0833311492830808 -0.7153072695358361
14.579671875 -1.0799936514229247 -0.717514182776958
14.5808203125 -1.0758415764938962 -0.7206080333489907
14.58196875 -1.0865788312618787 -0.7192359175075579
14.5831171875 -1.065281256857705 -0.7163484867650236
14.584265625 -1.0678396466396467 -0.7142954514363793
14.5854140625 -1.0566631843165522 -0.7186269255923927
14.5865625 -1.0516741036434663 -0.7171310132044704
14.5877109375 -1.0378472410231159 -0.7277247328088198
14.588859375 -1.0343212101831245 -0.7345957774443717
14.5900078125 -1.0319084150704918 -0.7347552073167986
14.59115625 -1.028465300805184 -0.7455952909894016
14.5923046875 -1.0220989497456343 -0.7486626916808068
14.593453125 -1.0276424312217918 -0.7595668506628596
14.5946015625 -1.0156407149082303 -0.756156024369556
14.59575 -1.0251444972226966 -0.7638036996200132
14.5968984375 -1.013300584021206 -0.7707574320785253
14.598046875 -1.0112047230487813 -0.778889110427947
14.5991953125 -1.0106611992117835 -0.7844277301267286
14.60034375 -1.0172623299371648 -0.7944091950714255
14.6014921875 -1.026107400791207 -0.7816373308331805
14.602640625 -1.013102710978374 -0.7926290520097528
14.6037890625 -1.017493036670087 -0.7890072781224604
14.6049375 -1.0121857329987913 -0.7982585519574712
14.6060859375 -1.0186059538703973 -0.7984655121286495
14.607234375 -1.0187718531329946 -0.802558080166264
14.6083828125 -1.0171133307825033 -0.820936239210869
14.60953125 -1.003441570546416 -0.8081919137417066
14.6106796875 -1.0086134125308783 -0.8019132506098035
14.611828125 -0.995763494592362 -0.820280697648469
14.6129765625 -1.0218847895591305 -0.820299439692369
14.614125 -0.9921963861851469 -0.8132327984623046
14.6152734375 -1.0028977902698064 -0.8150755252490872
14.616421875 -1.0073945871887613 -0.8219978480265389
14.6175703125 -0.9875320561586693 -0.8219775372744318
14.61871875 -0.9946141858706576 -0.8191108356543395
14.6198671875 -0.9928460620382119 -0.8172156105768678
14.621015625 -0.9834029138689087 -0.8266959568421882
14.6221640625 -0.9715555082736562 -0.8267504637860237
14.6233125 -0.9780920722934244 -0.8427690809169952
14.6244609375 -0.9785958861497333 -0.8329484361183273
14.625609375 -0.9524534428818612 -0.8572804056023636
14.6267578125 -0.9779600962911495 -0.8534143332528039
14.62790625 -0.9785539826710213 -0.8474723259514523
14.6290546875 -0.9606834888397616 -0.8601517606101419
14.630203125 -0.9569937576673723 -0.8551724981930625
14.6313515625 -0.9502205027204206 -0.8566599061001983
14.6325 -0.9388815156196184 -0.8774113336282239
14.6336484375 -0.9457519942926033 -0.8840685920644146
14.634796875 -0.952285136259678 -0.8889388158757263
14.6359453125 -0.9700945764179891 -0.888962261124797
14.63709375 -0.9480469066623602 -0.9039285845095172
14.6382421875 -0.9700099481560105 -0.8947861026300357
14.639390625 -0.9715970643317896 -0.8843036517491255
14.6405390625 -0.9527531033744677 -0.8944394468264014
14.6416875 -0.9665618222852737 -0.8781506135786963
14.6428359375 -0.941573844600702 -0.8856309151534644
14.643984375 -0.9376363589589634 -0.9084674202059939
14.6451328125 -0.9475658219128261 -0.9101869903551696
14.64628125 -0.9614394719089175 -0.898929321604143
14.6474296875 -0.9509460048175435 -0.9224533730306423
14.648578125 -0.9404772240073552 -0.9187252894250331
14.6497265625 -0.9486037500450302 -0.9188668515409208
14.650875 -0.9488635766834498 -0.9046224967146343
14.6520234375 -0.9452123320179755 -0.9040008189871732
14.653171875 -0.9318711394289362 -0.9060407306609238
14.6543203125 -0.9360186526083507 -0.9060820054102141
14.65546875 -0.928505947614638 -0.9058786425480883
14.6566171875 -0.9243567894277037 -0.8898641273084921
14.657765625 -0.9174761332304193 -0.9076834816923142
14.6589140625 -0.905756749981311 -0.9280625501594457
14.6600625 -0.9050225220538848 -0.9390785958788296
14.6612109375 -0.9156313000229386 -0.9237619545997345
14.662359375 -0.8975498824074634 -0.9388288381527407
14.6635078125 -0.8864904723516185 -0.953778219634657
14.66465625 -0.9189848693534343 -0.9452785728450552
14.6658046875 -0.914669935999798 -0.9562152754519972
14.666953125 -0.9200519460413407 -0.9622452327178275
14.6681015625 -0.9147508220660939 -0.927511496283174
14.66925 -0.9196000022687514 -0.933232009077939
14.6703984375 -0.9062734967639409 -0.9202932363049152
14.671546875 -0.8860532402675383 -0.9376839337952727
14.6726953125 -0.8886306913317505 -0.9333622277932907
14.67384375 -0.8844028440840849 -0.9555932792641018
14.6749921875 -0.8769319396104639 -0.9611186246242381
14.676140625 -0.868705359689489 -0.9646595236816327
14.6772890625 -0.8604774056708739 -0.9682848246775739
14.6784375 -0.8761086761778372 -0.9875172437587256
14.6795859375 -0.8660649637250184 -0.9905064338840233
14.680734375 -0.8618243525581747 -0.9777465116566456
14.6818828125 -0.8810777272278643 -1.0034570202072959
14.68303125 -0.8818704908887252 -0.9843090520798525
14.6841796875 -0.885562281023021 -0.9785250619561652
14.685328125 -0.8921493480690084 -0.9873095596719565
14.6864765625 -0.8753717828552102 -0.9790365383653167
14.687625 -0.8843581852983753 -1.0060362001441674
14.6887734375 -0.8673591076563363 -0.9903262317111348
14.689921875 -0.8669980822055731 -1.0076465193735622
14.6910703125 -0.8584526817606943 -1.0233384631359845
14.69221875 -0.8622407089652954 -1.0118112480398362
14.6933671875 -0.8654428678727839 -1.0114358976822828
14.694515625 -0.8615685307205747 -1.010352740079321
14.6956640625 -0.8585210031281585 -1.0103987634284115
14.6968125 -0.8407700049962535 -1.0075765768911487
14.6979609375 -0.8607320656163047 -1.010987446378292
14.699109375 -0.8554761138685212 -1.0107939426517594
14.7002578125 -0.8304895673793178 -1.023624494249543
14.70140625 -0.8328708628595801 -1.0255002937182267
14.7025546875 -0.826443042439187 -1.037653472143122
14.703703125 -0.8340508576974028 -1.0479453350690475
14.7048515625 -0.829891656262815 -1.0670414860498285
14.706 -0.8535603562686004 -1.0586679813759559
14.7071484375 -0.8673925231662423 -1.0412096817592178
14.708296875 -0.8431533380623237 -1.0565044895376343
14.7094453125 -0.8626053227181698 -1.0414411981226204
14.71059375 -0.8613185452544638 -1.0314063344355497
14.7117421875 -0.8612662068609833 -1.0361119544707584
14.712890625 -0.8533971621793055 -1.0275487837621533
14.7140390625 -0.8644881687033876 -1.0288068190736344
14.7151875 -0.8437868419654412 -1.0425911342711927
14.7163359375 -0.8360915473303457 -1.05291415120052
14.717484375 -0.8597577202028965 -1.026491271300151
14.7186328125 -0.8675998650766995 -1.025787561484968
14.71978125 -0.8442840844772828 -1.028150889998133
14.7209296875 -0.8362123163709697 -1.0221300080000537
14.722078125 -0.8179908209795157 -1.0099410834456837
14.7232265625 -0.8241470320281526 -1.0233107407244062
14.724375 -0.8200015764068431 -1.0171705458423435
14.7255234375 -0.8168243397479489 -1.032701327643861
14.726671875 -0.8250123916346526 -1.0247286438725034
14.7278203125 -0.804444847390839 -1.0234950272035408
14.72896875 -0.798604596747551 -1.0142658674756393
14.7301171875 -0.8073014283801261 -1.0219086128810024
14.731265625 -0.7926757979885848 -1.024658871405408
14.7324140625 -0.7891599480116551 -1.0195953114250413
14.7335625 -0.7933669538165429 -1.020078821951731
14.7347109375 -0.7893497322861744 -1.025667384641506
14.735859375 -0.7909391762398706 -1.0176049698979228
14.7370078125 -0.7800664293311135 -1.0160770893283009
14.73815625 -0.7829345183467828 -1.017291467284984
14.7393046875 -0.7720331215503099 -1.011908764171976
14.740453125 -0.7575818073654949 -0.997828889257103
14.7416015625 -0.7591773729058131 -1.003505948953964
14.74275 -0.7530173463742831 -1.0143750260705677
14.7438984375 -0.7394802013830801 -1.0118045497114523
14.745046875 -0.7239813000967459 -1.0057151144655267
14.7461953125 -0.7211862825535447 -0.9997389777719069
14.74734375 -0.7077712632943972 -1.0109860245213425
14.7484921875 -0.7076628639762257 -1.018328436457129
14.749640625 -0.6891790084599727 -1.0180734337756248
14.7507890625 -0.6788184654556852 -1.0259034056174994
14.7519375 -0.6757965507812702 -1.0383566134110256
14.7530859375 -0.6699501382279355 -1.0458522553545406
14.754234375 -0.6555775861425586 -1.0413585162956762
14.7553828125 -0.6590579143729631 -1.047545762236352
14.75653125 -0.6600736649449115 -1.0599602979282992
14.7576796875 -0.6520525452429075 -1.0630388364266201
14.758828125 -0.6523718078729465 -1.0660668026224185
14.7599765625 -0.6490584222445748 -1.0611580680977408
14.761125 -0.6426804985671433 -1.0620672266547317
14.7622734375 -0.641725644807676 -1.0673499064500778
14.763421875 -0.6311446104737879 -1.060648812641226
14.7645703125 -0.6146488751571404 -1.0628240052047695
14.76571875 -0.6071634103104515 -1.0821236866035737
14.7668671875 -0.6001707517839437 -1.0874058514504106
14.768015625 -0.5989840844435679 -1.0981141457338204
14.7691640625 -0.5992177932988092 -1.1100887969275668
14.7703125 -0.6164521450940779 -1.1171529434605483
14.7714609375 -0.6144128747390338 -1.113039924432714
14.772609375 -0.597220922644213 -1.1112304378711082
14.7737578125 -0.5970520795237648 -1.1070918506479546
14.77490625 -0.5923889082823319 -1.1133973227646246
14.7760546875 -0.5985781753425975 -1.1222133977080384
14.777203125 -0.5988709516058358 -1.1244387584569275
14.7783515625 -0.5890347953045365 -1.1184445134926073
14.7795 -0.5913554922681995 -1.1269281797218638
14.7806484375 -0.5827421118036367 -1.126263313893607
14.781796875 -0.5741705778208321 -1.1361861373709954
14.7829453125 -0.5809334092123615 -1.1465380502421103
14.78409375 -0.590099517116776 -1.1530936370489504
14.7852421875 -0.5804810106201701 -1.1399893447354261
14.786390625 -0.5690437427768522 -1.1305827092328165
14.7875390625 -0.5645821366201536 -1.142221839706032
14.7886875 -0.570985415663239 -1.146045507566672
14.7898359375 -0.5466105126254353 -1.1482788917596587
14.790984375 -0.5506668042391136 -1.1528185387625667
14.7921328125 -0.5440904101576092 -1.148467551945962
14.79328125 -0.5409199609756388 -1.149633844376387
14.7944296875 -0.542083016668998 -1.1423591376160611
14.795578125 -0.5353846442617863 -1.1548442576543267
14.7967265625 -0.5291283440143125 -1.1562243883845138
14.797875 -0.5248569692336851 -1.1530827735700517
14.7990234375 -0.5143316057626346 -1.182092802628052
14.800171875 -0.49669801585204854 -1.1662111073567822
14.8013203125 -0.5169674157616484 -1.1683801878602709
14.80246875 -0.5090343206728544 -1.154045831089447
14.8036171875 -0.5075882366531507 -1.1580304085036026
14.804765625 -0.5032043934013408 -1.1766251736827968
14.8059140625 -0.49248914380652276 -1.1696683493106317
14.8070625 -0.47529968906250086 -1.186138337566479
14.8082109375 -0.468129586946299 -1.1854104311147702
14.809359375 -0.47189500178793153 -1.1816099909458173
14.8105078125 -0.4760136155808403 -1.1878413556028016
14.81165625 -0.4750847519715877 -1.191160132328565
14.8128046875 -0.46203225181882523 -1.172633188722394
14.813953125 -0.44816004586367264 -1.1806492393346724
14.8151015625 -0.43783452153222835 -1.1924146716496682
14.81625 -0.43793452769791075 -1.1886974460148751
14.8173984375 -0.4279595844329921 -1.208127188981728
14.818546875 -0.42385669661567293 -1.203399385319922
14.8196953125 -0.41611762264086405 -1.1934915065563456
14.82084375 -0.41887318926529227 -1.1950756741927804
14.8219921875 -0.40696267901579997 -1.2089530039723968
14.823140625 -0.40547724564236554 -1.2161273975708804
14.8242890625 -0.3972334511022253 -1.1971853534196564
14.8254375 -0.3748855845076954 -1.2134746273312915
14.8265859375 -0.3632341151915621 -1.212976298470057
14.827734375 -0.36932276818241794 -1.203569556237638
14.8288828125 -0.3429571158137745 -1.2154359664771142
14.83003125 -0.3456908100444578 -1.2228215567764191
14.8311796875 -0.3388832425471583 -1.240158487238544
14.832328125 -0.32644964414184474 -1.2500703438895422
14.8334765625 -0.323085271300512 -1.2712986931866785
14.834625 -0.32658519459184365 -1.2748272911091278
14.8357734375 -0.32960413261780075 -1.2772720334069427
14.836921875 -0.3233960030217641 -1.2810511750488216
14.8380703125 -0.3165693675598914 -1.2717248537825419
14.83921875 -0.30958121523659843 -1.2703305709018158
14.8403671875 -0.29105135648939195 -1.2819723024536285
14.841515625 -0.2832399406778068 -1.285875801695163
14.8426640625 -0.2705537847568976 -1.3003418864462448
14.8438125 -0.24530341484720442 -1.3329509773799897
14.8449609375 -0.2327493403237021 -1.3374234363429036
14.846109375 -0.22992973694109198 -1.355070972006399
14.8472578125 -0.2619658293198518 -1.3633195291745626
14.84840625 -0.2546617017813977 -1.3626386518072318
14.8495546875 -0.24889007621908255 -1.3809519155819063
14.850703125 -0.27390559240904455 -1.3921457800029984
14.8518515625 -0.2594021076844155 -1.38953374459902
14.853 -0.2481456422148548 -1.387838740321901
14.8541484375 -0.212894073426658 -1.4062172292427069
14.855296875 -0.24031565663736465 -1.4312047109907224
14.8564453125 -0.22550997936212158 -1.4377802631262862
14.85759375 -0.2412768372635078 -1.4227999859879354
14.8587421875 -0.2705647372964439 -1.464114288282674
14.859890625 -0.25904057930457447 -1.4800565738379305
14.8610390625 -0.26541820886806966 -1.4910893685692437
14.8621875 -0.2647719001429214 -1.4774643094777937
14.8633359375 -0.2857770059017105 -1.48795395350352
14.864484375 -0.2774949187235439 -1.5156054273706467
14.8656328125 -0.25761017159449306 -1.540388035298096
14.86678125 -0.3114518623175905 -1.5404811244227798
14.8679296875 -0.2852214670579939 -1.5329296543916267
14.869078125 -0.2900325957114831 -1.5414428416524042
14.8702265625 -0.3020516850026248 -1.5300446911857477
14.871375 -0.27683011770447463 -1.5330699978670719
14.8725234375 -0.319664772918444 -1.5502416508544503
14.873671875 -0.3079652724234536 -1.5538489914974947
14.8748203125 -0.31393427132259266 -1.5408259994455942
14.87596875 -0.3333789556225254 -1.551788293754971
14.8771171875 -0.35458800386463496 -1.5496098441294235
14.878265625 -0.34167502780872866 -1.5190828224489872
14.8794140625 -0.3469943025450821 -1.5754688469333626
14.8805625 -0.35758840155742533 -1.5351507254260524
14.8817109375 -0.35131817508495666 -1.5034405673280913
14.882859375 -0.3637515935672858 -1.5286727221090892
14.8840078125 -0.3862052192023253 -1.530452797026274
14.88515625 -0.32075332299881215 -1.517276187878869
14.8863046875 -0.3392719327481528 -1.539656644916344
14.887453125 -0.35795971318041675 -1.5381099768976336
14.8886015625 -0.37343448586679145 -1.5622980502518307
14.88975 -0.3639323043362841 -1.5366252211543319
14.8908984375 -0.38993459276596265 -1.5620741855809883
14.892046875 -0.38144301171252565 -1.5511941549369044
14.8931953125 -0.3919367854365754 -1.550627950794776
14.89434375 -0.4237606404816996 -1.5459136440392687
14.8954921875 -0.4220211961951612 -1.5526958428763153
14.896640625 -0.4333333880291612 -1.540959072681554
14.8977890625 -0.4613013308230719 -1.5295669672796546
14.8989375 -0.46257761662816765 -1.5087207006828889
14.9000859375 -0.4639888432458771 -1.4721266874349812
14.901234375 -0.4597427158472229 -1.4512922994938955
14.9023828125 -0.45088521372469526 -1.4336597766052552
14.90353125 -0.4313795420575667 -1.427743044908419
14.9046796875 -0.4058968202844733 -1.414944061318805
14.905828125 -0.3973443971345137 -1.4174790437521192
14.9069765625 -0.39221180326352856 -1.420263312391667
14.908125 -0.3836046532460017 -1.411542362909121
14.9092734375 -0.3704059296838499 -1.4107878615127365
14.910421875 -0.36942297303172456 -1.4177832271730622
14.9115703125 -0.3723590176500759 -1.3962912058492287
14.91271875 -0.36141451229149346 -1.3915402962973713
14.9138671875 -0.34678976368477854 -1.3849505359028595
14.915015625 -0.3231521033959649 -1.3888880952609872
14.9161640625 -0.3237442877733045 -1.3865436686776895
14.9173125 -0.319379675428205 -1.3963508834750318
14.9184609375 -0.30429083738476403 -1.3882830088663922
14.919609375 -0.2960202809878909 -1.394354322522352
14.9207578125 -0.2811518007928147 -1.4042350364205325
14.92190625 -0.2745323255882841 -1.408450197516069
14.9230546875 -0.276245500142648 -1.4071594146486768
14.924203125 -0.2665926040494612 -1.4138230944052945
14.9253515625 -0.25756645724406063 -1.4227232739266202
14.9265 -0.2425943590973459 -1.4166374325849398
14.9276484375 -0.23153211981587063 -1.4127203488774902
14.928796875 -0.2353370804573274 -1.4308019299701864
14.9299453125 -0.22254076354168284 -1.4364366862643871
14.93109375 -0.22515033677564938 -1.4432903646759219
14.9322421875 -0.23832391247164952 -1.4545049253157831
14.933390625 -0.2316375272460227 -1.4465154382585812
14.9345390625 -0.22645838710825816 -1.4511529443135736
14.9356875 -0.21553181222529638 -1.4328593574217394
14.9368359375 -0.19757067001335038 -1.4434963908943261
14.937984375 -0.17469857309531056 -1.4593663607977172
14.9391328125 -0.17449071186345855 -1.4711106323852539
14.94028125 -0.1630169105101204 -1.5014165394571672
14.9414296875 -0.15840392009464555 -1.5112832754331027
14.942578125 -0.17360541160970294 -1.5254134647106812
14.9437265625 -0.19098793191100738 -1.5259361579851438
14.944875 -0.20971608418594861 -1.5540122765213633
14.9460234375 -0.21007926470080884 -1.5566554829071597
14.947171875 -0.22466630800316467 -1.5522858826442332
14.9483203125 -0.22650675832943604 -1.5428976873230784
14.94946875 -0.23933560780185686 -1.5180274911129432
14.9506171875 -0.22859712227923634 -1.5101902534162046
14.951765625 -0.22904811573440276 -1.5289548545669622
14.9529140625 -0.22835515191732836 -1.534725692547817
14.9540625 -0.2339152604334378 -1.5508104993610305
14.9552109375 -0.24592060977320773 -1.5535863935854641
14.956359375 -0.2639677327749775 -1.5363461975425161
14.9575078125 -0.24884645460357702 -1.5181440849464396
14.95865625 -0.24254152142708763 -1.5200546202563663
14.9598046875 -0.2486809207578201 -1.5294671948454188
14.960953125 -0.2405780528606966 -1.5201609870994102
14.9621015625 -0.24166982419031063 -1.508299259949189
14.96325 -0.24463835878823398 -1.5120065115808006
14.9643984375 -0.23054419923099534 -1.508154345936743
14.965546875 -0.23311305223172973 -1.5152887395850807
14.9666953125 -0.22680648355570054 -1.5193616236840601
14.96784375 -0.2507589488216065 -1.527946304628923
14.9689921875 -0.2478512854556592 -1.5188078138767165
14.970140625 -0.2600893947118034 -1.5077131450083303
14.9712890625 -0.24558404917643795 -1.4910777277760512
14.9724375 -0.22129666681282656 -1.4851403599574893
14.9735859375 -0.2056221860997307 -1.4888674740404708
14.974734375 -0.19541388910248886 -1.5000563657258592
14.9758828125 -0.19954126645531284 -1.5290321009687746
14.97703125 -0.20684531276153478 -1.5388052867207866
14.9781796875 -0.2224447133436666 -1.5468890109344478
14.979328125 -0.23790450882181158 -1.5530288342870702
14.9804765625 -0.24039786699130672 -1.5436695244238439
14.981625 -0.26162497358367043 -1.537790237525932
14.9827734375 -0.2642994527004623 -1.5242154735306999
14.983921875 -0.25256485046253896 -1.5182555494715195
14.9850703125 -0.25203483625106976 -1.51102840123934
14.98621875 -0.2599136243465382 -1.5110390937523048
14.9873671875 -0.2621234655262371 -1.5171933078428625
14.988515625 -0.2511628066887981 -1.5154112342165713
14.9896640625 -0.276596941350361 -1.5079321024278067
14.9908125 -0.2835461894843812 -1.5100102218009963
14.9919609375 -0.2979867733904282 -1.495180590585232
14.993109375 -0.3087136213710225 -1.4838002348064807
14.9942578125 -0.2998307552457949 -1.4609329871290284
14.99540625 -0.2845141656945435 -1.440465094918236
14.9965546875 -0.27402546772536074 -1.4303960704860912
14.997703125 -0.28354496961453973 -1.442120867086837
14.9988515625 -0.26683656015866236 -1.4107791155569038
15.0 -0.2597271557737386 -1.4049973240781612
