! Created with skrf 1.8.0 (http://scikit-rf.org).
# GHz S RI R 50.0 
!freq ReS11 ImS11
0.3 -0.9751289894654961 -0.01635040482975464
0.3011484375 -0.9749269571411436 -0.015518688524402413
0.302296875 -0.9730109521508545 -0.014568004599826434
0.3034453125 -0.9751318298190799 -0.01282354627414789
0.30459375 -0.9743245673108953 -0.012365126862087461
0.3057421875 -0.9758521180511813 -0.012104250047869247
0.306890625 -0.9753930950594374 -0.012124979113748602
0.3080390625 -0.9781917478152734 -0.011915179162031664
0.3091875 -0.9766234197496089 -0.015194337366204791
0.3103359375 -0.9787263604627707 -0.013409743952257802
0.311484375 -0.9779155407509774 -0.013882158843745968
0.3126328125 -0.9786570434313493 -0.013810123581248418
0.31378125 -0.9792828022156124 -0.012852451030492179
0.3149296875 -0.9765340577335803 -0.013541668607863322
0.316078125 -0.9790946413515011 -0.013667989993770002
0.3172265625 -0.9764607855622767 -0.014526185112808815
0.318375 -0.9792374396998814 -0.01259175912347002
0.3195234375 -0.9768282811748883 -0.01441467345427122
0.320671875 -0.9794540812995861 -0.014328270398890647
0.3218203125 -0.9779374154188565 -0.015145469086844637
0.32296875 -0.9777187249683286 -0.015452723678802238
0.3241171875 -0.9781003692042887 -0.015336340774673066
0.325265625 -0.979965339645064 -0.012177505655175822
0.3264140625 -0.9812805829029312 -0.011854430343731778
0.3275625 -0.9792787626762629 -0.015040333338215223
0.3287109375 -0.9787846096651613 -0.01558920335469241
0.329859375 -0.9773356789065946 -0.01620939500400484
0.3310078125 -0.9779211937915574 -0.014850179654719076
0.33215625 -0.9762393361474604 -0.01349602596969926
0.3333046875 -0.9786790453749883 -0.017508887445648352
0.334453125 -0.9793868471882843 -0.01627650336078032
0.3356015625 -0.9764395443274306 -0.0163714346984469
0.33675 -0.9771874265573105 -0.018482623187767222
0.3378984375 -0.9753208567403033 -0.017007046734459103
0.339046875 -0.977676337220861 -0.015831123205832687
0.3401953125 -0.9768558174304145 -0.01673302068559962
0.34134375 -0.9789306819628143 -0.017866799383699894
0.3424921875 -0.9754534391228342 -0.01448216271318431
0.343640625 -0.978714328114666 -0.01614762716353474
0.3447890625 -0.9769851506909606 -0.017403286517841787
0.3459375 -0.9785920124319594 -0.020722470715602515
0.3470859375 -0.977786429447921 -0.01850604472828804
0.348234375 -0.9792904377491424 -0.017232793006735136
0.3493828125 -0.9764830737083657 -0.01805562961330387
0.35053125 -0.9805205778108306 -0.01889919328606804
0.3516796875 -0.9785326521377727 -0.01676717636305275
0.352828125 -0.97648747243743 -0.01743703155643661
0.3539765625 -0.9792810915711249 -0.016676690849752596
0.355125 -0.9786980118451263 -0.019965983806749132
0.3562734375 -0.9799065002579956 -0.01944554624127043
0.357421875 -0.9784186161158895 -0.017724953660150422
0.3585703125 -0.9797596796147006 -0.015135542904065158
0.35971875 -0.9782959255345421 -0.01747656603323605
0.3608671875 -0.9785729243352634 -0.015969007962216175
0.362015625 -0.9790080309735573 -0.016826582601640383
0.3631640625 -0.9777418742116335 -0.016873532377641165
0.3643125 -0.9793448786222829 -0.015806700450592848
0.3654609375 -0.977040279750583 -0.015752109143627124
0.366609375 -0.979442400288886 -0.015561788753805983
0.3677578125 -0.9785584334607762 -0.015842131041194585
0.36890625 -0.9796937790088881 -0.015534750700448297
0.3700546875 -0.9772973464414518 -0.016026662807040792
0.371203125 -0.9802296079347654 -0.014556441401794407
0.3723515625 -0.9773802841320555 -0.016520118580298226
0.3735 -0.9795557160196302 -0.014906427156277713
0.3746484375 -0.9774182758542853 -0.015919586657191176
0.375796875 -0.9778722979734077 -0.014933436933943278
0.3769453125 -0.9780568487702405 -0.01464062850064951
0.37809375 -0.9785237977292717 -0.01415327715617165
0.3792421875 -0.9790073243080255 -0.01406293128596825
0.380390625 -0.9781902183628517 -0.013668855735907759
0.3815390625 -0.9799545648288274 -0.012538984027967826
0.3826875 -0.9789109514302405 -0.012978339124548821
0.3838359375 -0.981251420466698 -0.012280281953768735
0.384984375 -0.9802476501935345 -0.01393140641875934
0.3861328125 -0.9809550915607279 -0.0136569657380185
0.38728125 -0.980566301523575 -0.0138591185148631
0.3884296875 -0.980162367516259 -0.013793188993270616
0.389578125 -0.9807840181527677 -0.013922648957108763
0.3907265625 -0.9793123599942253 -0.013569696194898895
0.391875 -0.9805139318393769 -0.012672331339764198
0.3930234375 -0.9792477206078014 -0.013698746513561066
0.394171875 -0.9809119994943611 -0.013347711691807485
0.3953203125 -0.9800540546442729 -0.01360872440442229
0.39646875 -0.9814387877717587 -0.012535058170950658
0.3976171875 -0.9800064665005336 -0.013454510246917933
0.398765625 -0.980737321052635 -0.012571262516243603
0.3999140625 -0.9814694330560463 -0.012501241494164483
0.4010625 -0.9808912015811677 -0.012878460615229237
0.4022109375 -0.9820776761619984 -0.012467412544683865
0.403359375 -0.9807893253592279 -0.01326263773796385
0.4045078125 -0.9820513131841808 -0.013644064260983121
0.40565625 -0.9801810975782629 -0.014530529399633806
0.4068046875 -0.9814986560042098 -0.013551321535552177
0.407953125 -0.9799031555301239 -0.014267665832250254
0.4091015625 -0.981557099595082 -0.012943121676023128
0.41025 -0.979880861315366 -0.013941588564057972
0.4113984375 -0.9803779890271376 -0.013672225806861782
0.412546875 -0.9807727895739391 -0.014059111591616102
0.4136953125 -0.9802391243238278 -0.014773771816704119
0.41484375 -0.981119690531107 -0.013887792247082531
0.4159921875 -0.979974932338725 -0.01388583172886422
0.417140625 -0.9807572112717868 -0.01304170442429406
0.4182890625 -0.9794021501109754 -0.014222261437557199
0.4194375 -0.9817236015214897 -0.01352582890512602
0.4205859375 -0.9799609182174323 -0.013797114799358273
0.421734375 -0.9811414352787238 -0.013110201460055954
0.4228828125 -0.9805308940843066 -0.014514015892836296
0.42403125 -0.9807937732405032 -0.013482594287304944
0.4251796875 -0.9809007397344798 -0.01391869379048044
0.426328125 -0.9806814126174611 -0.013157211323395201
0.4274765625 -0.981528693009327 -0.013023496044607008
0.428625 -0.9788526441981731 -0.01418427791607657
0.4297734375 -0.9823018964032761 -0.013202183403192791
0.430921875 -0.9801024423816063 -0.013513790448158203
0.4320703125 -0.9806883068191354 -0.01321657627150774
0.43321875 -0.9804865758440277 -0.013677510387573921
0.4343671875 -0.9807816658910063 -0.0138340018508602
0.435515625 -0.981125223639397 -0.01387082322587846
0.4366640625 -0.9810556180988101 -0.012959096439630391
0.4378125 -0.9807121328730419 -0.013134514953197063
0.4389609375 -0.9809480654530623 -0.013254476453829711
0.440109375 -0.9823933397578919 -0.011909872599405624
0.4412578125 -0.9801779349573261 -0.013370244959965527
0.44240625 -0.9810608039852772 -0.012770500057115663
0.4435546875 -0.9794588404644302 -0.013921942204043358
0.444703125 -0.981889509732359 -0.013103116006210003
0.4458515625 -0.9804508959518462 -0.012878917772371379
0.447 -0.9819134024755405 -0.011783858726010288
0.4481484375 -0.9797510945451199 -0.014923893740545813
0.449296875 -0.9810521187516397 -0.012436182207394564
0.4504453125 -0.9826657180458747 -0.01298390898941465
0.45159375 -0.9814048525722382 -0.013230491433184222
0.4527421875 -0.982452823535999 -0.013006893210919468
0.453890625 -0.9816494582536419 -0.012955402144298411
0.4550390625 -0.9826688379536501 -0.013418957763163375
0.4561875 -0.9802010205240584 -0.014252796155115044
0.4573359375 -0.981988226316873 -0.012913415816560248
0.458484375 -0.9806513806758324 -0.014142919039763002
0.4596328125 -0.981728772748131 -0.015227245126894884
0.46078125 -0.9820617118102607 -0.014525784988777879
0.4619296875 -0.9811812206284629 -0.013802126000787729
0.463078125 -0.9816855598877587 -0.013522244767955993
0.4642265625 -0.9813244970701265 -0.014428026507182445
0.465375 -0.9821704670475122 -0.014311459386104008
0.4665234375 -0.9817753791229646 -0.01453338618243688
0.467671875 -0.9826627404541809 -0.013273639865826914
0.4688203125 -0.9807755375216787 -0.013606149499448494
0.46996875 -0.9838454453613331 -0.013914875433803764
0.4711171875 -0.9814123256062973 -0.014053615160293464
0.472265625 -0.9815937115404629 -0.01378272296177896
0.4734140625 -0.9820008766512756 -0.014576518271355643
0.4745625 -0.9818012672962113 -0.014263847413090447
0.4757109375 -0.9818916838552809 -0.015184160300991956
0.476859375 -0.9815592062885219 -0.01529289979012119
0.4780078125 -0.984040005199621 -0.014906040988419023
0.47915625 -0.9821280093555335 -0.014985758110202224
0.4803046875 -0.9814574795303808 -0.015769130281415994
0.481453125 -0.9814800009478684 -0.01514080522474559
0.4826015625 -0.9823273276810356 -0.013893583469302612
0.48375 -0.9808687560762992 -0.0147266642556515
0.4848984375 -0.9824453328707046 -0.014579605285805847
0.486046875 -0.9811869536054678 -0.015836188323035877
0.4871953125 -0.9821710506188561 -0.01528996003532504
0.48834375 -0.9812925284358965 -0.0166279916178511
0.4894921875 -0.9809100179073937 -0.016414941143366113
0.490640625 -0.9812764359146591 -0.01614866796699785
0.4917890625 -0.9800812304914363 -0.01663175313329955
0.4929375 -0.9810120277819029 -0.016268700261626523
0.4940859375 -0.9796244244017669 -0.016618616713750603
0.495234375 -0.9808105683075266 -0.01628853664625536
0.4963828125 -0.9795547081100655 -0.017020543180811466
0.49753125 -0.9812606311250723 -0.016215051368341213
0.4986796875 -0.9784282666321442 -0.01740570139347427
0.499828125 -0.9794377962379647 -0.015712427723486258
0.5009765625 -0.9786865134916378 -0.015671834361477482
0.502125 -0.9785270758376183 -0.014689835145346566
0.5032734375 -0.9790130401104876 -0.014158704567906591
0.504421875 -0.9792620924250064 -0.015080727652663634
0.5055703125 -0.9807097317486788 -0.014683272789327614
0.50671875 -0.9796175992539501 -0.01474970184305506
0.5078671875 -0.9808703033622617 -0.013954969728347033
0.509015625 -0.9802065137466418 -0.014637754466715558
0.5101640625 -0.9815256151663069 -0.01328885881678088
0.5113125 -0.9811835459711089 -0.01367188926590146
0.5124609375 -0.9815659985119937 -0.013820230166288305
0.513609375 -0.9823104721236137 -0.01414414369510908
0.5147578125 -0.9817201863214993 -0.014441110727496542
0.51590625 -0.9820786678567011 -0.014576961048872406
0.5170546875 -0.9813927647809451 -0.014897632692173618
0.518203125 -0.9823354365320189 -0.0141665791191182
0.5193515625 -0.9813031671970108 -0.015072975556357338
0.5205 -0.9816247476435268 -0.015093680511411661
0.5216484375 -0.9811641733447506 -0.015015705627163756
0.522796875 -0.9822069322459985 -0.013839828440977586
0.5239453125 -0.9816203321008814 -0.014475227182048633
0.52509375 -0.9823665529934875 -0.013692647795040092
0.5262421875 -0.9828105487858045 -0.013405462753281916
0.527390625 -0.982158306346641 -0.014024115286714267
0.5285390625 -0.982206990911733 -0.013792683374508119
0.5296875 -0.9817239104957786 -0.014102764860490835
0.5308359375 -0.983504866952048 -0.012159574096557824
0.531984375 -0.9827034431729327 -0.0137623610750775
0.5331328125 -0.9833197893166696 -0.014046748426979117
0.53428125 -0.98266490998527 -0.014148970522770199
0.5354296875 -0.98313630663647 -0.014758029223291225
0.536578125 -0.9841383629117646 -0.012152271583525387
0.5377265625 -0.9830265676018722 -0.013801288323610439
0.538875 -0.98430698745639 -0.013675199595902188
0.5400234375 -0.9838707575564009 -0.014651645173164085
0.541171875 -0.9847292655078932 -0.012840012117679711
0.5423203125 -0.9839943656694197 -0.012241418829157302
0.54346875 -0.9836509412037926 -0.013883354329295605
0.5446171875 -0.9849595983951822 -0.013745434369876797
0.545765625 -0.9838140822504888 -0.014266640447579249
0.5469140625 -0.9845941781603831 -0.014064866839326617
0.5480625 -0.9837296344736969 -0.014999092600064823
0.5492109375 -0.9843904028977071 -0.01425989875706063
0.550359375 -0.9837729199194234 -0.014083874575603506
0.5515078125 -0.984455891182262 -0.013728834025729664
0.55265625 -0.983442555116746 -0.014842298387191005
0.5538046875 -0.9835886034470408 -0.014362976689407086
0.554953125 -0.9843476761862248 -0.014081654882497296
0.5561015625 -0.9838386460067474 -0.014049469951055077
0.55725 -0.9845401972065029 -0.013853176912702714
0.5583984375 -0.9840897901131842 -0.014278792163943815
0.559546875 -0.9850269937956931 -0.013647450843322945
0.5606953125 -0.9850282938676939 -0.015002968161530156
0.56184375 -0.9855390429536952 -0.014590566774923375
0.5629921875 -0.9827913691574912 -0.014103353674440572
0.564140625 -0.9842330194661211 -0.013521911287044691
0.5652890625 -0.9829488179032286 -0.014647432413939176
0.5664375 -0.9834189047664257 -0.013314813208075621
0.5675859375 -0.9834794892851326 -0.013809454312723846
0.568734375 -0.9829266514526334 -0.013520055700292022
0.5698828125 -0.9835279311006622 -0.014207122374951225
0.57103125 -0.9830368538553286 -0.013561063058302902
0.5721796875 -0.9839393052272503 -0.01357859913001519
0.573328125 -0.9827676631955994 -0.013965621376289566
0.5744765625 -0.9842531398120861 -0.013010594060853864
0.575625 -0.9828272874948947 -0.013428240894835672
0.5767734375 -0.9846400711159383 -0.012271808289691016
0.577921875 -0.9843749140153082 -0.013015085392222098
0.5790703125 -0.9833870519442122 -0.011867144749472681
0.58021875 -0.9840869923351334 -0.012240570797582964
0.5813671875 -0.9833949739209948 -0.012379667498744723
0.582515625 -0.9839907872243454 -0.011271596308744719
0.5836640625 -0.983624973290841 -0.01144298817610806
0.5848125 -0.9844001096091397 -0.011275002578571502
0.5859609375 -0.9836962754387345 -0.010768847673377269
0.587109375 -0.9844412926267725 -0.010255158545868018
0.5882578125 -0.9839553274489488 -0.011650890974589372
0.58940625 -0.9847408423940665 -0.010634271463785885
0.5905546875 -0.984509879219795 -0.011146024405874935
0.591703125 -0.984161754442548 -0.010666853403525814
0.5928515625 -0.9848604161258238 -0.010961132584475147
0.594 -0.984127708502931 -0.011087707787869439
0.5951484375 -0.9850819977941032 -0.010595148508787788
0.596296875 -0.9841962689595212 -0.01078957929113078
0.5974453125 -0.9851177494633283 -0.01082325081655447
0.59859375 -0.9849217624744144 -0.011369476176533305
0.5997421875 -0.9859054699020353 -0.010346953784889645
0.600890625 -0.9848228256951441 -0.01097523787903315
0.6020390625 -0.985919319412096 -0.010634588812131834
0.6031875 -0.9856481232373295 -0.010441441338289448
0.6043359375 -0.9858531263633574 -0.010372801764364975
0.605484375 -0.9869568139825271 -0.010465002001626839
0.6066328125 -0.9863699944989247 -0.010616650141094308
0.60778125 -0.9875277710921593 -0.01093285308366021
0.6089296875 -0.9855176200783116 -0.011778612688504941
0.610078125 -0.9867421558450494 -0.011841146913884493
0.6112265625 -0.9855455241841011 -0.012016768062393435
0.612375 -0.9866270773057947 -0.011443253939292797
0.6135234375 -0.9856910613240759 -0.01257899184870448
0.614671875 -0.9867539486332676 -0.011483138377668844
0.6158203125 -0.9854758812529619 -0.012151788372799621
0.61696875 -0.9853773248311106 -0.012321577883307733
0.6181171875 -0.9857080367534529 -0.012850752729524628
0.619265625 -0.9846401642934076 -0.012712603159942104
0.6204140625 -0.9855863955139846 -0.012425123289293405
0.6215625 -0.9850434966593844 -0.012471339356553368
0.6227109375 -0.9862275774695957 -0.012050497739303723
0.623859375 -0.9852069888350309 -0.012438616820405313
0.6250078125 -0.9870158799731131 -0.012182128220399935
0.62615625 -0.985460972785789 -0.012880538496283567
0.6273046875 -0.9862299494347824 -0.013373471487443112
0.628453125 -0.9864478853832744 -0.013410225875657211
0.6296015625 -0.9859429615228946 -0.012906757500785238
0.63075 -0.9867715328786599 -0.012794986462130564
0.6318984375 -0.985860729178485 -0.012877031268946404
0.633046875 -0.9869456880528038 -0.012914473926947667
0.6341953125 -0.9852287109259544 -0.012686449523190146
0.63534375 -0.9851342554199635 -0.012831002279922787
0.6364921875 -0.9851659333467039 -0.014286086543440935
0.637640625 -0.9859746930276916 -0.013116026817736215
0.6387890625 -0.9832992933988127 -0.014110154908354988
0.6399375 -0.9861682191401191 -0.013128206254668262
0.6410859375 -0.9861605361006784 -0.014031825276853427
0.642234375 -0.9855493769798388 -0.012408042928771956
0.6433828125 -0.9849920321641417 -0.013309091034756526
0.64453125 -0.9858323331278083 -0.014389020702442468
0.6456796875 -0.9857616080743429 -0.01209826450941609
0.646828125 -0.9852213621176915 -0.012916509691989375
0.6479765625 -0.9863777372044468 -0.013383276434083324
0.649125 -0.9845221366648735 -0.012863379367356209
0.6502734375 -0.9851286577560326 -0.010091509324763492
0.651421875 -0.9849706377143785 -0.013409870688122827
0.6525703125 -0.9860760731210628 -0.012091351779609988
0.65371875 -0.9850712474102286 -0.01282081694071549
0.6548671875 -0.985145675403031 -0.012804743831615228
0.656015625 -0.9856955704925344 -0.012314061426226874
0.6571640625 -0.9853401903185488 -0.012956620788632939
0.6583125 -0.9854820842733096 -0.012724239482782007
0.6594609375 -0.9849575585905587 -0.01291619752337822
0.660609375 -0.9848137366474028 -0.012402120510108278
0.6617578125 -0.9852242975395193 -0.012071991978981594
0.66290625 -0.9862902994142926 -0.0121536899172906
0.6640546875 -0.9861641220394652 -0.012517563639127205
0.665203125 -0.9879082992942136 -0.011605287377538825
0.6663515625 -0.9861213269657725 -0.012125907520785809
0.6675 -0.9865639750484148 -0.011408943921452669
0.6686484375 -0.985907109040213 -0.011394809077263465
0.669796875 -0.9867530324662016 -0.011429112283434198
0.6709453125 -0.9881768624487534 -0.011831904395120205
0.67209375 -0.9869009734594227 -0.011532215101766219
0.6732421875 -0.9877938684341521 -0.011467482345222893
0.674390625 -0.9873330768074328 -0.01171432190241753
0.6755390625 -0.98892829136323 -0.011470563251115562
0.6766875 -0.9869842429382214 -0.01215538950477002
0.6778359375 -0.9876315393791832 -0.012461195654013102
0.678984375 -0.9874512838858085 -0.011638181129234572
0.6801328125 -0.9878534304650559 -0.011391603918516367
0.68128125 -0.9875842952989061 -0.011707747193845812
0.6824296875 -0.9877059579734627 -0.011269080513052074
0.683578125 -0.9882226566584239 -0.012122161409584234
0.6847265625 -0.9875619052329836 -0.011995151329757606
0.685875 -0.9887433236042728 -0.011596205523488279
0.6870234375 -0.9878061562902591 -0.012081806594221423
0.688171875 -0.988190369977508 -0.01163458262095339
0.6893203125 -0.9881310069064675 -0.012710971042118838
0.69046875 -0.9888778616425221 -0.012981998125712157
0.6916171875 -0.9882886093406511 -0.013331971114240782
0.692765625 -0.9882732331328057 -0.013083399464839135
0.6939140625 -0.9876360594053049 -0.013499500284926025
0.6950625 -0.9873761854497822 -0.013357543154463053
0.6962109375 -0.9878804903917069 -0.013702038497484248
0.697359375 -0.9869920462112011 -0.013564030586501213
0.6985078125 -0.9874487882256375 -0.013002431769034317
0.69965625 -0.9869669446832301 -0.012994458360405081
0.7008046875 -0.9878307195069145 -0.012893701745669506
0.701953125 -0.9871986396114492 -0.013053676705165385
0.7031015625 -0.9883239611873806 -0.012740153659326597
0.70425 -0.987632188318533 -0.0133959856206044
0.7053984375 -0.9874553661496968 -0.013248506710595104
0.706546875 -0.9877960838327791 -0.013821035782619506
0.7076953125 -0.9873843383151719 -0.013678675557406983
0.70884375 -0.9879781568267689 -0.013331169610650978
0.7099921875 -0.9873514918125196 -0.013905041759840281
0.711140625 -0.9864030454529613 -0.013525437718235361
0.7122890625 -0.9875056075378308 -0.01332250335335608
0.7134375 -0.9871651130850229 -0.013070135782605435
0.7145859375 -0.987828064971196 -0.013298945806876017
0.715734375 -0.9870703884718788 -0.013007609891037303
0.7168828125 -0.9882740249150896 -0.012746259912416458
0.71803125 -0.9878103381212759 -0.012867644140803436
0.7191796875 -0.987947981554528 -0.01271716489008301
0.720328125 -0.9877447027358626 -0.012816894016658836
0.7214765625 -0.9876432567680395 -0.011862923840859046
0.722625 -0.9873830880181402 -0.012451966466626385
0.7237734375 -0.9875814747930585 -0.012143888598715236
0.724921875 -0.9877357443420648 -0.01240076994462469
0.7260703125 -0.9870598994063051 -0.012029889677795308
0.72721875 -0.9871051629643585 -0.011754775246523796
0.7283671875 -0.9868812437817366 -0.011998902921361826
0.729515625 -0.987049053441643 -0.011005719794742214
0.7306640625 -0.986364441953351 -0.010545426509071892
0.7318125 -0.9870907022426662 -0.010420445587810828
0.7329609375 -0.9867070062318828 -0.009621451851843071
0.734109375 -0.9873150477758412 -0.010026023618808194
0.7352578125 -0.9870942185267362 -0.01049708360186194
0.73640625 -0.986799837695296 -0.00951169017027055
0.7375546875 -0.987279522897685 -0.009791970753468923
0.738703125 -0.9867328341551542 -0.008769934217849107
0.7398515625 -0.987580260058704 -0.009092668855088942
0.741 -0.9869001553430115 -0.009296294915491485
0.7421484375 -0.9880403481047739 -0.00912407613716465
0.743296875 -0.9871630987540434 -0.009243745941209788
0.7444453125 -0.9876278339625266 -0.008226513136714367
0.74559375 -0.9878346056091731 -0.008591936991336563
0.7467421875 -0.9883573012691853 -0.008542461053854727
0.747890625 -0.9881450356557401 -0.008699326605153629
0.7490390625 -0.9883451167749807 -0.008369648403782626
0.7501875 -0.9880333663706267 -0.008724025733397797
0.7513359375 -0.9886819558368902 -0.008762966971672247
0.752484375 -0.9890015038951205 -0.0076622422094305975
0.7536328125 -0.9877855906610413 -0.008052068410859405
0.75478125 -0.9875963091229473 -0.007746432133223888
0.7559296875 -0.9890732109870111 -0.007474661398016308
0.757078125 -0.9880376851899051 -0.007531982136983639
0.7582265625 -0.9882702919259856 -0.008295324951566568
0.759375 -0.9892755571376436 -0.007885307065294056
0.7605234375 -0.9893761731163675 -0.00713182144151063
0.761671875 -0.9889641353664107 -0.007664100656115058
0.7628203125 -0.9898189299363535 -0.007534153600866969
0.76396875 -0.9899021461036299 -0.006761501651922824
0.7651171875 -0.9891560222491318 -0.007495057876509531
0.766265625 -0.9899127241676732 -0.007390204017973079
0.7674140625 -0.9902453391755721 -0.00686039897989027
0.7685625 -0.9893853478734984 -0.006834015228241036
0.7697109375 -0.9897300704218935 -0.007624535309058655
0.770859375 -0.9906038700124934 -0.007518895488126814
0.7720078125 -0.9900478992806563 -0.007132633634865493
0.77315625 -0.9898120845489071 -0.007592568370881625
0.7743046875 -0.9903980310954457 -0.007444489966907442
0.775453125 -0.9901925758024559 -0.006937123624337488
0.7766015625 -0.9904730035217602 -0.008113166124144838
0.77775 -0.9908028906892341 -0.008033011364805193
0.7788984375 -0.9912798743233787 -0.007443730716981567
0.780046875 -0.9905043440560048 -0.00808588600085175
0.7811953125 -0.9903466349765249 -0.007879701310834986
0.78234375 -0.9914530699295259 -0.0070226553059806185
0.7834921875 -0.9899616169297867 -0.0077838352578334935
0.784640625 -0.989789463010865 -0.008360957433872163
0.7857890625 -0.9906941959126723 -0.008133229400731301
0.7869375 -0.9899128416880436 -0.007192035741751868
0.7880859375 -0.9900940269686702 -0.00797872155376278
0.789234375 -0.9909638301954123 -0.008234701189240135
0.7903828125 -0.9911615261630315 -0.008033825393827021
0.79153125 -0.9893927348562502 -0.008506525911360308
0.7926796875 -0.9895119268112125 -0.008756821486929522
0.793828125 -0.9922744965103495 -0.007618891977112019
0.7949765625 -0.9900675465025146 -0.007943993614068723
0.796125 -0.9893209703640389 -0.008503151132587428
0.7972734375 -0.9901808622623007 -0.008754959072825308
0.798421875 -0.9897558222271851 -0.008422581982227784
0.7995703125 -0.9905387514706446 -0.007785830455546983
0.80071875 -0.9897471868543003 -0.008276279622109473
0.8018671875 -0.9904450805809162 -0.007333894894699877
0.803015625 -0.9894165930845308 -0.00801210696099891
0.8041640625 -0.9897910945063508 -0.007774802870358366
0.8053125 -0.9905047228335314 -0.007342705048646425
0.8064609375 -0.9894782748012025 -0.007478762597892541
0.807609375 -0.9898947121443245 -0.007623308796374462
0.8087578125 -0.9910488525237771 -0.007441403663404955
0.80990625 -0.9905052441713535 -0.008009912022267418
0.8110546875 -0.9900565239388593 -0.008590968758314887
0.812203125 -0.9898440498681219 -0.009091317823851919
0.8133515625 -0.9911944384740975 -0.008378617076736483
0.8145 -0.9886354261320486 -0.008376483750801855
0.8156484375 -0.9884686091296544 -0.008090841012449279
0.816796875 -0.9888424004935148 -0.007813374759845726
0.8179453125 -0.989575070476305 -0.008095814409954494
0.81909375 -0.9898017298414457 -0.007783661359326066
0.8202421875 -0.9908107803188797 -0.007433856622445889
0.821390625 -0.9908931352902488 -0.006921271471044488
0.8225390625 -0.989984042319456 -0.00725482222231022
0.8236875 -0.9898663739977567 -0.007112307033004001
0.8248359375 -0.9905397295600438 -0.007196211364267652
0.825984375 -0.9906927086209045 -0.007046718644130728
0.8271328125 -0.9901744941587877 -0.007484660161199447
0.82828125 -0.9903301320672084 -0.007421524931230855
0.8294296875 -0.9906446954943781 -0.008377995963564866
0.830578125 -0.9909607974383999 -0.007754987168471644
0.8317265625 -0.9901421734584253 -0.007459517589653297
0.832875 -0.9913900303772789 -0.008035126064442705
0.8340234375 -0.9903305888406059 -0.008359953926431879
0.835171875 -0.9910317274653494 -0.007615480138437519
0.8363203125 -0.9916007005180908 -0.008071736187350659
0.83746875 -0.9917850799796932 -0.008142375072508617
0.8386171875 -0.991634664830161 -0.008721920569909919
0.839765625 -0.992439882747851 -0.007991533960793315
0.8409140625 -0.9911551351669136 -0.008292506465815822
0.8420625 -0.9906871249141299 -0.009255288136507417
0.8432109375 -0.9922007162279463 -0.008416009990943857
0.844359375 -0.9929603894106381 -0.00853089140608819
0.8455078125 -0.9918936642090872 -0.008164016132584884
0.84665625 -0.992080161324318 -0.009828255839601514
0.8478046875 -0.9916915178509367 -0.008496045604554511
0.848953125 -0.991433329720868 -0.008725030207198003
0.8501015625 -0.9901670377261432 -0.008355802818476865
0.85125 -0.9920917550356019 -0.008295934356212398
0.8523984375 -0.9922729846874501 -0.008567765167591938
0.853546875 -0.9903691761877632 -0.008907480824683463
0.8546953125 -0.9933807620997651 -0.009501330333089987
0.85584375 -0.9913174059270254 -0.009776482040612103
0.8569921875 -0.9913833587296418 -0.00922262185718159
0.858140625 -0.9934413587786964 -0.008732989800271033
0.8592890625 -0.9926418424054707 -0.008737212703516857
0.8604375 -0.991863941060624 -0.009253164696104405
0.8615859375 -0.9912736420184141 -0.008942024064492474
0.862734375 -0.9911497492408445 -0.00991021115117037
0.8638828125 -0.9913884217888395 -0.009045413673293382
0.86503125 -0.991282820451747 -0.009383047039770415
0.8661796875 -0.9927598035729227 -0.009343208686239071
0.867328125 -0.9914756028831848 -0.008467946877699889
0.8684765625 -0.9911435932297704 -0.009231621290208075
0.869625 -0.991873440406223 -0.008723136425972416
0.8707734375 -0.9908282070650576 -0.008538453297636639
0.871921875 -0.9902909936581755 -0.008967146914545435
0.8730703125 -0.991210989730374 -0.009274169364943297
0.87421875 -0.9909392116007996 -0.008780694436183734
0.8753671875 -0.9909735577015327 -0.00872428380723142
0.876515625 -0.9908770424577771 -0.00881189761102602
0.8776640625 -0.9914303507286728 -0.0080969168045264
0.8788125 -0.9908411976502772 -0.008267528833990928
0.8799609375 -0.9909915488781392 -0.008185764201086465
0.881109375 -0.9913779747725358 -0.007871664694782066
0.8822578125 -0.9907438255977392 -0.0078542762763526
0.88340625 -0.9909047059480051 -0.007979973361227799
0.8845546875 -0.9915818118611593 -0.007963766475584944
0.885703125 -0.9911000175832849 -0.00778641542923289
0.8868515625 -0.9911412627342253 -0.008188881053453334
0.888 -0.9910759142953864 -0.008133291489782979
0.8891484375 -0.991646632761065 -0.007602518269268749
0.890296875 -0.9904910812752289 -0.007542537468870014
0.8914453125 -0.990293619567099 -0.007380129378992267
0.89259375 -0.9909996728641113 -0.006844512048644225
0.8937421875 -0.9905586174219871 -0.006914231592639514
0.894890625 -0.9909284441748856 -0.006702082177525132
0.8960390625 -0.9917934329266329 -0.006676410217930362
0.8971875 -0.9913255383015425 -0.006744676440358741
0.8983359375 -0.991105505201721 -0.006325453707712508
0.899484375 -0.9912591326658897 -0.006533365366838267
0.9006328125 -0.9914934698575162 -0.006076937816996392
0.90178125 -0.9915035381880106 -0.006045238035932099
0.9029296875 -0.9917909586381134 -0.006249597657539824
0.904078125 -0.9924660421406593 -0.0058126209280569135
0.9052265625 -0.991851406788167 -0.005871001332075423
0.906375 -0.9922562469805267 -0.0057529496147299825
0.9075234375 -0.9926744505138108 -0.005505679642297451
0.908671875 -0.992432628223495 -0.005651186918019774
0.9098203125 -0.9921539394282248 -0.005504960586704369
0.91096875 -0.9928024235733429 -0.006155863237155612
0.9121171875 -0.9920391165605427 -0.005437265399343902
0.913265625 -0.9919379941700517 -0.005868730647592982
0.9144140625 -0.9925756212410414 -0.005685822461517585
0.9155625 -0.9927111539146776 -0.005175936811359413
0.9167109375 -0.9918583224897075 -0.005050972415707761
0.917859375 -0.9921342657194059 -0.004908028571517148
0.9190078125 -0.9930766015414569 -0.004698980052054075
0.92015625 -0.9922884932675594 -0.005036261591096186
0.9213046875 -0.9930477706616267 -0.004973934364127505
0.922453125 -0.9934963531428646 -0.004754457878108909
0.9236015625 -0.9924820519574351 -0.004325907716603905
0.92475 -0.9922426238693215 -0.0039027489992114056
0.9258984375 -0.9924020212259016 -0.004410446912309372
0.927046875 -0.9927467555267864 -0.0040705344844127744
0.9281953125 -0.9922609120403503 -0.003627498258276532
0.92934375 -0.9927638090431111 -0.0038277314500714116
0.9304921875 -0.9927996154163393 -0.003698347574761285
0.931640625 -0.9925223269545579 -0.0032826455493712436
0.9327890625 -0.9928114457424593 -0.0034959500583238573
0.9339375 -0.993115136234795 -0.003654248814459554
0.9350859375 -0.992108098209545 -0.0037718572396728545
0.936234375 -0.9920400540631795 -0.0038647325164853086
0.9373828125 -0.9926859253097964 -0.0033118360569424077
0.93853125 -0.992443444509671 -0.0030198973094568426
0.9396796875 -0.992212360107261 -0.0030440452273328145
0.940828125 -0.9925274187020852 -0.00302960348493278
0.9419765625 -0.992343823718093 -0.0028105583499330455
0.943125 -0.9918174515665934 -0.003012810156969803
0.9442734375 -0.992167187649763 -0.0030417060613823765
0.945421875 -0.9928259523362193 -0.002626290482118654
0.9465703125 -0.9918387470507198 -0.0028033939722601764
0.94771875 -0.9918602903713997 -0.003014449418852899
0.9488671875 -0.9923988660386387 -0.002916983942949869
0.950015625 -0.9921048284974834 -0.0029985206399240905
0.9511640625 -0.9920256540506113 -0.0030696026108802676
0.9523125 -0.9924433249331301 -0.002881679955034494
0.9534609375 -0.9922523854361336 -0.002620152058765618
0.954609375 -0.991970493136029 -0.0026400181714146265
0.9557578125 -0.9921789406662263 -0.0025400070659003515
0.95690625 -0.9923100176129267 -0.0021331735121203343
0.9580546875 -0.9918275651722732 -0.0022843487427376408
0.959203125 -0.9922328800126954 -0.002326927106248655
0.9603515625 -0.9927313084886144 -0.0022313365051532807
0.9615 -0.9917102853628129 -0.0022463350778630375
0.9626484375 -0.991778259911837 -0.002348056877009841
0.963796875 -0.992429835485891 -0.0020161332899367723
0.9649453125 -0.9917383292398666 -0.0020353446522670127
0.96609375 -0.9919515093336179 -0.002460226093613904
0.9672421875 -0.9922210767839547 -0.002507898826200561
0.968390625 -0.9923567877311679 -0.0015278324453571468
0.9695390625 -0.9921082187217272 -0.0021348698212788064
0.9706875 -0.9923585003798211 -0.0025111055348711053
0.9718359375 -0.9938512777086832 -0.0016312658908992361
0.972984375 -0.992967938428349 -0.002273879684521418
0.9741328125 -0.9922774961553235 -0.0016100771083266685
0.97528125 -0.9940090716899304 -0.0013930180517417456
0.9764296875 -0.9934149805523752 -0.0024162595447533297
0.977578125 -0.9940370355317301 -0.002509429073416891
0.9787265625 -0.9933110936322259 -0.00205766404606178
0.979875 -0.9933459613768388 -0.002124499195376106
0.9810234375 -0.9924465730451955 -0.0020804766013575726
0.982171875 -0.9936965777174587 -0.0021981300419270933
0.9833203125 -0.9940469137740254 -0.0011187642559358224
0.98446875 -0.9927042805911924 -0.0021083158375442834
0.9856171875 -0.9930881182267497 -0.002496015460408507
0.986765625 -0.9926909575593195 -0.0011778269742433456
0.9879140625 -0.9923689031125816 -0.002131696034626651
0.9890625 -0.993902297030896 -0.0015044308919339722
0.9902109375 -0.9943750368220992 -0.0013073579508240951
0.991359375 -0.9933992673372999 -0.001099320601708087
0.9925078125 -0.9925475946923974 -0.0024199206225755665
0.99365625 -0.9929834619905409 -0.0020305764180977848
0.9948046875 -0.9933129785513559 -0.0014294314951077136
0.995953125 -0.9936017880862026 -0.0010919562038366193
0.9971015625 -0.992755360760781 -0.002339474577016276
0.99825 -0.9940100255821905 -0.0014607925022946389
0.9993984375 -0.9925082830308819 -0.0022644160906509225
1.000546875 -0.9918291215559005 -0.0025063909598181944
1.0016953125 -0.9936490560684429 -0.0021249004269860983
1.00284375 -0.9927542498530545 -0.0017691179553370184
1.0039921875 -0.9929046920312821 -0.002378541419884528
1.005140625 -0.9932910131267679 -0.002099158978793203
1.0062890625 -0.9931569741956789 -0.0016626396175562497
1.0074375 -0.9929934267565049 -0.002421113163431854
1.0085859375 -0.9928281378929444 -0.0017915626075005187
1.009734375 -0.9933788791262017 -0.0016734871155594244
1.0108828125 -0.9929246267194285 -0.001529810137034321
1.01203125 -0.992757350330008 -0.001922472775618883
1.0131796875 -0.9934409137736806 -0.002000883847352114
1.014328125 -0.9927749231487231 -0.0021990348947283356
1.0154765625 -0.9927866929868121 -0.0021536553427067284
1.016625 -0.9933463417322895 -0.0017497791778503802
1.0177734375 -0.9930361836757038 -0.0018053368666742509
1.018921875 -0.993258940229481 -0.002139287334629869
1.0200703125 -0.9933482460686942 -0.002209125649386745
1.02121875 -0.9932833367982731 -0.001927474271006091
1.0223671875 -0.9933600964032882 -0.0024770565576908155
1.023515625 -0.9933264131877467 -0.0022613934232596777
1.0246640625 -0.9938582871667742 -0.002356876767876548
1.0258125 -0.9933732835837648 -0.002547386493063547
1.0269609375 -0.9938583875805052 -0.0022948196574695823
1.028109375 -0.9945207528402821 -0.0022806492180934834
1.0292578125 -0.9939284480213582 -0.0020606203391467237
1.03040625 -0.9938081731100015 -0.002993615844711958
1.0315546875 -0.9939211989401242 -0.0026695123823945455
1.032703125 -0.9938237803309791 -0.0024232099255386552
1.0338515625 -0.9940763833796669 -0.0031733542282115917
1.035 -0.9938622008482216 -0.002772157989159224
1.0361484375 -0.9942240168693333 -0.002790873639593877
1.037296875 -0.9934009695261885 -0.0021178222253490225
1.0384453125 -0.9936054576744744 -0.0022735671601021856
1.03959375 -0.9947624228691143 -0.002224278676875663
1.0407421875 -0.9950820300018756 -0.0029753987373871554
1.041890625 -0.9944688193515088 -0.0023047868787501036
1.0430390625 -0.9942621167794882 -0.002786193674641488
1.0441875 -0.9941595397345169 -0.002794021289881349
1.0453359375 -0.9937696571983388 -0.0025543311389363485
1.046484375 -0.99453729129274 -0.0031985443442191057
1.0476328125 -0.9947478671845227 -0.0022800624582914077
1.04878125 -0.9940442363258353 -0.0029885175622189897
1.0499296875 -0.9938402412894831 -0.0024958396321706038
1.051078125 -0.9935828478123176 -0.0021522904631945394
1.0522265625 -0.9940636328220915 -0.0016327396397113683
1.053375 -0.9950669861203463 -0.0015636495670542268
1.0545234375 -0.9938667172967298 -0.0021418060547052434
1.055671875 -0.9943835011948847 -0.0013230406733669622
1.0568203125 -0.9932696489873118 -0.001179541462832793
1.05796875 -0.9947330147596983 -0.0018795496433588873
1.0591171875 -0.9942770762623692 -0.0009657849949153254
1.060265625 -0.9933341211496345 -0.0022248247040002264
1.0614140625 -0.9938412293418754 -0.002097598190753983
1.0625625 -0.9943239758515006 -0.0026647870572329008
1.0637109375 -0.9938223205192146 -0.0012282874231234822
1.064859375 -0.9936506115210801 -0.0010425284131649493
1.0660078125 -0.994210063516414 -0.0024051360305468606
1.06715625 -0.9938740090887965 -0.0016965141065359013
1.0683046875 -0.9940088095956139 -0.0018183551463409886
1.069453125 -0.993901075572205 -0.0016520967263333845
1.0706015625 -0.9927030421263268 -0.0013271947903262717
1.07175 -0.9927631280133755 -0.001237160819843347
1.0728984375 -0.9931468837768045 -0.0010623841542200373
1.074046875 -0.9939079497013767 -0.0008124920155828576
1.0751953125 -0.9937745024442383 -0.000951206153806148
1.07634375 -0.9930928402889542 -0.0011631239778723025
1.0774921875 -0.9937165472384558 -0.001459736873298879
1.078640625 -0.9930879745967008 -0.0015070488435920005
1.0797890625 -0.9933886638025469 -0.0008486925199828275
1.0809375 -0.9934237296128225 -0.0008289575590206232
1.0820859375 -0.9931763941890045 -0.0005982473548895584
1.083234375 -0.9932107904863177 -0.0002610568636490576
1.0843828125 -0.9933060967506689 -0.00039232738948206947
1.08553125 -0.9930715501603633 -7.522670641984738e-05
1.0866796875 -0.9925006151609546 6.75838598616918e-06
1.087828125 -0.9926858402958182 6.725329391956553e-05
1.0889765625 -0.9932889692462425 0.0003971009690058487
1.090125 -0.992856789708436 0.0005059989836790485
1.0912734375 -0.9931536396306627 0.0006734082855019002
1.092421875 -0.993259413866924 0.0005505360205836501
1.0935703125 -0.9930413395537212 0.00021895045936474317
1.09471875 -0.992802912562401 0.00048410852134263965
1.0958671875 -0.9935964036065783 0.0003896316601084762
1.097015625 -0.9933561885820615 0.0005209861786142703
1.0981640625 -0.9928938061893139 0.00027696924434605225
1.0993125 -0.9932908665776362 0.00031639139472237204
1.1004609375 -0.993883992490549 0.00039374556701564367
1.101609375 -0.9932518363325804 0.000599720853630227
1.1027578125 -0.9931048619698093 0.0011697610245406664
1.10390625 -0.9940465436040891 0.0011285896871849888
1.1050546875 -0.9930377626064669 0.001141704881709657
1.106203125 -0.9927385692091272 0.0011603341650550103
1.1073515625 -0.9935271214936197 0.0016898408301829482
1.1085 -0.9930874972004253 0.0011799365002336248
1.1096484375 -0.9931665943245438 0.0018479626785259523
1.110796875 -0.9933918510439061 0.0015907788859471916
1.1119453125 -0.9930394835042416 0.0017701965267222786
1.11309375 -0.9935769375857438 0.0016263334514877437
1.1142421875 -0.9936971179465016 0.0016423911483879616
1.115390625 -0.994136728007727 0.0016347957138034552
1.1165390625 -0.9934567250747526 0.002039666497789111
1.1176875 -0.9933811145941805 0.0017428086533973763
1.1188359375 -0.992959207481038 0.0018257806460777737
1.119984375 -0.9933004939974368 0.0017032777182287295
1.1211328125 -0.993351667026244 0.0017213625203585659
1.12228125 -0.9936094498492862 0.0017510038368242498
1.1234296875 -0.9933601912857285 0.002683722259393173
1.124578125 -0.9937317726338881 0.002295171638710597
1.1257265625 -0.9936489091691945 0.002422599949719245
1.126875 -0.9936252041887144 0.0025014998230019903
1.1280234375 -0.9932436182911344 0.0028041907423779766
1.129171875 -0.9937949134380727 0.0030279891841271667
1.1303203125 -0.99346901483474 0.003574702258410223
1.13146875 -0.9934080743728804 0.0026997995942530384
1.1326171875 -0.9931947664647781 0.0028104665579238852
1.133765625 -0.9938201468923994 0.003151280317307714
1.1349140625 -0.9929743673501704 0.002858067568357492
1.1360625 -0.9930607134178869 0.0030066215813951414
1.1372109375 -0.9933482356539112 0.0030921264187711295
1.138359375 -0.9933061726600447 0.0030684098720547004
1.1395078125 -0.9935024028847339 0.002883132640020769
1.14065625 -0.9935861632726815 0.002863823020060413
1.1418046875 -0.9937103131152558 0.0027103404768674955
1.142953125 -0.9930677663596242 0.0027563162422696297
1.1441015625 -0.9928748834150496 0.002740711504355564
1.14525 -0.9934387670361399 0.002837834571072173
1.1463984375 -0.9926984705715192 0.003131567847941996
1.147546875 -0.9926399472580781 0.0027442184504090084
1.1486953125 -0.9929350953305819 0.0032961934719294705
1.14984375 -0.9929066045706907 0.002963390147175199
1.1509921875 -0.992803915162653 0.0032725852888414453
1.152140625 -0.9929893054759228 0.0034258801546767914
1.1532890625 -0.99313634909941 0.0037179858154487433
1.1544375 -0.9932659655019289 0.0034871748329152463
1.1555859375 -0.9935160622872918 0.0027203934127744134
1.156734375 -0.9944505813907171 0.002991539420498679
1.1578828125 -0.99412517812692 0.0028746957445991705
1.15903125 -0.9936875593387593 0.002949960440839644
1.1601796875 -0.9943126533687855 0.0030885524803951625
1.161328125 -0.9937424380705554 0.0029790406606933773
1.1624765625 -0.9939818103210948 0.0029299660074715017
1.163625 -0.9945168760827336 0.002997060396637441
1.1647734375 -0.9944705533733519 0.003197956561805382
1.165921875 -0.9940853560529873 0.0031629672180889523
1.1670703125 -0.99409895114272 0.0018111444162446921
1.16821875 -0.9943580318674474 0.0017387916717405139
1.1693671875 -0.9932445181760867 0.0021737648050426106
1.170515625 -0.9939915646285262 0.0017763682437701989
1.1716640625 -0.9935369809660225 0.0026844461748051496
1.1728125 -0.9940192111514663 0.002437771768342173
1.1739609375 -0.9939536018747827 0.002014935626524328
1.175109375 -0.9940220313057087 0.0015739374987058241
1.1762578125 -0.9940399769507029 0.0026673804954821523
1.17740625 -0.993103772125099 0.002404645978566794
1.1785546875 -0.9933189914554956 0.0021160747151219017
1.179703125 -0.9928538846855566 0.002392184201848724
1.1808515625 -0.9918238695051343 0.0019310763409232101
1.182 -0.9924759233392005 0.002178085732633478
1.1831484375 -0.9931039054547806 0.002965047079785399
1.184296875 -0.9933225930817278 0.0022980438822649274
1.1854453125 -0.994057923526828 0.0012869253205619602
1.18659375 -0.9933628392611994 0.0022953049950825144
1.1877421875 -0.9931162410321016 0.001957458002505963
1.188890625 -0.9933747205899741 0.00202777762239878
1.1900390625 -0.9922308467487404 0.002068904679157213
1.1911875 -0.9933058686735342 0.0021727211831696625
1.1923359375 -0.992518273908277 0.0028215538616796487
1.193484375 -0.9925178453485053 0.002992208435803778
1.1946328125 -0.9933868296465603 0.0032504458871839004
1.19578125 -0.9927115070246617 0.00320073089328915
1.1969296875 -0.9937546669943988 0.00400306508760756
1.198078125 -0.993126196606336 0.002846444197259268
1.1992265625 -0.9925862159411354 0.002458442318669235
1.200375 -0.9914597956624763 0.003389468605439233
1.2015234375 -0.9923839264280279 0.0030973070288670967
1.202671875 -0.9926366370637861 0.0025423427736173954
1.2038203125 -0.9921774828566748 0.0016990624609229399
1.20496875 -0.9921533771192428 0.00258361824274779
1.2061171875 -0.9922570614112672 0.003007561158730826
1.207265625 -0.9922665515182554 0.0032978188702180167
1.2084140625 -0.9917058985208119 0.003330868785821048
1.2095625 -0.9922585360568104 0.0030245440225361853
1.2107109375 -0.9912326792727191 0.0030798838011706076
1.211859375 -0.9909840814470191 0.002928707826203303
1.2130078125 -0.9914819450500678 0.0037498254913180956
1.21415625 -0.9909495009861446 0.0039826902130077335
1.2153046875 -0.9912708360288557 0.0042723385600843405
1.216453125 -0.9919772702559866 0.004869259936003026
1.2176015625 -0.9921709823073659 0.004688122263720458
1.21875 -0.9922112673209824 0.004525011747279276
1.2198984375 -0.9922223512699274 0.004516667939210999
1.221046875 -0.9931287143209275 0.003957357332444594
1.2221953125 -0.9923513772761942 0.003926115622199293
1.22334375 -0.9921773608555702 0.003923661506778912
1.2244921875 -0.9928256222717171 0.004108541497857429
1.225640625 -0.9929500384234803 0.004062813550550909
1.2267890625 -0.9929501974208713 0.004603131007118039
1.2279375 -0.9939132680318769 0.003701528776378693
1.2290859375 -0.9938021399827855 0.003598343142270151
1.230234375 -0.9933311189741814 0.004218481609448849
1.2313828125 -0.9949632159287616 0.003915376089826519
1.23253125 -0.9949621274439294 0.0033492238111770406
1.2336796875 -0.9942643157242317 0.004642736706694947
1.234828125 -0.9938305442954349 0.004072991689135795
1.2359765625 -0.9950103889373254 0.0037364092202115534
1.237125 -0.9944941192440058 0.003918155631542616
1.2382734375 -0.9936483214280352 0.0035051211784045064
1.239421875 -0.9951371936025615 0.004003317705609286
1.2405703125 -0.9945405160271064 0.0037790275690913755
1.24171875 -0.9948785425697734 0.004106882802161656
1.2428671875 -0.9955048823978233 0.004465097521721084
1.244015625 -0.9954144467631423 0.0035865393601721557
1.2451640625 -0.9949527783934035 0.0037742909851533335
1.2463125 -0.9943565156647304 0.00429323295486464
1.2474609375 -0.9956528170102665 0.0038735250267629695
1.248609375 -0.9952726034066723 0.0038378906439624633
1.2497578125 -0.9931042962465484 0.0033484220232458117
1.25090625 -0.9951487152835143 0.00384841826157932
1.2520546875 -0.9933869053063052 0.0035632849165150027
1.253203125 -0.9933733172288888 0.004391071984716222
1.2543515625 -0.9944482588174899 0.004077855022004834
1.2555 -0.9934664867123538 0.0036926806341806423
1.2566484375 -0.9931389081057875 0.004229415468524039
1.257796875 -0.9938790511432682 0.003916528629409555
1.2589453125 -0.9943381228423467 0.0037396288243152637
1.26009375 -0.9930002015300676 0.00448799143185756
1.2612421875 -0.9921791191839723 0.004134319754466237
1.262390625 -0.9935779829494309 0.0036060431844966018
1.2635390625 -0.992471245196215 0.004528919596338124
1.2646875 -0.9932322789461238 0.004659440438841145
1.2658359375 -0.9943307892254136 0.0046263578245042125
1.266984375 -0.9932527606144124 0.004870234166614293
1.2681328125 -0.9925318580103117 0.004843944719769094
1.26928125 -0.9931311301682583 0.0049406815224696185
1.2704296875 -0.9930934080933871 0.005250939730765382
1.271578125 -0.992468026504887 0.005018334131534526
1.2727265625 -0.9924472326097903 0.004971052643748447
1.273875 -0.992432668936897 0.004931836910610242
1.2750234375 -0.9917280657403842 0.0047545996222997
1.276171875 -0.9917562872427579 0.005299682991247612
1.2773203125 -0.9923290519927855 0.005633743094069971
1.27846875 -0.991251880342655 0.005268459003108621
1.2796171875 -0.9913161974463817 0.00575806318041415
1.280765625 -0.9917351980435334 0.006077783459160121
1.2819140625 -0.9914355832455797 0.005929843113487876
1.2830625 -0.9905749420176841 0.006026171987696043
1.2842109375 -0.9906065329452669 0.00615832125725637
1.285359375 -0.9909632327428244 0.006424145897676318
1.2865078125 -0.9906045397225459 0.005856702810611729
1.28765625 -0.9908825192131716 0.006629799595277229
1.2888046875 -0.9914882822182214 0.00652812383673973
1.289953125 -0.9913643740170605 0.007550402295020908
1.2911015625 -0.9902854487606729 0.007470049329119162
1.29225 -0.9915964348487676 0.0069766847249752295
1.2933984375 -0.9914734900128778 0.007259974826899843
1.294546875 -0.9907263428426737 0.00773819419571975
1.2956953125 -0.9913491599555465 0.007431645824612004
1.29684375 -0.9911912139087758 0.007227437042313878
1.2979921875 -0.9915539928669174 0.007150374692018083
1.299140625 -0.9917719567335392 0.006734279519679656
1.3002890625 -0.9927079444658216 0.008408522273982921
1.3014375 -0.992116751895457 0.008343064575688536
1.3025859375 -0.9926912393625716 0.007737263270830935
1.303734375 -0.994531502647769 0.007202902358632218
1.3048828125 -0.993139442194352 0.007010750671766486
1.30603125 -0.9926503211879901 0.007673464497624127
1.3071796875 -0.9933170806093595 0.008028378238021494
1.308328125 -0.993927948511958 0.007694086606451711
1.3094765625 -0.9936241716716955 0.007751316445597317
1.310625 -0.9941140648729261 0.007992942660490193
1.3117734375 -0.9932065099715022 0.008314470883340613
1.312921875 -0.9932426514188377 0.0076806049864620585
1.3140703125 -0.9929393111298296 0.008352406703302062
1.31521875 -0.9936239330612733 0.008279165721444659
1.3163671875 -0.9924646289624134 0.0070721798442734685
1.317515625 -0.9921443787453513 0.007231188746243622
1.3186640625 -0.993525381920331 0.00800707610194884
1.3198125 -0.9923619221529572 0.007279285365754229
1.3209609375 -0.9925485522695054 0.007346672977714491
1.322109375 -0.9924048508870881 0.006603259036122189
1.3232578125 -0.993158810955179 0.006668541134553424
1.32440625 -0.9927021236029279 0.007571244654059561
1.3255546875 -0.9931456962376162 0.007270120167051947
1.326703125 -0.9925321151765146 0.00671227399190133
1.3278515625 -0.992156293068922 0.006780201455179824
1.329 -0.9923253850964967 0.005975802902209837
1.3301484375 -0.9928785729101182 0.0066539950794025915
1.331296875 -0.9925715786752638 0.006470777827891128
1.3324453125 -0.9917775047696132 0.006182498964503291
1.33359375 -0.9926335619290519 0.005409311898397107
1.3347421875 -0.9921140851165468 0.0057562858616100054
1.335890625 -0.991745671058331 0.005817850519295953
1.3370390625 -0.9917848954620351 0.006033216766089533
1.3381875 -0.9913382329629266 0.0061705215997188145
1.3393359375 -0.990793815597725 0.006072423976993702
1.340484375 -0.990366846363391 0.006235608268021442
1.3416328125 -0.9912401806974869 0.005534205654665697
1.34278125 -0.9900822390839904 0.005444104274057365
1.3439296875 -0.9895140117226364 0.005474024868571681
1.345078125 -0.9901947873449148 0.005560496433745787
1.3462265625 -0.9892903817284564 0.005509701775959663
1.347375 -0.9885723000346693 0.006020022208087172
1.3485234375 -0.9890940683200996 0.006375715804234489
1.349671875 -0.9887761667387454 0.0068168418995774305
1.3508203125 -0.9883319596310625 0.006610443487095996
1.35196875 -0.988656111662877 0.00650680091088951
1.3531171875 -0.9888601571951123 0.0069984503889377325
1.354265625 -0.9883483349637612 0.006864067099744131
1.3554140625 -0.9886679466216768 0.0070653864892812335
1.3565625 -0.9898340048214413 0.007314914204925915
1.3577109375 -0.9885094339381936 0.006293089374391159
1.358859375 -0.9887852209648105 0.0062944811937128975
1.3600078125 -0.9894591423975769 0.006899201104674096
1.36115625 -0.9883998002693515 0.007016348110431586
1.3623046875 -0.9884974917034712 0.0076991270054347916
1.363453125 -0.9881170988673702 0.006717369045934951
1.3646015625 -0.9895815244092212 0.007127412256495019
1.36575 -0.9886103692866416 0.007514308947470627
1.3668984375 -0.9884527670456253 0.00850890364857633
1.368046875 -0.9897371609547767 0.008567304215753621
1.3691953125 -0.9887918569194615 0.008212277927748188
1.37034375 -0.9877197725464604 0.009288614833481118
1.3714921875 -0.9902383609430774 0.008935538411696725
1.372640625 -0.9907296415850513 0.008240521004699228
1.3737890625 -0.9905049386500875 0.009083737773638315
1.3749375 -0.9917644556197689 0.009532623180395085
1.3760859375 -0.9906626289113937 0.008639917391252805
1.377234375 -0.991712523517919 0.009422367136367585
1.3783828125 -0.9917335605043811 0.008747493698794184
1.37953125 -0.9920914096264726 0.009047797983969291
1.3806796875 -0.9898292479831854 0.008183308665411143
1.381828125 -0.9925901937564892 0.00878049179606559
1.3829765625 -0.9926616591699475 0.008309163038881712
1.384125 -0.9915158173568059 0.00919720910150483
1.3852734375 -0.9910938153380372 0.008397485584571544
1.386421875 -0.9916774614764463 0.009502272486706057
1.3875703125 -0.9912486788281483 0.00717491998315363
1.38871875 -0.9912007977749568 0.00592135433686905
1.3898671875 -0.9918681140300301 0.007384105378500427
1.391015625 -0.9925248590751242 0.007469949035388557
1.3921640625 -0.9938091423270514 0.008194390535583851
1.3933125 -0.9922484097524744 0.007418851595831541
1.3944609375 -0.9930478439318595 0.007277264178505355
1.395609375 -0.9919371558478003 0.0077820911843067275
1.3967578125 -0.9916392891297385 0.006908175341501344
1.39790625 -0.9940668456176409 0.008209249057221105
1.3990546875 -0.9918733456472115 0.006781327182893454
1.400203125 -0.9922708090550221 0.006528791434711939
1.4013515625 -0.9935307203177164 0.006309891986930827
1.4025 -0.993061075013959 0.005992390334937231
1.4036484375 -0.9928516305916597 0.00670146788560666
1.404796875 -0.9927871750258815 0.005469469797152626
1.4059453125 -0.9933665183283462 0.00586295597802533
1.40709375 -0.9920645935890003 0.005514360027717213
1.4082421875 -0.9918392649344066 0.006191124404208215
1.409390625 -0.9925124430383145 0.0051480113905105485
1.4105390625 -0.9909912408941235 0.005710189241297181
1.4116875 -0.9909375152583676 0.005309518500368399
1.4128359375 -0.9914385229083968 0.005463173610652072
1.413984375 -0.9913120490973049 0.005014892006575095
1.4151328125 -0.99120219522465 0.004749398367831753
1.41628125 -0.9910955046960676 0.005101004001935805
1.4174296875 -0.9910968703969861 0.005135548122572442
1.418578125 -0.9897181009539673 0.004627905183088282
1.4197265625 -0.9896213264593448 0.005549508512583234
1.420875 -0.9896034510798168 0.004939632452516413
1.4220234375 -0.9886874649306115 0.00522312243249462
1.423171875 -0.988754918853415 0.005166316977431501
1.4243203125 -0.989326615381116 0.005331398543647919
1.42546875 -0.9877460388471188 0.0053608438258326285
1.4266171875 -0.987250082487723 0.005537419720075987
1.427765625 -0.9885146966758316 0.005794725732844563
1.4289140625 -0.9883529456121207 0.0049801287794843385
1.4300625 -0.9879907639477589 0.0058534558166658535
1.4312109375 -0.9886438659094963 0.00607745798935122
1.432359375 -0.9877342801459252 0.00697326362555753
1.4335078125 -0.987705474348291 0.00691782492320317
1.43465625 -0.9876282300065403 0.0066852194744251026
1.4358046875 -0.9882223818946694 0.0070199391821105794
1.436953125 -0.9868619988329729 0.007546070229228957
1.4381015625 -0.9873377773925475 0.007379544471099786
1.43925 -0.987951000869084 0.007929901167012948
1.4403984375 -0.9880326456091149 0.007965565810119285
1.441546875 -0.9879180115272203 0.008291214077476627
1.4426953125 -0.9879560826241365 0.00908817272928164
1.44384375 -0.9882890614525499 0.009268881189154199
1.4449921875 -0.987527952490769 0.008573277719909761
1.446140625 -0.9878372101399665 0.008069442428073476
1.4472890625 -0.9887420024944843 0.009384062880925775
1.4484375 -0.9870442663694842 0.009760171833072706
1.4495859375 -0.9872520090747946 0.01076013535096268
1.450734375 -0.9872869442421662 0.010184406633131582
1.4518828125 -0.9878543271002512 0.010794801716959346
1.45303125 -0.986939819791815 0.010308158597011535
1.4541796875 -0.988500947416064 0.01096174899214894
1.455328125 -0.9887590802277981 0.010673267119489155
1.4564765625 -0.9890259569106082 0.010671162034832746
1.457625 -0.9898811306768469 0.011211565827436917
1.4587734375 -0.9897239031186381 0.011202197066234765
1.459921875 -0.9896440880578651 0.01026971941502533
1.4610703125 -0.9899884220796884 0.01112600478039838
1.46221875 -0.9907273599983472 0.010639900502912365
1.4633671875 -0.9906287008038518 0.010621550889425097
1.464515625 -0.9905846571864021 0.009737508081338858
1.4656640625 -0.9911607399424861 0.0104149505003244
1.4668125 -0.990562336626686 0.010719066524682337
1.4679609375 -0.9904227226281043 0.009543612102462254
1.469109375 -0.9914492750661572 0.010534139288923182
1.4702578125 -0.9915740751062857 0.00981865847175506
1.47140625 -0.9911020364884597 0.009421643163182045
1.4725546875 -0.990846689479668 0.009481547765394692
1.473703125 -0.9920356272989547 0.010251948079681078
1.4748515625 -0.9908033412154648 0.009533824729264874
1.476 -0.9916553977171905 0.009100646971271845
1.4771484375 -0.9927920392959491 0.008985995134137552
1.478296875 -0.9915246757160309 0.008826213060687316
1.4794453125 -0.9910301687680004 0.008949174961912013
1.48059375 -0.9919029289815614 0.009306166661962254
1.4817421875 -0.9906695996936105 0.00857948019926777
1.482890625 -0.9902053602726713 0.008699773474378239
1.4840390625 -0.9910705087964806 0.009225333444343481
1.4851875 -0.9902605701072544 0.009079766944995335
1.4863359375 -0.9900441358574125 0.008361785588224951
1.487484375 -0.9897924778906717 0.0078098631083670655
1.4886328125 -0.9906821563084494 0.007366540471523561
1.48978125 -0.9897596169713605 0.007618850782751249
1.4909296875 -0.9897565109735335 0.007782280600391989
1.492078125 -0.9900586142177933 0.007557495071234904
1.4932265625 -0.9897225033428392 0.007093220312491433
1.494375 -0.9890960565051173 0.007100011801634248
1.4955234375 -0.9901269633130126 0.007559522108619418
1.496671875 -0.9889890829307209 0.00636785920170134
1.4978203125 -0.9889993498872783 0.005883197468839238
1.49896875 -0.9893016657943509 0.00648934971933221
1.5001171875 -0.9876947576291062 0.006175168502469824
1.501265625 -0.9887704723981813 0.0065717151815039565
1.5024140625 -0.9877871192482461 0.005835064154663505
1.5035625 -0.9867092773442551 0.005448790435051698
1.5047109375 -0.9872048823762024 0.006663455344005198
1.505859375 -0.987750755841825 0.006107318210016921
1.5070078125 -0.9869791723088749 0.0076587559048586495
1.50815625 -0.9861928203784439 0.006829408891239869
1.5093046875 -0.986858568345635 0.008126010552384905
1.510453125 -0.9865741649900992 0.007787095463866578
1.5116015625 -0.985894164465839 0.008242650621435227
1.51275 -0.9869793635088782 0.007605130168240562
1.5138984375 -0.985955239956472 0.008031500240907957
1.515046875 -0.9857845148883926 0.007199479270988823
1.5161953125 -0.9865610874156491 0.008494202814064683
1.51734375 -0.9856916686646857 0.008575381036206878
1.5184921875 -0.9857018991678309 0.008305838662401602
1.519640625 -0.9859768085313907 0.008913224157393096
1.5207890625 -0.9873550616623921 0.008936388083479185
1.5219375 -0.985687664067144 0.00947048847811971
1.5230859375 -0.9864253660908366 0.009610213557856503
1.524234375 -0.9873661282587389 0.009511993176126998
1.5253828125 -0.9865328666627874 0.010538596062128924
1.52653125 -0.9863981652164967 0.009520838007808521
1.5276796875 -0.9880583753063467 0.009680293817318053
1.528828125 -0.9862709219919676 0.01022883546700655
1.5299765625 -0.98732943438626 0.010239170279669148
1.531125 -0.9879769038958861 0.010389394119809048
1.5322734375 -0.9884624099698147 0.009970395341470609
1.533421875 -0.988045840226158 0.009982930548060293
1.5345703125 -0.9882768346144959 0.009510138434331725
1.53571875 -0.990023455244802 0.010425548485893062
1.5368671875 -0.988655899027677 0.009410970895406608
1.538015625 -0.9897141864847341 0.009737413310608775
1.5391640625 -0.9902580940773452 0.009587816457839946
1.5403125 -0.9894565303831317 0.009805941357031514
1.5414609375 -0.9892092878953797 0.00929460938122846
1.542609375 -0.9901802950271544 0.009643239005358739
1.5437578125 -0.990281533812407 0.008999951308374651
1.54490625 -0.989719786036675 0.008178686688465997
1.5460546875 -0.9901729681563592 0.008244295345651326
1.547203125 -0.9902508052455797 0.008232286923113355
1.5483515625 -0.9899966229894824 0.008270900744413057
1.5495 -0.9901315313735342 0.007703806082695885
1.5506484375 -0.9914992880527111 0.007455476373718392
1.551796875 -0.990495025129388 0.007744876052280858
1.5529453125 -0.9904551488183181 0.007448573626015073
1.55409375 -0.9915077927013105 0.007592681306476667
1.5552421875 -0.990672060380751 0.006970707316877808
1.556390625 -0.9903778343928658 0.006555514243629379
1.5575390625 -0.990633695579431 0.006294714727066761
1.5586875 -0.9900382165041897 0.006428790389060121
1.5598359375 -0.9899389011909113 0.006164066703098131
1.560984375 -0.9903638381727277 0.0057478173043200576
1.5621328125 -0.9900051502584098 0.0059041526672371225
1.56328125 -0.9887784422546931 0.0055396420392987145
1.5644296875 -0.9891154734049 0.006014258133292649
1.565578125 -0.9896877974458812 0.005795497290861484
1.5667265625 -0.9883970770756355 0.006271202305538626
1.567875 -0.9874254781657696 0.0059638089276315975
1.5690234375 -0.9886662932450621 0.006488282522390254
1.570171875 -0.9882250639240481 0.0060192635063266164
1.5713203125 -0.9869119682608989 0.005198547245574309
1.57246875 -0.9879794826915149 0.00520042507684329
1.5736171875 -0.9877521741082989 0.005274792295640374
1.574765625 -0.986865837512389 0.00558649714910292
1.5759140625 -0.9878766361254923 0.00471833044981701
1.5770625 -0.9861495834024256 0.004302124601170049
1.5782109375 -0.9874695217504528 0.005241991550587827
1.579359375 -0.986024168351762 0.005226179540136738
1.5805078125 -0.9866619072783989 0.005611485829397633
1.58165625 -0.9859849641043474 0.005252127727262523
1.5828046875 -0.9853881913341116 0.004666163872970142
1.583953125 -0.986234132494528 0.007088723874704661
1.5851015625 -0.9855270117167667 0.006051310246625641
1.58625 -0.9854463324183076 0.005456423787727871
1.5873984375 -0.9855137021656463 0.006051433982542265
1.588546875 -0.9857636552372826 0.0068101661040229355
1.5896953125 -0.9841272061146457 0.007472016114357799
1.59084375 -0.983856366475726 0.006934502065278347
1.5919921875 -0.9854578935340239 0.00674257067229686
1.593140625 -0.9845937248910205 0.007985835090103532
1.5942890625 -0.9851622307964718 0.008693951375635556
1.5954375 -0.9855917684787767 0.007547570401750969
1.5965859375 -0.9841123904665697 0.00764044755954979
1.597734375 -0.9843575620651343 0.007326834955473982
1.5988828125 -0.9861979746005497 0.008676291020425164
1.60003125 -0.9845727803336302 0.009117411548419857
1.6011796875 -0.9845277313603024 0.008781500301562384
1.602328125 -0.9849073110783327 0.009911300284512897
1.6034765625 -0.984858316086836 0.009497664997849598
1.604625 -0.9851105375775255 0.010177827863443178
1.6057734375 -0.9862349078604742 0.009820736610286152
1.606921875 -0.9863653509742824 0.010947191817263613
1.6080703125 -0.9859948960510877 0.010190050104564974
1.60921875 -0.9861415370900524 0.009635694231934333
1.6103671875 -0.9869575500115184 0.010973734638913851
1.611515625 -0.987076056970293 0.010620693270722265
1.6126640625 -0.986849649996558 0.010277667191915557
1.6138125 -0.9872486308264007 0.010167742403117658
1.6149609375 -0.9877143591652725 0.010582098707292098
1.616109375 -0.9869658597336284 0.009987009751163456
1.6172578125 -0.9876082991167346 0.009524901311919187
1.61840625 -0.9879364638101409 0.009729745019890379
1.6195546875 -0.9873643333923776 0.009968709173627771
1.620703125 -0.987886656319571 0.010378958771087965
1.6218515625 -0.9887188628557645 0.010196728402904254
1.623 -0.9881818254320065 0.009270677242021658
1.6241484375 -0.9887996037852517 0.008889925510411179
1.625296875 -0.9892940972446271 0.009584238961193231
1.6264453125 -0.9886898438466389 0.00906349956532082
1.62759375 -0.9889500247326852 0.008907679586435346
1.6287421875 -0.9889338627914727 0.009214688506404695
1.629890625 -0.9887068064936819 0.008544042174639804
1.6310390625 -0.9880969114228634 0.008693744843828621
1.6321875 -0.9886621422544299 0.008377135272155362
1.6333359375 -0.9887919197427855 0.0087327839519869
1.634484375 -0.9880790088369421 0.007863401563598243
1.6356328125 -0.9887169929272823 0.007892989191605193
1.63678125 -0.9896909475262194 0.008475806640875022
1.6379296875 -0.989209626765335 0.007820668783175111
1.639078125 -0.9884681314788206 0.007139898281907656
1.6402265625 -0.9891625890136715 0.007372394915740002
1.641375 -0.9880125657041041 0.006425250035450636
1.6425234375 -0.988212919324934 0.006621244194927711
1.643671875 -0.9891756737195159 0.007130699969058393
1.6448203125 -0.9882471851779919 0.006936418169403227
1.64596875 -0.9874173283542074 0.0056792544381106536
1.6471171875 -0.9882026742306048 0.0058655072513748435
1.648265625 -0.9883248453220077 0.006041473880623954
1.6494140625 -0.9868509280713101 0.0056298364087223746
1.6505625 -0.987323087236425 0.005864343351598772
1.6517109375 -0.9875856391996765 0.006108993696092996
1.652859375 -0.9869156425720585 0.006697342210557983
1.6540078125 -0.9868684082378651 0.006017063288214657
1.65515625 -0.9867714055075874 0.006422524636505056
1.6563046875 -0.9866480908127485 0.006249528919494256
1.657453125 -0.9862217115411088 0.006054922175197638
1.6586015625 -0.9871028243844073 0.006292680599226899
1.65975 -0.9861339517201434 0.006751102197953496
1.6608984375 -0.9851320908761431 0.00684748604532872
1.662046875 -0.9855884079050924 0.006948567471725887
1.6631953125 -0.986670781792757 0.006857702248760755
1.66434375 -0.9849287711813545 0.006787238302008867
1.6654921875 -0.9854274324518512 0.006978905541606423
1.666640625 -0.9862823320155049 0.007425474023593951
1.6677890625 -0.9845950692737651 0.007317087364101239
1.6689375 -0.9846677906478272 0.0070917363483344945
1.6700859375 -0.9853721906822986 0.007561064442418476
1.671234375 -0.9850482713229461 0.007742194408212226
1.6723828125 -0.9841247040702303 0.007875702824952244
1.67353125 -0.9849425655607436 0.00823349861918452
1.6746796875 -0.9853197025570419 0.008636871312162845
1.675828125 -0.9842358841725193 0.008592786914506604
1.6769765625 -0.9845137459816641 0.009073754001037201
1.678125 -0.9854015646367116 0.009243470239520487
1.6792734375 -0.9841217670395399 0.008882664658564809
1.680421875 -0.9852483358581848 0.009149706351504893
1.6815703125 -0.9856964443186764 0.008712112948560431
1.68271875 -0.9849916589348013 0.009533847443390243
1.6838671875 -0.9844117063419802 0.009213216874754081
1.685015625 -0.9854856097968125 0.00888858395089965
1.6861640625 -0.985782111287447 0.00950156438654714
1.6873125 -0.9843078110233558 0.008419344500910017
1.6884609375 -0.9862401872503286 0.008768638490517802
1.689609375 -0.9871885032259281 0.00910736506109763
1.6907578125 -0.9851021592840057 0.008429136173323236
1.69190625 -0.9868536624542248 0.008528242502296184
1.6930546875 -0.9880912187215428 0.008939371187799331
1.694203125 -0.9869276741537198 0.008209934101411083
1.6953515625 -0.9867405538737722 0.008329888501727403
1.6965 -0.9877531103153214 0.008162458334930511
1.6976484375 -0.9870902520970085 0.008065154565069715
1.698796875 -0.9868778431248505 0.0074067609375670085
1.6999453125 -0.9880517210884651 0.008053535211143038
1.70109375 -0.9882002067321174 0.007285026437868179
1.7022421875 -0.9864222699243989 0.007033445473119612
1.703390625 -0.987213314970593 0.007019980267004636
1.7045390625 -0.9889590264583916 0.008167422218503854
1.7056875 -0.9875681639849769 0.007215461712206453
1.7068359375 -0.9878003436999894 0.007645774279550266
1.707984375 -0.9887351783246987 0.006940744166011106
1.7091328125 -0.9885974341271326 0.006381315709002855
1.71028125 -0.9867662045341158 0.00666479456673226
1.7114296875 -0.9879047944678725 0.005963292911610976
1.712578125 -0.987102903430403 0.006542003650835099
1.7137265625 -0.9864746605000356 0.006222808636620808
1.714875 -0.9884766799777925 0.0057915470018561205
1.7160234375 -0.9877693946978118 0.006605844557494439
1.717171875 -0.985779676843106 0.005570299801291062
1.7183203125 -0.9871621407759095 0.006358433087414031
1.71946875 -0.9879719831974878 0.006657766020826683
1.7206171875 -0.9855280832431355 0.005707424502898795
1.721765625 -0.9863791731537405 0.005582012991069238
1.7229140625 -0.9876130801704739 0.005925310658643074
1.7240625 -0.9861815135277515 0.005939410346263385
1.7252109375 -0.9854528061625717 0.00564333845421866
1.726359375 -0.9864589108342998 0.005388179764876211
1.7275078125 -0.9857538756447778 0.005977969915239356
1.72865625 -0.9849214440052698 0.00554320262231478
1.7298046875 -0.9857669971556937 0.005523560012745371
1.730953125 -0.9856343381705408 0.006141548901765076
1.7321015625 -0.9843140666029775 0.005024133410506254
1.73325 -0.9855215253858871 0.005644960436282848
1.7343984375 -0.9863026381125076 0.0060527897594635505
1.735546875 -0.9846721828122245 0.005003891428754681
1.7366953125 -0.9847658716764426 0.004795072921837923
1.73784375 -0.9857484950821488 0.005596103842817446
1.7389921875 -0.9846745377801941 0.005432395577443461
1.740140625 -0.9840143664797972 0.004848244626963427
1.7412890625 -0.9853706354965752 0.0053102976640189425
1.7424375 -0.9851541013582784 0.005881500538840706
1.7435859375 -0.9832190878319266 0.005315607870728045
1.744734375 -0.9843005702129033 0.00576480230006729
1.7458828125 -0.9848849165020162 0.006176997472414764
1.74703125 -0.9832189520943966 0.005378352515841345
1.7481796875 -0.9840545392320874 0.005715087760115506
1.749328125 -0.9852494549282923 0.006223273124740136
1.7504765625 -0.9838504040328754 0.0058612558031818085
1.751625 -0.9837399332576666 0.006005272668439338
1.7527734375 -0.9850961100928131 0.005946662864193181
1.753921875 -0.9846046495119427 0.005872168941677719
1.7550703125 -0.9837688874004362 0.006125228623135637
1.75621875 -0.9850747005715479 0.00585565738039856
1.7573671875 -0.9854725651985318 0.006646120606545347
1.758515625 -0.9831070311774223 0.00548133125886735
1.7596640625 -0.9845721506368968 0.006446803752336416
1.7608125 -0.9864433508112064 0.007360217262113444
1.7619609375 -0.984187608892691 0.006181715501724749
1.763109375 -0.9844942838162588 0.006493582748011095
1.7642578125 -0.9858491735108125 0.0068083462828831265
1.76540625 -0.984493199165593 0.006151005312833024
1.7665546875 -0.9850298288128717 0.006788664621104112
1.767703125 -0.9867516874052167 0.0068033018074942775
1.7688515625 -0.9860666786179152 0.0075632550766271955
1.77 -0.9851155949985407 0.006238699577750029
1.7711484375 -0.9861423951474696 0.006941155632264662
1.772296875 -0.9871537995635772 0.00643926789403565
1.7734453125 -0.9852839513784696 0.00494238104851763
1.77459375 -0.9858018227267975 0.00510824421290107
1.7757421875 -0.9880351581807694 0.005859752254684714
1.776890625 -0.9857256634150453 0.004841839203957088
1.7780390625 -0.9864067876139141 0.006227110818654791
1.7791875 -0.9869700731979554 0.0061688993033610084
1.7803359375 -0.9864437633558288 0.0053036515461954425
1.781484375 -0.9854064920319948 0.00472858949568028
1.7826328125 -0.9873037851240856 0.004962045653802427
1.78378125 -0.986489339043242 0.005886797837737878
1.7849296875 -0.9841393359188556 0.004670666500024845
1.786078125 -0.9863507698528751 0.004508873739976105
1.7872265625 -0.9863082984757561 0.005992762771673377
1.788375 -0.9850388340539437 0.004057426203409986
1.7895234375 -0.9852492408797117 0.003919442553208308
1.790671875 -0.986201739325054 0.004550276915861573
1.7918203125 -0.9849710189218991 0.0044288602717443
1.79296875 -0.9852501497497008 0.0037582742746759545
1.7941171875 -0.9864168601051327 0.003935815929500958
1.795265625 -0.985437412002266 0.004634628793436679
1.7964140625 -0.9850709179013988 0.003464506585456828
1.7975625 -0.9860572526474444 0.004163135253197003
1.7987109375 -0.986211685824985 0.004875455000667772
1.799859375 -0.984273376055191 0.0038148686238790863
1.8010078125 -0.9859772249026777 0.004418745219910397
1.80215625 -0.9866899279866982 0.004235355601247215
1.8033046875 -0.9838366408770749 0.004184323846240817
1.804453125 -0.9847958675403177 0.003968295928953952
1.8056015625 -0.9860114035892064 0.00415035162938282
1.80675 -0.9834332575912189 0.003756523866142919
1.8078984375 -0.9831508018016026 0.003456097484637294
1.809046875 -0.9854025270509861 0.004228518929677599
1.8101953125 -0.984814250834512 0.004201995900010302
1.81134375 -0.9832215729618222 0.004014598169989114
1.8124921875 -0.9845629454368806 0.004362015943615322
1.813640625 -0.9851530829413647 0.004919042407909496
1.8147890625 -0.9826361156815975 0.004173079516540945
1.8159375 -0.9844451442074704 0.004686022824363895
1.8170859375 -0.9855572782993335 0.004849875382097774
1.818234375 -0.9835700753357428 0.004183133518719018
1.8193828125 -0.9836063756783731 0.004221751692008446
1.82053125 -0.9851745303861495 0.004503756900419292
1.8216796875 -0.9838178577729328 0.004611435725138946
1.822828125 -0.983191325903359 0.003700733145676441
1.8239765625 -0.9854064781515015 0.0049418824475989664
1.825125 -0.9851723441074494 0.005088237451026184
1.8262734375 -0.9826181736277271 0.0041373323267655665
1.827421875 -0.9844847492283784 0.004585850013340789
1.8285703125 -0.9859155152367076 0.004848162826258259
1.82971875 -0.9836538239253048 0.00371557793841637
1.8308671875 -0.984340320207195 0.0041286851203054115
1.832015625 -0.9858522251948867 0.004757227033929445
1.8331640625 -0.9831352809927617 0.0045323772650014416
1.8343125 -0.983244821471979 0.004034263985252709
1.8354609375 -0.9857047419127165 0.0043013081007990395
1.836609375 -0.9847839902113678 0.004461355069626208
1.8377578125 -0.9836924593751233 0.00356505771775488
1.83890625 -0.986190804667574 0.004884769798618252
1.8400546875 -0.9860453137037807 0.004865233361606769
1.841203125 -0.9830907913865502 0.002719368343876087
1.8423515625 -0.9857003791044037 0.003614565695012742
1.8435 -0.9865042276532515 0.004154735517616082
1.8446484375 -0.9833922441430398 0.00427518750312135
1.845796875 -0.9847851271949236 0.0037285411723318035
1.8469453125 -0.9865356774986537 0.003291609555993183
1.84809375 -0.9848374374675457 0.00414019341615908
1.8492421875 -0.9840168905514008 0.0031262476224228897
1.850390625 -0.9861233039624285 0.0036347664790227774
1.8515390625 -0.9853101754205968 0.003701960622766967
1.8526875 -0.9834799215739876 0.00287045478460881
1.8538359375 -0.9857073378819343 0.0033216504841917256
1.854984375 -0.9869675832443076 0.0031302167396875177
1.8561328125 -0.9839702063517963 0.0031067927240689894
1.85728125 -0.9853877918283709 0.0033513033690635713
1.8584296875 -0.9863816258029454 0.003966087837402016
1.859578125 -0.9841109976836866 0.003367598561329982
1.8607265625 -0.9845033706011869 0.0028738757591897576
1.861875 -0.9868908043382721 0.003850806797392102
1.8630234375 -0.9857824476377823 0.003983183289157918
1.864171875 -0.984239564574559 0.0029539308895651824
1.8653203125 -0.986513146835714 0.0033264726223799944
1.86646875 -0.9863728499216651 0.0033822167980011725
1.8676171875 -0.9838348144936345 0.00272655854107344
1.868765625 -0.9860180143465789 0.0030150013441361603
1.8699140625 -0.987236362487995 0.0034382567918983115
1.8710625 -0.9838293504628852 0.0027167774300839095
1.8722109375 -0.9851187019893946 0.0022786965412812075
1.873359375 -0.986888881978239 0.0030267822098991887
1.8745078125 -0.9845738916879744 0.0023615227449886294
1.87565625 -0.9842124751246899 0.0020299231219332026
1.8768046875 -0.9865714046079871 0.0026602562534527516
1.877953125 -0.9861218590450281 0.002376722145051316
1.8791015625 -0.9839731149667211 0.0015281575569095936
1.88025 -0.9862467482737307 0.0022161564003577126
1.8813984375 -0.9865641823749439 0.002730686607410559
1.882546875 -0.9837269979717238 0.0016938823791284169
1.8836953125 -0.9852503039369725 0.001982717322031688
1.88484375 -0.9868499376798178 0.002545339965832543
1.8859921875 -0.9839549584208666 0.001941809891789402
1.887140625 -0.9846023216172587 0.0018864089036419174
1.8882890625 -0.9872137266017672 0.002232557600981372
1.8894375 -0.9852006348531159 0.0019462901675327757
1.8905859375 -0.9843136712855916 0.0012500607782938017
1.891734375 -0.9865708995201331 0.001954531756107665
1.8928828125 -0.9871478834658318 0.0024694548102228986
1.89403125 -0.9852912086552841 0.0013956798679316818
1.8951796875 -0.9865155479438694 0.0016565056473907686
1.896328125 -0.9877057106042685 0.001961142919781514
1.8974765625 -0.9843867301659858 0.001427682756647522
1.898625 -0.9862482281758044 0.002116369799476145
1.8997734375 -0.9882303887944609 0.0018414851488148115
1.900921875 -0.9855004585750071 0.0015807020528496862
1.9020703125 -0.9845710421577619 0.0010535868526986847
1.90321875 -0.9881336408011209 0.001886674064544444
1.9043671875 -0.9862229197075418 0.0022936927982461913
1.905515625 -0.9842633968702171 0.0005719571173636168
1.9066640625 -0.9880890174737257 0.0019462921391601717
1.9078125 -0.9882639872987742 0.0019451502918796937
1.9089609375 -0.9851293867561716 0.0003700294148130112
1.910109375 -0.9869770074268641 0.0015125007851776728
1.9112578125 -0.9886768563667748 0.0018052279797872162
1.91240625 -0.9847666767887673 0.0007598712792262208
1.9135546875 -0.9853659954220647 0.000657975567516067
1.914703125 -0.9879421493873854 0.0010971893221178863
1.9158515625 -0.9854420537755352 0.001745356271054932
1.917 -0.984835822551922 0.000778840842152323
1.9181484375 -0.9877608497250047 0.0015770532739203535
1.919296875 -0.9873305196966118 0.00226126990421896
1.9204453125 -0.9846677570040445 0.0005414843289017202
1.92159375 -0.9869137322429409 0.000821201597226151
1.9227421875 -0.9875338263871748 0.00177607606437577
1.923890625 -0.9832184876582233 0.0005234421884577067
1.9250390625 -0.9851626247327174 0.0008195470049300324
1.9261875 -0.9876023605149544 0.001799416710182744
1.9273359375 -0.9844444153398513 0.0005678164827091492
1.928484375 -0.9849199630112556 0.00047238895181000995
1.9296328125 -0.9874921466025975 0.00119995522640437
1.93078125 -0.9859506079783961 0.0012103945021032514
1.9319296875 -0.9835341139028186 -0.00010296869932363562
1.933078125 -0.9867293707136916 0.0006514232082910909
1.9342265625 -0.9866763986617357 0.0014477505145784053
1.935375 -0.983394950148827 -1.2480063829478638e-05
1.9365234375 -0.9858054467803813 0.00020164612915296587
1.937671875 -0.9876758871077105 0.0009925005859625358
1.9388203125 -0.9833250216612011 -0.000532483085471186
1.93996875 -0.9850218996432563 -6.21843307225256e-05
1.9411171875 -0.9869419255756853 0.0009225089586123725
1.942265625 -0.9843661013323342 0.00010528084375588387
1.9434140625 -0.9839302797505446 -0.0006528036508662849
1.9445625 -0.9867943672639896 9.865536988062917e-05
1.9457109375 -0.9859191930978909 0.00024065584572174892
1.946859375 -0.9833403883107237 -0.0008978475551865983
1.9480078125 -0.9862709049489604 -0.00012367816837632883
1.94915625 -0.9873147355924459 0.0004667680370174787
1.9503046875 -0.9831458285388956 -0.0008486187103357856
1.951453125 -0.9854080777106297 -0.00028228850811767847
1.9526015625 -0.987356483230783 0.0005027547191757131
1.95375 -0.9832688421540838 -0.00016732248275419526
1.9548984375 -0.9845653163414901 -0.00045669804238537837
1.956046875 -0.9871925537147036 0.0008348271375981653
1.9571953125 -0.9854251532790076 0.00043193348049175295
1.95834375 -0.9840814879244273 -0.0004962182871759424
1.9594921875 -0.9872095983748796 0.0008828918144631881
1.960640625 -0.9869306680345298 0.0008873611444420448
1.9617890625 -0.983423453913455 -0.00024060494330940818
1.9629375 -0.9863871138361222 0.0003548097100998515
1.9640859375 -0.9878129663288221 0.0009751281466001127
1.965234375 -0.9831428412482808 -0.00011765210110253888
1.9663828125 -0.9854086790070669 -0.00014166459720763025
1.96753125 -0.9881795740844449 0.0006936300623726632
1.9686796875 -0.9839599485332534 0.00015440113132328404
1.969828125 -0.9847161955963522 -0.0005703550948155944
1.9709765625 -0.9877526047182222 0.0006081100268449102
1.972125 -0.9858952591248105 0.000761285739480394
1.9732734375 -0.9839811395150785 -0.0013598516646957104
1.974421875 -0.9871994820540734 0.00011743286001017483
1.9755703125 -0.9874508255909841 0.000283246179806379
1.97671875 -0.9834054635453853 -0.0006576636192525409
1.9778671875 -0.9856982385600178 -0.0003386174534881492
1.979015625 -0.9879269713190675 -6.059334886490686e-05
1.9801640625 -0.9833416804386428 -0.0005955574875123881
1.9813125 -0.9858000883190357 -0.0008495068610746559
1.9824609375 -0.9881268952176362 0.0003298340478484485
1.983609375 -0.9850778186280497 0.00014973319512323613
1.9847578125 -0.9842008571318865 -0.0008771813893882069
1.98590625 -0.9876537842594213 6.915834277057553e-05
1.9870546875 -0.9869990485447102 0.0007997272972405378
1.988203125 -0.9836126397086244 -0.0010886565206452425
1.9893515625 -0.9873733716490429 4.00968047218897e-05
1.9905 -0.9880738320667919 2.0100304253201084e-05
1.9916484375 -0.9832267524312102 -0.0010639480797101641
1.992796875 -0.9861476224811703 -0.0002457604240229394
1.9939453125 -0.9886637745627349 0.00020439511328676496
1.99509375 -0.9841207130019276 -0.00040628321377460946
1.9962421875 -0.9848650970894481 -0.000936034415577193
1.997390625 -0.9878791119529983 0.00011715381131605779
1.9985390625 -0.9856392348010327 -0.00026429112101624547
1.9996875 -0.9835200627125518 -0.0011235941254904847
2.0008359375 -0.9877809383627263 0.00011846039055454782
2.001984375 -0.9878024932028042 0.0004989200607355138
2.0031328125 -0.9834033630336433 -0.0011175795246282094
2.00428125 -0.9868924632570709 -0.0006549058988113976
2.0054296875 -0.9884573440845579 0.0003130944689669346
2.006578125 -0.9832000708932275 -0.0010966105106572852
2.0077265625 -0.9857608969635618 -0.0007688372684717809
2.008875 -0.988457258550951 0.0003619185022859378
2.0100234375 -0.9849098131271048 -0.0003639116095022904
2.011171875 -0.9846506114879462 -0.001429722338369535
2.0123203125 -0.9880134242597838 -0.00019765180407882443
2.01346875 -0.9865558828045013 3.735481807307095e-05
2.0146171875 -0.9837591049944598 -0.0013907347915226853
2.015765625 -0.9876407497385795 -0.0005397892201898374
2.0169140625 -0.9885502001031792 -9.913296249675074e-05
2.0180625 -0.9833251437781025 -0.0015932163791495466
2.0192109375 -0.9863203495186454 -0.0009658708498910956
2.020359375 -0.9885803338963002 8.096818071912787e-05
2.0215078125 -0.983694103559537 -0.0009934001280405141
2.02265625 -0.9849886922948295 -0.001495759136004221
2.0238046875 -0.9886404574701639 -3.615681669041915e-05
2.024953125 -0.9852220010414768 -0.0008176220134655798
2.0261015625 -0.98412627153479 -0.0014158514496056124
2.02725 -0.9883622524357492 7.237760793177284e-05
2.0283984375 -0.987713097709761 -0.00020668940119769608
2.029546875 -0.9837741297223488 -0.001978964134086325
2.0306953125 -0.9875769259378135 -0.0005595593752397571
2.03184375 -0.9891538365136294 -0.00028317422528505165
2.0329921875 -0.9836498857288154 -0.0015203492048346812
2.034140625 -0.9862578468151431 -0.0010859204388261184
2.0352890625 -0.9885645416511835 -0.0003945367830457541
2.0364375 -0.9850919394238306 -0.0016130281566860277
2.0375859375 -0.985421872892869 -0.002369489551565268
2.038734375 -0.9881493332035645 -0.0008160098775735342
2.0398828125 -0.9862413631124964 -0.0012419812254076401
2.04103125 -0.9840483827237059 -0.0019433705672790291
2.0421796875 -0.9875184385954965 -0.0011523505761051323
2.043328125 -0.9881414700722505 -0.0008105048540046622
2.0444765625 -0.983251825173616 -0.0017586275937745977
2.045625 -0.9862987652800459 -0.0010349989190755193
2.0467734375 -0.9891277799138771 0.00027533364859876064
2.047921875 -0.9837203522299007 -0.0018180249685501165
2.0490703125 -0.9860520308595293 -0.0019579573339531114
2.05021875 -0.9886217444424625 -0.0004786772758465785
2.0513671875 -0.9845719842576313 -0.0013807513684956363
2.052515625 -0.9841742654222809 -0.002834995232943116
2.0536640625 -0.9886226887606759 -0.001303661482523838
2.0548125 -0.9874584514420703 -0.0010317135168838865
2.0559609375 -0.9833591746364831 -0.00247497358459986
2.057109375 -0.9875539997794881 -0.0012401388838075844
2.0582578125 -0.9883140011663263 -0.0008961876647883699
2.05940625 -0.9829955340223245 -0.0029774851048465084
2.0605546875 -0.9861546475981048 -0.0019892567573905062
2.061703125 -0.9885950553501623 -0.0006716387357302289
2.0628515625 -0.983371161515085 -0.0022370989818958215
2.064 -0.9852625822729819 -0.0026292317181549757
2.0651484375 -0.9888934381783923 -0.0016896729976541291
2.066296875 -0.9855910130173838 -0.0017845015839193512
2.0674453125 -0.9835935906438875 -0.0031940641189435112
2.06859375 -0.9881818688117965 -0.002001786371893209
2.0697421875 -0.9878777941553445 -0.0018004757724652959
2.070890625 -0.9829971686777464 -0.003718439286594967
2.0720390625 -0.9872070985787155 -0.0023603987700421686
2.0731875 -0.9887961371584151 -0.0013929857598418416
2.0743359375 -0.9828358805496394 -0.003222267778979805
2.075484375 -0.9861730598618006 -0.003085873329270121
2.0766328125 -0.9886612672380394 -0.0016470597474858052
2.07778125 -0.9844711361394056 -0.002486113915590102
2.0789296875 -0.9844185867752226 -0.003492776653302162
2.080078125 -0.9891180292370402 -0.002475333298857815
2.0812265625 -0.9889884443071949 -0.002484286509100455
2.082375 -0.9830718568501522 -0.0034354116273750263
2.0835234375 -0.9847766836316731 -0.0037890280549493643
2.084671875 -0.9889255413166685 -0.002165803724736539
2.0858203125 -0.9902484408093877 -0.0016669822127641475
2.08696875 -0.9904953521010428 -0.0016645805133799103
2.0881171875 -0.9899287899900795 -0.001764643747826148
2.089265625 -0.9849984898440995 -0.00286214780617413
2.0904140625 -0.9852957366638972 -0.003934890805337293
2.0915625 -0.9897892450078143 -0.0021971454022479964
2.0927109375 -0.9878291534056516 -0.002084630090521497
2.093859375 -0.9840684851672279 -0.0042198895217269786
2.0950078125 -0.989020576655353 -0.003483472129015175
2.09615625 -0.9911917305164891 -0.002697757495708504
2.0973046875 -0.9848574523224533 -0.004335883381303925
2.098453125 -0.9891387152628821 -0.004304256013279828
2.0996015625 -0.9909450299415314 -0.003446040587874344
2.10075 -0.985298290748049 -0.0037433823681516376
2.1018984375 -0.9860307051759527 -0.005425957790444039
2.103046875 -0.9908329278051538 -0.003047211318296175
2.1041953125 -0.988311476658408 -0.003588448479976414
2.10534375 -0.9854028836280252 -0.0055059347305102535
2.1064921875 -0.9897881056121449 -0.00379669043921374
2.107640625 -0.9903283003615946 -0.003986035102559654
2.1087890625 -0.983549253914142 -0.005086392633272638
2.1099375 -0.9886597212122146 -0.004498608088151501
2.1110859375 -0.9904710078653686 -0.0036996593278664364
2.112234375 -0.9840882700437881 -0.005376776351246199
2.1133828125 -0.9874382901625794 -0.005485178585218492
2.11453125 -0.9907670226277684 -0.003886456169098648
2.1156796875 -0.9866064093871713 -0.004598505927317226
2.116828125 -0.9851202616746764 -0.0060897699215232
2.1179765625 -0.9897620874256988 -0.004173579909757669
2.119125 -0.9874811291711848 -0.004108567140647945
2.1202734375 -0.9827847936649817 -0.006374045528766803
2.121421875 -0.988477249386906 -0.0049548386557674295
2.1225703125 -0.9897471534948921 -0.004007693894676673
2.12371875 -0.9831045769578137 -0.006179346132327096
2.1248671875 -0.9874210418059113 -0.005155758751315381
2.126015625 -0.9895974188982501 -0.004318844536641844
2.1271640625 -0.9843087528470451 -0.00504375773283551
2.1283125 -0.9846948037520432 -0.0060298332869949955
2.1294609375 -0.9893172225356999 -0.004289887626266309
2.130609375 -0.9863685227692998 -0.0045777729760483055
2.1317578125 -0.9832451583152446 -0.006396314702592526
2.13290625 -0.9885460856027346 -0.0044365052134694855
2.1340546875 -0.9886216009749063 -0.004381803839201226
2.135203125 -0.9826936502881692 -0.0067575782751634755
2.1363515625 -0.987727509507427 -0.004870653183697893
2.1375 -0.9898069067866369 -0.004163949122212879
2.1386484375 -0.9830874539911497 -0.005646106647239135
2.139796875 -0.9867021488909669 -0.005751316926584843
2.1409453125 -0.9899618223433126 -0.004692455273575785
2.14209375 -0.9851108339058248 -0.0052519515964131736
2.1432421875 -0.9848414453952805 -0.006446407004905744
2.144390625 -0.9894808071663417 -0.004615895503382608
2.1455390625 -0.9881614072350422 -0.004320692818202243
2.1466875 -0.9835844291366886 -0.006094499776851711
2.1478359375 -0.9891528939353588 -0.004486560372403872
2.148984375 -0.9902290537212308 -0.003935948816567045
2.1501328125 -0.983713503672032 -0.005739413366617999
2.15128125 -0.9885597204715517 -0.004886325572341699
2.1524296875 -0.9907334603769054 -0.0036247269470428695
2.153578125 -0.9841993883870741 -0.005465062069321125
2.1547265625 -0.9871316354478424 -0.005459090901749952
2.155875 -0.9909022462225705 -0.0037920544518764976
2.1570234375 -0.9872424232038526 -0.004435798369737842
2.158171875 -0.9852439913297425 -0.0052949065637050916
2.1593203125 -0.991072618891978 -0.0038453624392243576
2.16046875 -0.9903659866808416 -0.003256851458962026
2.1616171875 -0.9854735237303505 -0.0055931850253126
2.162765625 -0.9907712431776111 -0.004066228187895246
2.1639140625 -0.9929758711469341 -0.003475001979940745
2.1650625 -0.9850095294731509 -0.0052461528261602
2.1662109375 -0.9895262506065734 -0.004878419915325588
2.167359375 -0.9932827151592991 -0.0037724582293137687
2.1685078125 -0.987103706356277 -0.0043541892437287955
2.16965625 -0.9881134788552818 -0.006370276549251042
2.1708046875 -0.993839168585833 -0.00377378085841535
2.171953125 -0.990170544513671 -0.004723935816027744
2.1731015625 -0.9868705106513802 -0.006583071775288912
2.17425 -0.992711895451581 -0.0052592849204760456
2.1753984375 -0.9928574061991623 -0.004850206864685125
2.176546875 -0.9855460333526123 -0.00683222370743064
2.1776953125 -0.9911090516576897 -0.006326779263990709
2.17884375 -0.9932905786763618 -0.005657473387582865
2.1799921875 -0.985906785488911 -0.007152823117184751
2.181140625 -0.9895259320507274 -0.006467730030162128
2.1822890625 -0.9933802503685174 -0.005618258651805277
2.1834375 -0.9892421298575873 -0.006085856519891228
2.1845859375 -0.986825344325182 -0.00797048208981721
2.185734375 -0.9923544197415182 -0.006124347691805962
2.1868828125 -0.9911806045226197 -0.0062537165587815
2.18803125 -0.9850425836301435 -0.008041988992332744
2.1891796875 -0.9912389860529639 -0.006832100610505917
2.190328125 -0.9925207790249029 -0.005956891816026599
2.1914765625 -0.9844317002887646 -0.008101241358353772
2.192625 -0.9888120226927954 -0.0075839924388898805
2.1937734375 -0.9917943667021715 -0.006079614085589269
2.194921875 -0.9845768436736666 -0.007702695060895159
2.1960703125 -0.9861716849166283 -0.008304776184620555
2.19721875 -0.9904251271355242 -0.006404492973304504
2.1983671875 -0.9879004463444379 -0.006865187685355295
2.199515625 -0.9838432872390859 -0.008826251440919614
2.2006640625 -0.9894024001926641 -0.006518099712267494
2.2018125 -0.9900692713352619 -0.006011649279683395
2.2029609375 -0.982961481364002 -0.008767451307448215
2.204109375 -0.9889567170756427 -0.007301882465841125
2.2052578125 -0.9912911382954555 -0.006672588951821323
2.20640625 -0.98316505111941 -0.008613480074619956
2.2075546875 -0.9871369118031816 -0.00818909537271173
2.208703125 -0.9910118426087979 -0.006126569187125286
2.2098515625 -0.9848457624882239 -0.007547884089308232
2.211 -0.9856622303357268 -0.008951484840056118
2.2121484375 -0.9910824255015659 -0.007126083467272504
2.213296875 -0.9892745896151728 -0.007284142362370377
2.2144453125 -0.9834627829147141 -0.009080950045947195
2.21559375 -0.9898137595209207 -0.0067922790265678434
2.2167421875 -0.9912378408861755 -0.0059136492604341395
2.217890625 -0.9825562824444534 -0.008337487931794701
2.2190390625 -0.9885608120859934 -0.0074686561433789656
2.2201875 -0.9918057349998617 -0.0062488050035960085
2.2213359375 -0.9840775471878541 -0.007304334595292061
2.222484375 -0.9869953049083354 -0.00785707266798713
2.2236328125 -0.9917575254417459 -0.0063974182638192045
2.22478125 -0.9877436540942384 -0.006511745517421286
2.2259296875 -0.9856813268084123 -0.008037759549455792
2.227078125 -0.9911671627708211 -0.0054917401141439115
2.2282265625 -0.9908139719636986 -0.005554802412304244
2.229375 -0.9845891236173301 -0.007932835722557291
2.2305234375 -0.9911202198325185 -0.00553505806225657
2.231671875 -0.9940486062064289 -0.005235010662522438
2.2328203125 -0.9849958212513091 -0.007584859177068332
2.23396875 -0.9905310183447043 -0.005825212405083241
2.2351171875 -0.9935075044282069 -0.0051995659990052845
2.236265625 -0.9880190241760417 -0.006934509121197668
2.2374140625 -0.9884514506802243 -0.007364681585918631
2.2385625 -0.9952112523040625 -0.0054583819388480115
2.2397109375 -0.9917738957155103 -0.005736891002976224
2.240859375 -0.9885335718185349 -0.008330791833208062
2.2420078125 -0.9953549480503583 -0.006437773565899613
2.24315625 -0.9966567911471661 -0.00661426650444949
2.2443046875 -0.9870949692050175 -0.008440326691131678
2.245453125 -0.9938135092321464 -0.007657756723727593
2.2466015625 -0.9967714939184008 -0.007168082346339588
2.24775 -0.9889431146778347 -0.008665223734491245
2.2488984375 -0.9922547047280921 -0.009769948532761225
2.250046875 -0.9971206272133355 -0.00739881168513884
2.2511953125 -0.9919225346756666 -0.008743961203704298
2.25234375 -0.9888675865640062 -0.008561744632637466
2.2534921875 -0.9949552497565264 -0.007170135438686734
2.254640625 -0.9941019491485663 -0.007252744358343985
2.2557890625 -0.987207451367655 -0.010103012029977695
2.2569375 -0.9945265112066285 -0.007594604685821543
2.2580859375 -0.9961894936961306 -0.006622804138718005
2.259234375 -0.9865847339127677 -0.009857781147493513
2.2603828125 -0.9925313977500518 -0.009301741119202497
2.26153125 -0.9953642920418285 -0.008146153143706786
2.2626796875 -0.9883783568110358 -0.009994118469310656
2.263828125 -0.9892846054483456 -0.010391883990330197
2.2649765625 -0.9945676068672469 -0.007822564691834274
2.266125 -0.9917180133152576 -0.008450050716791155
2.2672734375 -0.9868208029562398 -0.010430151798723648
2.268421875 -0.9940595089308778 -0.008169739374140783
2.2695703125 -0.9926053154242201 -0.008141251342937798
2.27071875 -0.9856787021184047 -0.010660688517819386
2.2718671875 -0.9921573059877077 -0.008810239939009062
2.273015625 -0.9938758999223497 -0.007891760669336195
2.2741640625 -0.9848711673356539 -0.010235751088060414
2.2753125 -0.9895746128982265 -0.009493120159046388
2.2764609375 -0.9930646746940424 -0.007966282205948999
2.277609375 -0.987544270776346 -0.009041673562528926
2.2787578125 -0.9872207040858101 -0.010700246626902114
2.27990625 -0.9927422447275995 -0.0078053592742706665
2.2810546875 -0.9910086378111251 -0.007948422552310784
2.282203125 -0.9856830585995943 -0.010048575035694254
2.2833515625 -0.9925990249646325 -0.008126733480276559
2.2845 -0.9946050614639408 -0.007550816644950461
2.2856484375 -0.9849432672371484 -0.009627621318999371
2.286796875 -0.9914407341701318 -0.008770579516026916
2.2879453125 -0.994357748736021 -0.007514451720681603
2.28909375 -0.9861210702577594 -0.009982042855919644
2.2902421875 -0.9887736805543422 -0.00933272956667535
2.291390625 -0.9936144388622297 -0.007436913683360916
2.2925390625 -0.9895420747381114 -0.007366755859307832
2.2936875 -0.9860444379317105 -0.009344980441621778
2.2948359375 -0.9929004468172022 -0.006173122457991745
2.295984375 -0.9931208593347407 -0.006254752041271364
2.2971328125 -0.9849404814984363 -0.00870011149409318
2.29828125 -0.9925691089687361 -0.006632815395266764
2.2994296875 -0.9952317565421669 -0.005593317524413971
2.300578125 -0.9851101895116399 -0.008696352468598734
2.3017265625 -0.9924336661206927 -0.006499730485027864
2.302875 -0.9963439202501984 -0.00475292036896926
2.3040234375 -0.9878582333707266 -0.006675521242457683
2.305171875 -0.9896220822894424 -0.007000561532783639
2.3063203125 -0.9950549483696102 -0.0055780867524165695
2.30746875 -0.9921466528741177 -0.00610322652503012
2.3086171875 -0.9873762092414421 -0.008225014162977717
2.309765625 -0.9948640070801379 -0.006088040329953429
2.3109140625 -0.9954217553474751 -0.004809600069823117
2.3120625 -0.9868069177871192 -0.007596014530268959
2.3132109375 -0.9938684089192569 -0.00584939645754165
2.314359375 -0.9968218014674346 -0.005457252343466515
2.3155078125 -0.9883455521285963 -0.007358128922973363
2.31665625 -0.9923342594681671 -0.007310983674341132
2.3178046875 -0.9971428652627977 -0.005779395474498461
2.318953125 -0.9926006779250574 -0.007022321231221609
2.3201015625 -0.9903862934395602 -0.008683272517306467
2.32125 -0.9973501047890437 -0.006320137161677224
2.3223984375 -0.9954789801026862 -0.006435432239220773
2.323546875 -0.9888166994012932 -0.009544459728018512
2.3246953125 -0.9965475250053325 -0.007419164868137672
2.32584375 -0.9976308177467279 -0.007006268004883014
2.3269921875 -0.988202838500492 -0.009698089325687373
2.328140625 -0.9951033633025558 -0.008330608097595213
2.3292890625 -0.9979209620191842 -0.006832180896787193
2.3304375 -0.9897267607161347 -0.009436720064514431
2.3315859375 -0.9925065284327262 -0.01083900729975397
2.332734375 -0.9973146810722213 -0.009048046938928259
2.3338828125 -0.99350292951297 -0.009363773210068052
2.33503125 -0.9898022122513978 -0.010951211161807167
2.3361796875 -0.9969454756513745 -0.00860003643777077
2.337328125 -0.9972692569809843 -0.00863583535907246
2.3384765625 -0.9885260069609707 -0.011327412468340528
2.339625 -0.9957312012859851 -0.009212148339529519
2.3407734375 -0.9975894146527459 -0.007952029683010495
2.341921875 -0.9875094358228647 -0.011308515687346227
2.3430703125 -0.9937827072725197 -0.01106247878641356
2.34421875 -0.9986793380158262 -0.00970628175723423
2.3453671875 -0.9937255656461466 -0.009455935269842161
2.346515625 -0.9877789358238594 -0.01182051477476187
2.3476640625 -0.9931442954955253 -0.011009324061670156
2.3488125 -0.9970129813643375 -0.009403783108592911
2.3499609375 -0.9969116643355862 -0.00967725028187072
2.351109375 -0.9972216270920481 -0.008365937295507858
2.3522578125 -0.997136260120224 -0.009303969839509263
2.35340625 -0.9867688774020519 -0.01105049436563929
2.3545546875 -0.9928235660314509 -0.011229814936707716
2.355703125 -0.9964445038206347 -0.00891725093987486
2.3568515625 -0.9910324298978364 -0.010866407759106966
2.358 -0.988258809614244 -0.011847366858619368
2.3591484375 -0.994422298887287 -0.00854737696371033
2.360296875 -0.9938921207293923 -0.008880636249824186
2.3614453125 -0.9865265961251517 -0.01123561850256688
2.36259375 -0.9958360008678139 -0.008444320966293828
2.3637421875 -0.9974964316468562 -0.007403222652732855
2.364890625 -0.9861601592196141 -0.010040636578571599
2.3660390625 -0.9934163061168219 -0.008612637754823849
2.3671875 -0.9963578618172374 -0.008585245146040754
2.3683359375 -0.9886451911897552 -0.009524428005023622
2.369484375 -0.9911255190968047 -0.009612511017768388
2.3706328125 -0.9959611105444045 -0.007369755227258551
2.37178125 -0.9926624059518141 -0.0085875756074911
2.3729296875 -0.9884108734462247 -0.010032090940378713
2.374078125 -0.9966773871126028 -0.008445569526533137
2.3752265625 -0.9965171153899669 -0.007954178700977477
2.376375 -0.9865312280475279 -0.010252616452623625
2.3775234375 -0.9943525301879207 -0.007409544752015884
2.378671875 -0.9971817208304821 -0.007321047344246989
2.3798203125 -0.9862415133204246 -0.010337620930823216
2.38096875 -0.9932375632884037 -0.00911379169167928
2.3821171875 -0.9969313922809984 -0.00720532022076098
2.383265625 -0.9913618863475588 -0.00895181436401396
2.3844140625 -0.9903826605134192 -0.010078115260530623
2.3855625 -0.996581602046336 -0.008152485408035037
2.3867109375 -0.995364995125169 -0.008756869783872995
2.387859375 -0.9888908789988827 -0.011420526887775617
2.3890078125 -0.9967922746200842 -0.008088490757605371
2.39015625 -0.9991403673562305 -0.007857180797091134
2.3913046875 -0.988503795984446 -0.011428133647482519
2.392453125 -0.9969849902658137 -0.00920063837175647
2.3936015625 -0.9994012892770558 -0.008763777289916452
2.39475 -0.990358037487034 -0.01053294164188337
2.3958984375 -0.9939952530161259 -0.01111007720527965
2.397046875 -0.9989349485745245 -0.008789618619279627
2.3981953125 -0.9942236880706785 -0.01023182530279143
2.39934375 -0.9918140253772718 -0.012629306864238632
2.4004921875 -0.9989347825797076 -0.009510956032841716
2.401640625 -0.9990570120553722 -0.00888888207538549
2.4027890625 -0.9899044206112004 -0.011952740942896195
2.4039375 -0.9989038303628291 -0.00997355551215709
2.4050859375 -1.000370804271793 -0.00917527251051839
2.406234375 -0.9905457041131184 -0.011877330843558326
2.4073828125 -0.9963414433948148 -0.011073404639295542
2.40853125 -1.000564094331829 -0.009750789684751737
2.4096796875 -0.9937558430094134 -0.011797419469471354
2.410828125 -0.9940416369444471 -0.013323472869169073
2.4119765625 -0.9999274023115116 -0.010203677361235203
2.413125 -0.996951827290606 -0.011306770673518346
2.4142734375 -0.9915288286299816 -0.012831411777004614
2.415421875 -0.9980917376426613 -0.009784235839324168
2.4165703125 -1.0000190164648064 -0.009988779518211865
2.41771875 -0.9902621522554916 -0.01384531081478732
2.4188671875 -0.9980317833001081 -0.011965352006139018
2.420015625 -1.0002208679679656 -0.010818056986668184
2.4211640625 -0.9913869861167728 -0.012874985909204023
2.4223125 -0.9952435504413013 -0.013020992932081199
2.4234609375 -0.9999368179836662 -0.010662963230736372
2.424609375 -0.994919979575638 -0.011803837603097472
2.4257578125 -0.9928421473119596 -0.01331457195862018
2.42690625 -0.9990623085030083 -0.010295258909310323
2.4280546875 -0.9983583615107402 -0.00989243397671069
2.429203125 -0.989817075648823 -0.012385489020764473
2.4303515625 -0.9987984552274544 -0.010773874863524324
2.4315 -1.000345069059942 -0.009599624591168976
2.4326484375 -0.9895028569624192 -0.01232755774141342
2.433796875 -0.9966484237857814 -0.01038474685330712
2.4349453125 -1.0006049853514025 -0.009017586617001833
2.43609375 -0.9912985737377954 -0.01155412412850959
2.4372421875 -0.9939598545323907 -0.011439728980715214
2.438390625 -0.9993698547540145 -0.009458510219018515
2.4395390625 -0.995299097156732 -0.010658968285804371
2.4406875 -0.9906187988259165 -0.012891162995079516
2.4418359375 -0.9991876216841662 -0.00858580849529042
2.442984375 -1.0000893571091254 -0.00874960940268138
2.4441328125 -0.9889170930587148 -0.012366129732850076
2.44528125 -0.9979266141130587 -0.009044350159495784
2.4464296875 -1.0005119945323155 -0.007576572118773495
2.447578125 -0.9885799181472549 -0.010788734532372876
2.4487265625 -0.9941326243255111 -0.010278065072320389
2.449875 -0.9999996796210407 -0.008635514412347278
2.4510234375 -0.9941854160333279 -0.009825305782970417
2.452171875 -0.9927221330763687 -0.011351258689642
2.4533203125 -0.9991294195970633 -0.008396756584777808
2.45446875 -0.9986971829456427 -0.008377582996505865
2.4556171875 -0.9883413671718309 -0.011438817510276797
2.456765625 -0.9923909814752511 -0.01180733929209269
2.4579140625 -0.9995109039853798 -0.008805436560299307
2.4590625 -1.0006872340308985 -0.008326445317375288
2.4602109375 -1.0015065428248664 -0.008679149149326298
2.461359375 -1.0013724633757575 -0.008689921939255753
2.4625078125 -0.9956213723170727 -0.010192496224150888
2.46365625 -0.993989125571486 -0.011756572233087716
2.4648046875 -1.0012775911517462 -0.009081002661210973
2.465953125 -0.9997568595480905 -0.009018622773241072
2.4671015625 -0.9909816896298815 -0.012830997597280992
2.46825 -1.0002393004671555 -0.009328388129844281
2.4693984375 -1.0021094313968053 -0.008469931262826386
2.470546875 -0.9917325398860538 -0.010408262447418146
2.4716953125 -0.9909595240560684 -0.012081362657225092
2.47284375 -1.0003478038764773 -0.009000374550063507
2.4739921875 -1.0026314884136933 -0.008007341271251578
2.475140625 -1.0034375279916865 -0.007421099993017807
2.4762890625 -1.0033566785641752 -0.007998462932870664
2.4774375 -1.0032193812029244 -0.008240830673696603
2.4785859375 -0.9919047601192796 -0.012886502032632828
2.479734375 -1.0013313941017572 -0.009863644507870944
2.4808828125 -1.0034855876122046 -0.00885722115456572
2.48203125 -0.9924139950578358 -0.01119907580343086
2.4831796875 -0.9989808851701906 -0.009771433172605676
2.484328125 -1.003611049530345 -0.009240173948114896
2.4854765625 -0.997646231875259 -0.010928115619662178
2.486625 -0.994567278956412 -0.01206577813638092
2.4877734375 -1.0024503504741828 -0.009228729925621501
2.488921875 -1.0002433442631162 -0.009338375252267953
2.4900703125 -0.9931380821724183 -0.013143560407252342
2.49121875 -1.0022959385630537 -0.009817438517339926
2.4923671875 -1.003525750609891 -0.009584513585069794
2.493515625 -0.9915923269239532 -0.012475701592579519
2.4946640625 -0.9999045044649781 -0.011297910500231649
2.4958125 -1.003004567935695 -0.009009753490963779
2.4969609375 -0.9932073289424035 -0.011949921010995242
2.498109375 -0.9966248074752214 -0.01223300612457151
2.4992578125 -1.0027347879202624 -0.00979308989403467
2.50040625 -0.9975384072395541 -0.011122444918366364
2.5015546875 -0.9928784101286153 -0.013148584228754284
2.502703125 -1.001217657608878 -0.010174964015751659
2.5038515625 -1.0023842714147393 -0.010488019980137653
2.505 -0.991399946414943 -0.013673381569080684
2.5061484375 -1.0001934767204195 -0.01086421607744828
2.507296875 -1.0021199054387562 -0.009784382323361707
2.5084453125 -0.9910429217245909 -0.013441856538642771
2.50959375 -0.9977820902714205 -0.011801225194240858
2.5107421875 -1.0012977154180005 -0.009901612284885078
2.511890625 -0.9951608000967913 -0.011541190718347333
2.5130390625 -0.9940573987893475 -0.012474060966636974
2.5141875 -1.0003951924079704 -0.00937574594557021
2.5153359375 -0.9983023641348897 -0.009793338077354413
2.516484375 -0.9912175457977306 -0.012993411569113919
2.5176328125 -1.0006663394020219 -0.009774217270563518
2.51878125 -1.001629277490061 -0.0090918178515762
2.5199296875 -0.989858828015092 -0.012425523497091806
2.521078125 -0.9995659498947514 -0.010024191756730222
2.5222265625 -1.0021850951108675 -0.009159851039871603
2.523375 -0.9926294991164897 -0.01130569820878527
2.5245234375 -0.9956786600230805 -0.011218763944742666
2.525671875 -1.002002004790722 -0.008959818824919225
2.5268203125 -0.9974857048185777 -0.01036181908851469
2.52796875 -0.9943344425595737 -0.012457838158094259
2.5291171875 -1.0019006126045227 -0.009169117507874913
2.530265625 -1.0022345082748516 -0.009172511116734006
2.5314140625 -0.9914728830773432 -0.01260931340303692
2.5325625 -1.0005120084075956 -0.00941505332996731
2.5337109375 -1.0026939933714243 -0.009061449316153797
2.534859375 -0.9912651177502332 -0.012600844661287108
2.5360078125 -0.9995304959796545 -0.010703323311435808
2.53715625 -1.0029347061845977 -0.00882471434889387
2.5383046875 -0.9982747566839733 -0.00990075157325554
2.539453125 -0.9914671604446617 -0.012612789570984773
2.5406015625 -0.9996768615229198 -0.010530618084340415
2.54175 -1.003558453145548 -0.008586692480153924
2.5428984375 -1.0034622706795866 -0.008841215241194494
2.544046875 -1.0034072689397153 -0.008890884306151953
2.5451953125 -1.0038186756666834 -0.008457763131707985
2.54634375 -0.9931327771464267 -0.011252838164327789
2.5474921875 -0.9999546357101626 -0.009419640710666033
2.548640625 -1.0042814291245195 -0.008173871370896563
2.5497890625 -0.9983071639149654 -0.010617175090364916
2.5509375 -0.9956781896764234 -0.011865716394865805
2.5520859375 -1.003761829189317 -0.010003443345962149
2.553234375 -1.0038934118185718 -0.008941286581409635
2.5543828125 -0.9924984354898575 -0.012463462112505819
2.55553125 -1.0020645856842334 -0.008870507535407218
2.5566796875 -1.0040136424327002 -0.00907390023568
2.557828125 -0.9917873563695219 -0.012809295543406735
2.5589765625 -1.0018123337592422 -0.010973196052165568
2.560125 -1.004413309759038 -0.009912131586914064
2.5612734375 -0.9945747071249392 -0.011897515718914897
2.562421875 -0.9982664654706579 -0.012674273646398171
2.5635703125 -1.0039656000428518 -0.009385613485658584
2.56471875 -0.9995384832739487 -0.010335582938818227
2.5658671875 -0.9953380375037365 -0.013077315783051102
2.567015625 -1.0035773690568501 -0.009497636266858733
2.5681640625 -1.004230888719177 -0.009940558140428435
2.5693125 -0.9934170851447597 -0.014218131134961287
2.5704609375 -1.0029650092230296 -0.010684886331359889
2.571609375 -1.00378281291963 -0.009974823846991943
2.5727578125 -0.9916465985465669 -0.01324722942962947
2.57390625 -0.9997403063318117 -0.011477722837786641
2.5750546875 -1.0036807067424787 -0.009769302415131298
2.576203125 -0.9972392388192219 -0.012043429352387947
2.5773515625 -0.9967984343743251 -0.012928697145954432
2.5785 -1.003708543513749 -0.009956709280185744
2.5796484375 -1.0012183832946777 -0.010265628615529404
2.580796875 -0.993573228684598 -0.014209792197245302
2.5819453125 -1.0033879245244202 -0.010866185037279374
2.58309375 -1.0046431718652027 -0.010364927178694527
2.5842421875 -0.9920624571193892 -0.014183681146504312
2.585390625 -1.0013673568288222 -0.012136494934850112
2.5865390625 -1.0041185992743062 -0.010556621941791383
2.5876875 -0.9949734858559329 -0.013038398898682052
2.5888359375 -0.9985141519045333 -0.012662631869522933
2.589984375 -1.0039241396564855 -0.010178320412199876
2.5911328125 -0.9994433282819584 -0.011166733577794574
2.59228125 -0.9955437328295434 -0.013519337341670962
2.5934296875 -1.0037752335587857 -0.010516781068158204
2.594578125 -1.0032522474432102 -0.010348579620180987
2.5957265625 -0.9935934565775848 -0.014356405258337396
2.596875 -1.0041830473713151 -0.010764793305608034
2.5980234375 -1.0051707159594137 -0.01014306841063442
2.599171875 -0.9929393014285047 -0.013375697441346368
2.6003203125 -1.0012393719765011 -0.011307395322555702
2.60146875 -1.0046084941950373 -0.010283482582874565
2.6026171875 -0.9968744763923114 -0.012346386625834954
2.603765625 -0.9987140269688249 -0.013584596336078336
2.6049140625 -1.0051321990205166 -0.009751663571564234
2.6060625 -1.0003834850388598 -0.01066773090241388
2.6072109375 -0.9958976881964113 -0.013313969534924613
2.608359375 -1.0048095267554247 -0.01095680764338125
2.6095078125 -1.0044541659544621 -0.010796777263346699
2.61065625 -0.9931545248850482 -0.013407646497209352
2.6118046875 -1.0024852107635405 -0.011507463157272302
2.612953125 -1.0044533391647448 -0.010820026225396698
2.6141015625 -0.9950296658280954 -0.013553706416748329
2.61525 -0.9997614226736253 -0.014217113360301292
2.6163984375 -1.0047949241904948 -0.010008844559655242
2.617546875 -1.0008357605480893 -0.011087996543906478
2.6186953125 -0.9975619890032714 -0.013360793634935864
2.61984375 -1.0059694321581916 -0.010176600460221313
2.6209921875 -1.0045744758687192 -0.009392989313553951
2.622140625 -0.9959285311801679 -0.014180695640113039
2.6232890625 -1.0057178384886791 -0.010379652353569385
2.6244375 -1.006164792533518 -0.01038156490025259
2.6255859375 -0.9936239660170341 -0.013477235669837495
2.626734375 -1.0044747498056343 -0.010299542756136468
2.6278828125 -1.0055638230838266 -0.009836901104492188
2.62903125 -0.9978507900073573 -0.01151859821352079
2.6301796875 -1.0003714673409156 -0.012569374978170123
2.631328125 -1.0061624604637496 -0.010628080305257456
2.6324765625 -1.003058524617489 -0.011059383990578348
2.633625 -0.9967359154833583 -0.01358944104374743
2.6347734375 -1.0054089363593786 -0.009980771903004101
2.635921875 -1.00621277628943 -0.011040929146543532
2.6370703125 -0.9936488661943965 -0.01339378906211082
2.63821875 -1.0033013714379933 -0.01044752512770361
2.6393671875 -1.0055496367273105 -0.009709866325171512
2.640515625 -0.9946371453442123 -0.014908873038146711
2.6416640625 -1.002260827070244 -0.011893324376043513
2.6428125 -1.0052508179308586 -0.01109072380935025
2.6439609375 -0.997967051980712 -0.012468076223701816
2.645109375 -0.9989751545699822 -0.013283688546862307
2.6462578125 -1.005250256068678 -0.010350623793660058
2.64740625 -1.0036286174962086 -0.01097167916240007
2.6485546875 -0.9952174962253847 -0.01466882185260504
2.649703125 -1.0050538426715023 -0.01083423987791702
2.6508515625 -1.0056724578397476 -0.01061015518781358
2.652 -0.993747948646532 -0.014811299857389104
2.6531484375 -1.0037038719853215 -0.012058127467958271
2.654296875 -1.005945869656417 -0.011153710425738955
2.6554453125 -0.9969893764571879 -0.013695551076714323
2.65659375 -1.000568416072422 -0.01287920683207519
2.6577421875 -1.0055836790568031 -0.010501073405000436
2.658890625 -1.0005713998120267 -0.011114079049967113
2.6600390625 -0.9976816107950323 -0.013899888699299798
2.6611875 -1.005809429687199 -0.01073911837347439
2.6623359375 -1.0048682820067896 -0.010431083956322418
2.663484375 -0.9948759351477804 -0.014431880204523295
2.6646328125 -1.004260305505488 -0.011105113507839902
2.66578125 -1.0063273626150584 -0.010423336627787813
2.6669296875 -0.9936273261291338 -0.014501517819690134
2.668078125 -1.0029709664655893 -0.011229915903072318
2.6692265625 -1.0062346586161075 -0.010319652698978679
2.670375 -0.9972798359190385 -0.01286542358319899
2.6715234375 -0.9997559591484542 -0.01339292006664973
2.672671875 -1.005272402372225 -0.010365924756989317
2.6738203125 -1.0021308261668456 -0.011001821672998319
2.67496875 -0.9966514153427297 -0.015351463723755829
2.6761171875 -1.0054828899014412 -0.011579563158511254
2.677265625 -1.0058247068409114 -0.01017847752770646
2.6784140625 -0.9941246210696254 -0.014075710544861987
2.6795625 -1.0040089411055255 -0.01170114375544265
2.6807109375 -1.0043790020799277 -0.010649534274387314
2.681859375 -0.9952017800055066 -0.013427069522731747
2.6830078125 -1.0030526886346687 -0.01136110396748629
2.68415625 -1.0059401824828302 -0.01072426685128966
2.6853046875 -1.0005465852037485 -0.010779905161147282
2.686453125 -0.9990586559666639 -0.012688692118228713
2.6876015625 -1.0058435018972076 -0.00962839520404351
2.68875 -1.0044974179516806 -0.010112965134711785
2.6898984375 -0.9955758568796638 -0.013875337672964838
2.691046875 -1.0063489919255413 -0.01039106148876448
2.6921953125 -1.0064609610746713 -0.009775438102495579
2.69334375 -0.9939258364659866 -0.013734982211067837
2.6944921875 -1.0035675088077642 -0.010615793261838258
2.695640625 -1.0064464576425682 -0.008994974920181989
2.6967890625 -0.9974826170741025 -0.01163939942825383
2.6979375 -1.001534710872386 -0.012144039298430179
2.6990859375 -1.0065072768246963 -0.010455037754665636
2.700234375 -1.0029068671760812 -0.010821189258331074
2.7013828125 -0.9980252082286879 -0.012702393631484454
2.70253125 -1.006513577394101 -0.009743870855602993
2.7036796875 -1.006450640292503 -0.008792707438635833
2.704828125 -0.9940088629774742 -0.012800207540923536
2.7059765625 -1.0047003582728762 -0.008294890889257792
2.707125 -1.0062268446090132 -0.008591101145103586
2.7082734375 -0.9960343980912467 -0.012282355054498123
2.709421875 -1.0025861051726492 -0.009847770936065314
2.7105703125 -1.0056058882636039 -0.008576116778043166
2.71171875 -0.9979324177611769 -0.009632987934901874
2.7128671875 -1.0003807014201174 -0.010820090587923936
2.714015625 -1.0063619425958918 -0.007846440135791055
2.7151640625 -1.004425077258593 -0.008471309843979188
2.7163125 -0.9966306768406488 -0.01220094325258643
2.7174609375 -1.004847445271241 -0.008307153270635623
2.718609375 -1.0061549590493943 -0.0075601097229892195
2.7197578125 -0.9943796728409855 -0.011483584778414102
2.72090625 -1.0044765750467461 -0.009294014381179785
2.7220546875 -1.0065153343592816 -0.008299267495331691
2.723203125 -0.9976947946635519 -0.010444802512827603
2.7243515625 -1.001487888665705 -0.009865437115993941
2.7255 -1.0066454620054224 -0.008291859671924612
2.7266484375 -1.0007802692476069 -0.009868303688965893
2.727796875 -0.9989093856149636 -0.011643537882122273
2.7289453125 -1.006090594442511 -0.008367704877342758
2.73009375 -1.0063608575176357 -0.008478533049658885
2.7312421875 -0.9959343161207976 -0.01243140306223929
2.732390625 -1.0056194051384864 -0.008628337117705054
2.7335390625 -1.0064486571568338 -0.0077672919345803115
2.7346875 -0.9942268028553263 -0.012254117736812897
2.7358359375 -1.0050092152321612 -0.009017625676781507
2.736984375 -1.0068044677482444 -0.008561985608032535
2.7381328125 -0.99924304261436 -0.010775465227153766
2.73928125 -1.001281672944822 -0.011069082145329465
2.7404296875 -1.0069466335765456 -0.008883003352491134
2.741578125 -1.0030302246681446 -0.009917786837470216
2.7427265625 -0.9985822309841423 -0.01213780739585836
2.743875 -1.007243560908966 -0.008438589278778025
2.7450234375 -1.0076758546941686 -0.008501179571679951
2.746171875 -0.9964363714179024 -0.012914013797025628
2.7473203125 -1.00636588348525 -0.009428012713313089
2.74846875 -1.0067935554074066 -0.008092399347136459
2.7496171875 -0.9976491448989597 -0.012351346672444821
2.750765625 -1.0037309805992711 -0.01127650338854902
2.7519140625 -1.007362002951169 -0.00920662898933218
2.7530625 -1.0019073090881039 -0.010257538794333387
2.7542109375 -1.000972325587481 -0.012205989827431596
2.755359375 -1.007723541116085 -0.009255965267669919
2.7565078125 -1.0054323573950124 -0.009711265014038573
2.75765625 -0.9978750927455176 -0.013411704154699278
2.7588046875 -1.0056366624284845 -0.009230255754443417
2.759953125 -1.0057723379374437 -0.009064174533583269
2.7611015625 -0.9945941578028518 -0.012388527823173373
2.76225 -1.0059802500755783 -0.010463234235624216
2.7633984375 -1.0073578404642025 -0.009473499176961636
2.764546875 -0.9989036101303774 -0.011266072395002436
2.7656953125 -1.0025673358233969 -0.011919654716959993
2.76684375 -1.0067378266719644 -0.009906103441700731
2.7679921875 -1.0035152307081723 -0.010974566578402456
2.769140625 -0.9980959584491009 -0.012098292782748349
2.7702890625 -1.006856128821059 -0.009394258972262842
2.7714375 -1.0068236089852844 -0.010139084446416077
2.7725859375 -0.9964893685180574 -0.014851169199455089
2.773734375 -1.0067182969061241 -0.011476761652651185
2.7748828125 -1.0077338766259611 -0.010260707093484173
2.77603125 -0.9972523332067955 -0.013082391127925558
2.7771796875 -1.0038393211696741 -0.011640977219657206
2.778328125 -1.0071827337083739 -0.01025071010385109
2.7794765625 -1.0010110375868817 -0.012509293141755362
2.780625 -1.0012758043316483 -0.013136949796561492
2.7817734375 -1.0071308164126636 -0.00991339715779399
2.782921875 -1.0052457696393218 -0.010859531175693826
2.7840703125 -0.9979301461232168 -0.014575020948585732
2.78521875 -1.0070025264882143 -0.010425392382618137
2.7863671875 -1.0076704406333956 -0.010093402905359233
2.787515625 -0.9960650932314844 -0.013960216610573561
2.7886640625 -1.0060400411479693 -0.010179522732758822
2.7898125 -1.007277037431415 -0.010133178780604213
2.7909609375 -0.9975636770277547 -0.012737312064759976
2.792109375 -1.0037551634190054 -0.011256014161325517
2.7932578125 -1.0073845580407883 -0.009680597892560788
2.79440625 -1.002729266512125 -0.010982767129904925
2.7955546875 -1.0000330142152387 -0.013181728252073172
2.796703125 -1.0068007747441885 -0.010434669554366283
2.7978515625 -1.0076527667842154 -0.010627990531777765
2.799 -0.9966738466795584 -0.013906985074381178
2.8001484375 -1.0063877793079967 -0.010271774164516176
2.801296875 -1.007659519371454 -0.009745852838488542
2.8024453125 -0.9972688177426514 -0.013714530453885612
2.80359375 -1.0057617866107438 -0.011471346150394857
2.8047421875 -1.0079920639514421 -0.009008957293240735
2.805890625 -1.0009992189678807 -0.011896848188154563
2.8070390625 -1.0029875826516832 -0.012784316431652787
2.8081875 -1.007640993727494 -0.010455259875538803
2.8093359375 -1.0055903458209912 -0.010980367677048242
2.810484375 -0.9985847952845271 -0.013273547162498706
2.8116328125 -1.007685414771338 -0.009784318928833649
2.81278125 -1.007866202090077 -0.009713132643306449
2.8139296875 -0.9970625729408661 -0.0134997616337231
2.815078125 -1.0077047353539517 -0.010040166131220107
2.8162265625 -1.0084103363722483 -0.008945519232572599
2.817375 -0.9996170470427552 -0.012264302207395286
2.8185234375 -1.0054060507269889 -0.010081912936281294
2.819671875 -1.0087380550236744 -0.009289096882937338
2.8208203125 -1.003848237334499 -0.010740158397432177
2.82196875 -1.0012790865440504 -0.012274256458785791
2.8231171875 -1.0078145376759047 -0.009923628538721634
2.824265625 -1.0068431643519848 -0.008509506452132123
2.8254140625 -0.9976634884672089 -0.013137364189410944
2.8265625 -1.0072343953868002 -0.00969124104465232
2.8277109375 -1.0078943943257417 -0.009298083430771265
2.828859375 -0.9965282467358447 -0.013549036621682085
2.8300078125 -1.005601407930198 -0.009886271456396322
2.83115625 -1.006463950122276 -0.009345132784049508
2.8323046875 -0.9994712652613327 -0.01241919223253779
2.833453125 -1.0040505304148453 -0.01129343622037824
2.8346015625 -1.0076452567563843 -0.008284213085428385
2.83575 -1.0040175909538986 -0.009343805092538737
2.8368984375 -0.9998721029894191 -0.01307135384749545
2.838046875 -1.0070582305131193 -0.009991972389584651
2.8391953125 -1.0078773853426863 -0.00905774699288868
2.84034375 -0.9978769056838939 -0.012547237914127284
2.8414921875 -1.00750397054668 -0.009404795028175584
2.842640625 -1.007856124116711 -0.009477405157949394
2.8437890625 -0.9987810260205461 -0.012388058801626502
2.8449375 -1.0048958108761439 -0.010673086407573758
2.8460859375 -1.0078643349860505 -0.009756146840294267
2.847234375 -0.9998677112772502 -0.011467651831376015
2.8483828125 -1.0029407596559086 -0.012036094719866747
2.84953125 -1.0073534187416249 -0.010358422057462992
2.8506796875 -1.006033326699592 -0.010341195666760207
2.851828125 -0.998790711109576 -0.013352793919792334
2.8529765625 -1.0071245360764767 -0.009021349123873229
2.854125 -1.0079082418743865 -0.00961412635241769
2.8552734375 -0.9965632204880225 -0.013387335771714106
2.856421875 -1.0058397610333456 -0.009583757062111078
2.8575703125 -1.0068385775369304 -0.009487041679522967
2.85871875 -0.9973608285060543 -0.012639199612593743
2.8598671875 -1.0036932821523952 -0.011134143985413701
2.861015625 -1.0068864172503795 -0.009108717230589994
2.8621640625 -1.0032737585909295 -0.009901124907793539
2.8633125 -1.0002751862148922 -0.012526246463045308
2.8644609375 -1.007544291050557 -0.00970494112732826
2.865609375 -1.0074857389353622 -0.009808062977913153
2.8667578125 -0.9984244039354546 -0.013143442755142745
2.86790625 -1.0074821259820366 -0.009616154585200251
2.8690546875 -1.0079153178791525 -0.009930763915026924
2.870203125 -0.9967759175673355 -0.013832131350734578
2.8713515625 -1.0055152593459704 -0.010953724580209191
2.8725 -1.0071736659556962 -0.010593952445650541
2.8736484375 -1.0006135553061086 -0.011627000517832303
2.874796875 -1.0039595926906462 -0.010400915366184663
2.8759453125 -1.0076626719973523 -0.008517001131079158
2.87709375 -1.0035062572070566 -0.009171102298501835
2.8782421875 -0.999796030617929 -0.010971255028272585
2.879390625 -1.0066314155377967 -0.007432574575028168
2.8805390625 -1.0066092254372452 -0.007947001054707484
2.8816875 -0.9962675989156667 -0.01248316539969764
2.8828359375 -1.005821052907459 -0.00890581145577976
2.883984375 -1.006687998966817 -0.009188069490700994
2.8851328125 -0.9979757641388421 -0.011389538393064218
2.88628125 -1.003716835189887 -0.01036390389868308
2.8874296875 -1.0068166557363234 -0.008212565451702812
2.888578125 -1.0016294946456306 -0.008759511456763673
2.8897265625 -1.0017421266772362 -0.011162655370683994
2.890875 -1.0065396290606108 -0.00984812806130722
2.8920234375 -1.0067076713357974 -0.009269250778208955
2.893171875 -0.9975922578217147 -0.012614458539019649
2.8943203125 -1.0057186395266515 -0.008723557564119848
2.89546875 -1.0072021997474192 -0.00910652120350878
2.8966171875 -0.9966325032384044 -0.011639955129635338
2.897765625 -1.0052423682938247 -0.008887550467466341
2.8989140625 -1.0075995216586973 -0.00840717588175572
2.9000625 -0.9992852532938585 -0.01060256628179854
2.9012109375 -1.0026724513099186 -0.009607790964132182
2.902359375 -1.0066606658921293 -0.00951176118099201
2.9035078125 -1.0037279362796074 -0.010070264217985993
2.90465625 -0.9992337341168795 -0.010792992812935491
2.9058046875 -1.0054679863473759 -0.00838520649971701
2.906953125 -1.0060664742182899 -0.008398417705849856
2.9081015625 -0.9960533000497085 -0.01242457048755017
2.90925 -1.0051525875058613 -0.009362349855293411
2.9103984375 -1.0066118228372 -0.007685765673787717
2.911546875 -0.9973457958479194 -0.01068256967800052
2.9126953125 -1.0050353611699439 -0.00918059075326258
2.91384375 -1.0065400804175244 -0.00834654634701816
2.9149921875 -1.0015814337028432 -0.00984021107725623
2.916140625 -1.002471040176554 -0.01075624440886444
2.9172890625 -1.0071766041150174 -0.007902087849582795
2.9184375 -1.0059457463415415 -0.008258295406013583
2.9195859375 -0.9984292674016234 -0.012289575681340772
2.920734375 -1.0064792106221097 -0.00911089988637473
2.9218828125 -1.0069919296773395 -0.008598972382208095
2.92303125 -0.9966271869270602 -0.012236845385295125
2.9241796875 -1.0058011041487473 -0.009110603033702855
2.925328125 -1.0070205885731263 -0.008336099714329415
2.9264765625 -0.9995226007123486 -0.010768620691112257
2.927625 -1.0035250724194624 -0.010040852494477143
2.9287734375 -1.0066891778903206 -0.008374870052730535
2.929921875 -1.0038089691658385 -0.009228526881037896
2.9310703125 -1.0001876544632904 -0.011608347568799873
2.93221875 -1.006933491175213 -0.008627272170991032
2.9333671875 -1.0067694824140259 -0.008159674573337938
2.934515625 -0.996985940210215 -0.012059904663812654
2.9356640625 -1.0059209888362048 -0.00862754076105647
2.9368125 -1.0060224227929981 -0.008465662934629123
2.9379609375 -0.9962684165921031 -0.012037751897832752
2.939109375 -1.005387871564683 -0.00888273485373256
2.9402578125 -1.0065918554291484 -0.00820503835609239
2.94140625 -1.00123300654813 -0.009062173490379077
2.9425546875 -1.0034127965864879 -0.010170950094793296
2.943703125 -1.0065464976737302 -0.008724942162546712
2.9448515625 -1.006320388707394 -0.008482487152480095
2.946 -0.9987452245163883 -0.011344619894664149
2.9471484375 -1.0067102196831903 -0.00781593888307637
2.948296875 -1.0066135036152664 -0.0071673306229989575
2.9494453125 -0.9967963085000769 -0.011217253507180669
2.95059375 -1.005993475669556 -0.007602494489467995
2.9517421875 -1.0069817286423308 -0.00799268512219048
2.952890625 -0.9990790252044739 -0.011133838827584619
2.9540390625 -1.0036730133534013 -0.009635980446626169
2.9551875 -1.006918966843512 -0.00802500160919864
2.9563359375 -1.0015848140112773 -0.010061261071855343
2.957484375 -1.0022011945519862 -0.011102438555226773
2.9586328125 -1.0062821984659582 -0.008658186145421715
2.95978125 -1.0050946504779041 -0.009229094136873062
2.9609296875 -0.997451886458748 -0.010862091111499023
2.962078125 -1.005524828449289 -0.008362507018173732
2.9632265625 -1.0060374175514257 -0.007684224951816809
2.964375 -0.9962056442446986 -0.011460174511255042
2.9655234375 -1.0052097867983243 -0.008997216620890355
2.966671875 -1.005968822017229 -0.009611927307591736
2.9678203125 -0.9994792021462312 -0.010530386472072897
2.96896875 -1.002058400004948 -0.010355018249516582
2.9701171875 -1.0062947320131188 -0.00859610685130889
2.971265625 -1.0034625904932497 -0.009280996593135055
2.9724140625 -0.9987539039007078 -0.012712246443594519
2.9735625 -1.0045571033426153 -0.008869225481330796
2.9747109375 -1.0052688973296104 -0.008573679184669822
2.975859375 -0.9959518688126502 -0.011649056628207623
2.9770078125 -1.003698681309001 -0.008649963574432276
2.97815625 -1.0045698184072935 -0.007738500055854525
2.9793046875 -0.9965628581333381 -0.0111546521186442
2.980453125 -1.0028237743120465 -0.009523728807286136
2.9816015625 -1.004377446983048 -0.008774365092234643
2.98275 -1.000530477706229 -0.01026849599425209
2.9838984375 -0.9997924719272818 -0.01188490229665853
2.985046875 -1.0047605312277985 -0.008622714545842399
2.9861953125 -1.003483728298139 -0.008562188027270354
2.98734375 -0.9970065325777713 -0.011782752837718707
2.9884921875 -1.0046426783330702 -0.009021321212224508
2.989640625 -1.0045247603023197 -0.008787695820431436
2.9907890625 -0.9954306524204288 -0.011903846383038506
2.9919375 -1.0035761657341364 -0.008648099133459097
2.9930859375 -1.0038867636180195 -0.00887232253267204
2.994234375 -0.9978515079720908 -0.010880497466010546
2.9953828125 -1.0027906479870554 -0.010201936663216081
2.99653125 -1.0050240228260572 -0.009213515832018238
2.9976796875 -1.0022619729408113 -0.009914007478981565
2.998828125 -0.9996875231304406 -0.012163893581203108
2.9999765625 -1.0048628082145126 -0.009302762868768216
3.001125 -1.0029776551954455 -0.010260015390998599
3.0022734375 -0.9984624372518565 -0.011795180180323092
3.003421875 -1.0048323069903824 -0.008448502369914818
3.0045703125 -1.0043733162589625 -0.008638875024234577
3.00571875 -0.9961281103495034 -0.012028335877501753
3.0068671875 -1.004283141328118 -0.009148626551278391
3.008015625 -1.0053476825950554 -0.00850227788602656
3.0091640625 -0.9978016964791829 -0.010331119620553109
3.0103125 -1.0022576227673174 -0.008786471100266563
3.0114609375 -1.0042547226221876 -0.008212172796228143
3.012609375 -1.0001060190207816 -0.00979329117035066
3.0137578125 -0.9999188614501486 -0.010283531471019916
3.01490625 -1.004845491003653 -0.007754377688276942
3.0160546875 -1.0050567203591185 -0.006665413471018622
3.017203125 -0.9973816577664456 -0.011236195193132098
3.0183515625 -1.0051955606678697 -0.0071617082443841545
3.0195 -1.0045373655493899 -0.007729445996994266
3.0206484375 -0.9959221162290715 -0.01040909744461889
3.021796875 -1.0037927322764153 -0.007706847082728507
3.0229453125 -1.006018330306267 -0.006554838837204868
3.02409375 -0.9994499611611768 -0.00918174497073862
3.0252421875 -1.0032968389335581 -0.007656053240925012
3.026390625 -1.0045828417393683 -0.006937141673461725
3.0275390625 -1.0025857976564183 -0.00812771104231548
3.0286875 -1.0006076677810578 -0.009940270322051845
3.0298359375 -1.0050437079776544 -0.009695491989482968
3.030984375 -1.0046530474364839 -0.009509029510964703
3.0321328125 -0.9971868799537573 -0.01111649224971828
3.03328125 -1.0041949653652353 -0.009047242691658935
3.0344296875 -1.0048266822955623 -0.009293529397066846
3.035578125 -0.9974776593842584 -0.010661098202484093
3.0367265625 -1.002561988754509 -0.009611921742078963
3.037875 -1.0040201438941139 -0.00832497657152087
3.0390234375 -0.9992459142157094 -0.0090235268219329
3.040171875 -1.0005832336070049 -0.011057137540388201
3.0413203125 -1.004745405977664 -0.009590550443984894
3.04246875 -1.0036501662687445 -0.009165202569925868
3.0436171875 -0.9972994050958832 -0.012727861925059925
3.044765625 -1.0040027399949 -0.009115929049412969
3.0459140625 -1.0040985543108185 -0.009178505901352094
3.0470625 -0.9952991043604291 -0.011965670404700271
3.0482109375 -1.0037696339635764 -0.008816901275291597
3.049359375 -1.004300721352456 -0.00873140810627726
3.0505078125 -0.9975486862911036 -0.010171566268448118
3.05165625 -1.0006736107919978 -0.009912183180447648
3.0528046875 -1.003816304092287 -0.008260958430661922
3.053953125 -1.0007859843277975 -0.008731113918265407
3.0551015625 -0.9980857024614053 -0.010607411930469705
3.05625 -1.0032709558316146 -0.008417611065901442
3.0573984375 -1.0031983718855633 -0.008463724531550018
3.058546875 -0.9951556143066012 -0.011675721409007148
3.0596953125 -1.002494727170976 -0.008705264986415336
3.06084375 -1.002787500622067 -0.009049686771281429
3.0619921875 -0.9948922793388801 -0.010775224864427377
3.063140625 -1.0002446795352653 -0.008525220430392576
3.0642890625 -1.0013154854785877 -0.008438415394391927
3.0654375 -0.9971959325124652 -0.009740270555729569
3.0665859375 -0.999315028510394 -0.009952762223615002
3.067734375 -1.0016971549197813 -0.0086076029281594
3.0688828125 -1.0002968797076837 -0.008608030517023961
3.07003125 -0.9957690545106939 -0.010821780995498631
3.0711796875 -1.0018858928357928 -0.008173469001371926
3.072328125 -1.0014535683060872 -0.008236497767294529
3.0734765625 -0.9943341025702062 -0.010651861047123047
3.074625 -1.0024606072338325 -0.007109211945160954
3.0757734375 -1.0030687565296925 -0.007499827183870225
3.076921875 -0.9966598219069611 -0.009708378638076727
3.0780703125 -1.0006366303732355 -0.00801317496146605
3.07921875 -1.0027468724179924 -0.0072337041756892345
3.0803671875 -0.998826890605228 -0.00771131422346364
3.081515625 -0.9977487798339049 -0.008793493711063312
3.0826640625 -1.0020152747829307 -0.006630423293931473
3.0838125 -1.002633335813237 -0.006566815634729772
3.0849609375 -0.9953905920217354 -0.009295714530932558
3.086109375 -1.0021881433937345 -0.007637857987205787
3.0872578125 -1.0016766902084309 -0.00590057438716271
3.08840625 -0.9944546948247835 -0.00987963316913925
3.0895546875 -1.000961289874173 -0.007069702738350864
3.090703125 -1.0011009224685403 -0.007566963583451769
3.0918515625 -0.9962389410192666 -0.007581751062868944
3.093 -0.9986486883057448 -0.00800547769543393
3.0941484375 -1.0011852053259231 -0.00689374558795218
3.095296875 -1.0000233477239484 -0.007255416262366532
3.0964453125 -0.9973450519535383 -0.008038245037000347
3.09759375 -1.0022256047240057 -0.006270332167421913
3.0987421875 -1.0010814716710044 -0.005699969339870187
3.099890625 -0.994503622656309 -0.009323789615564779
3.1010390625 -1.0015620414149753 -0.006890185398577997
3.1021875 -1.001589633802885 -0.007038063507808029
3.1033359375 -0.9941723165971126 -0.009219500147093315
3.104484375 -0.9998394713692242 -0.00670688003097919
3.1056328125 -1.0000571720914586 -0.007103026672482679
3.10678125 -0.997608589522551 -0.00819574448644235
3.1079296875 -0.9979517577587325 -0.00942077017516997
3.109078125 -1.000913585971887 -0.007631890810003414
3.1102265625 -1.000488914970527 -0.00706530000661966
3.111375 -0.9955638224271376 -0.009321744749061014
3.1125234375 -1.00117287999398 -0.007544459735492226
3.113671875 -1.000378658971731 -0.007514119923774154
3.1148203125 -0.9927313687155572 -0.009793590149660594
3.11596875 -1.0000730406463836 -0.007307400825949037
3.1171171875 -1.0001115222287422 -0.007935162323484068
3.118265625 -0.9946883325158586 -0.00878725968219643
3.1194140625 -0.9980661849620065 -0.00828340186159604
3.1205625 -0.9998098188257035 -0.007150000487609873
3.1217109375 -0.9978281278558021 -0.008090175953532258
3.122859375 -0.9959394731663459 -0.00952968115830409
3.1240078125 -1.0001382376730463 -0.007613916817317004
3.12515625 -0.9996205628414248 -0.008141328943704063
3.1263046875 -0.9933479928504656 -0.010593281089582102
3.127453125 -0.999374979594727 -0.007988292588032325
3.1286015625 -0.9986594974175936 -0.009048521581747654
3.12975 -0.9921453110609989 -0.01058146720500916
3.1308984375 -0.997927541785919 -0.008438531229085375
3.132046875 -0.9986356267334567 -0.008531947071443086
3.1331953125 -0.9952828808824563 -0.009213869161001594
3.13434375 -0.9957659746181312 -0.00926732569935286
3.1354921875 -0.9985295115123803 -0.008218497961927751
3.136640625 -0.9977750594253911 -0.008874644043666877
3.1377890625 -0.9935840928405856 -0.010124234047470121
3.1389375 -0.9980936668190771 -0.008086436327131151
3.1400859375 -0.998896119927716 -0.008592761528250083
3.141234375 -0.9923231405184169 -0.009717001565319048
3.1423828125 -0.9985315181230489 -0.007854794297605869
3.14353125 -0.9990583442792428 -0.0085353916410962
3.1446796875 -0.9933390289683975 -0.010427087442958092
3.145828125 -0.9976413541202326 -0.00915297178141274
3.1469765625 -0.9988596763737905 -0.008390329514781292
3.148125 -0.9971052989654683 -0.008205861915143185
3.1492734375 -0.9964187905083407 -0.009370417226358296
3.150421875 -0.9998189024216796 -0.007994570607736062
3.1515703125 -0.998651667888313 -0.007605903290616826
3.15271875 -0.9935406988616918 -0.010213235185699956
3.1538671875 -0.998726609252706 -0.007942291603700469
3.155015625 -0.9980159152013198 -0.008026497708553959
3.1561640625 -0.9926391326642376 -0.009578238372582107
3.1573125 -0.9985361517435534 -0.007743537818491408
3.1584609375 -0.9977501406492851 -0.008410818033893736
3.159609375 -0.9941054429994262 -0.008955620729287184
3.1607578125 -0.9953361021956072 -0.009201326932681206
3.16190625 -0.9968360696109965 -0.008443450381006357
3.1630546875 -0.9964046192060405 -0.008677941307857442
3.164203125 -0.9944816691474281 -0.009070893164098773
3.1653515625 -0.9967467364872645 -0.00836940399820739
3.1665 -0.9972033910534538 -0.008408501381604622
3.1676484375 -0.9920974019570736 -0.010241906340880555
3.168796875 -0.9969580223379514 -0.007390841428477207
3.1699453125 -0.9974001380533642 -0.008137784808145546
3.17109375 -0.9924772842135448 -0.010207137430678526
3.1722421875 -0.9965664000381642 -0.008044418761910144
3.173390625 -0.9979005655546119 -0.008224658328085221
3.1745390625 -0.9948630778822185 -0.00863947234545441
3.1756875 -0.9946043555165693 -0.009129409468047842
3.1768359375 -0.9974452025365231 -0.007928529295797265
3.177984375 -0.9973828345621581 -0.0074360309648695
3.1791328125 -0.9902319902991108 -0.008446896595364378
3.18028125 -0.9947276542184261 -0.009073953311986974
3.1814296875 -0.9970951157021124 -0.007951475692637239
3.182578125 -0.9971768925754466 -0.008048014724454502
3.1837265625 -0.9967791699228918 -0.008755459118447564
3.184875 -0.996198075380646 -0.007997695560404111
3.1860234375 -0.995310072902251 -0.009130952371729839
3.187171875 -0.9949073621329427 -0.00998146277428777
3.1883203125 -0.9968857796782024 -0.008826255994846599
3.18946875 -0.9965919770832152 -0.009466469795888402
3.1906171875 -0.9913187943937499 -0.010465390153683321
3.191765625 -0.9968508516817203 -0.008601027035841743
3.1929140625 -0.9962736818631472 -0.008948637831826214
3.1940625 -0.9909054264191177 -0.010263625820277705
3.1952109375 -0.9959162099250201 -0.009324335152095395
3.196359375 -0.9953703767575616 -0.008901257198219797
3.1975078125 -0.9934258296411863 -0.009050423968571988
3.19865625 -0.993934896112154 -0.009776225642178504
3.1998046875 -0.9954961964844511 -0.009245654057462818
3.200953125 -0.9946929398513211 -0.009560491843374125
3.2021015625 -0.9918103332006892 -0.010829797892073015
3.20325 -0.9956148374713345 -0.009590271966896283
3.2043984375 -0.9953145749579038 -0.009542985348625202
3.205546875 -0.9898746030161287 -0.01098495010729239
3.2066953125 -0.9949502085642535 -0.009519371409175179
3.20784375 -0.9952321831561095 -0.008721095503508844
3.2089921875 -0.9907339780675642 -0.009274728160575216
3.210140625 -0.9944821730138741 -0.008548473768001413
3.2112890625 -0.994874578595039 -0.008827750521077371
3.2124375 -0.992583622509619 -0.009079646091231935
3.2135859375 -0.992064346096636 -0.010057504599009531
3.214734375 -0.9949288022763587 -0.0088760139168797
3.2158828125 -0.9951814749569744 -0.008258357832616636
3.21703125 -0.9909472152577827 -0.009806414450822212
3.2181796875 -0.9945165841815505 -0.008868515311033082
3.219328125 -0.994951205014214 -0.008912142044971871
3.2204765625 -0.990069960366921 -0.00979293912707277
3.221625 -0.9938509251394675 -0.008838055088299462
3.2227734375 -0.9941278483524653 -0.00839019722951112
3.223921875 -0.9916550357505458 -0.008385225282732917
3.2250703125 -0.9932047932465935 -0.0089620009395628
3.22621875 -0.99439362521609 -0.008722675051464374
3.2273671875 -0.9924284070586818 -0.009233679872222955
3.228515625 -0.9904542545838414 -0.009158617987708034
3.2296640625 -0.9937585261374622 -0.009522358903724458
3.2308125 -0.9931342253651585 -0.009683704750869784
3.2319609375 -0.9884599918590746 -0.01057696538847331
3.233109375 -0.9930143035496365 -0.008314304738203937
3.2342578125 -0.9928442202676175 -0.008919637005585415
3.23540625 -0.9890120863751639 -0.010024013834127751
3.2365546875 -0.9925335585339368 -0.00950706930294231
3.237703125 -0.9933384779008207 -0.009305319353266249
3.2388515625 -0.990708760688445 -0.00959458617347693
3.24 -0.9912227527002165 -0.00953891731794226
3.2411484375 -0.992728026644523 -0.008758556438177988
3.242296875 -0.9924410967299802 -0.008671439322479775
3.2434453125 -0.9889385467704362 -0.009231492002994578
3.24459375 -0.9930733088370051 -0.008415603873235256
3.2457421875 -0.9931936569855173 -0.008802642881828665
3.246890625 -0.9880230769918673 -0.009179098762318635
3.2480390625 -0.9929991008983783 -0.00809743141126297
3.2491875 -0.9927027488602385 -0.007661794135463328
3.2503359375 -0.9891014213789154 -0.008822193184088317
3.251484375 -0.9915976941272933 -0.008104954329292478
3.2526328125 -0.9923570317642655 -0.007705700335286586
3.25378125 -0.9904528999494646 -0.007955485487814211
3.2549296875 -0.9907998141130054 -0.008011483053787183
3.256078125 -0.9928261848423782 -0.007883976596141387
3.2572265625 -0.9923613343830584 -0.00788581371558103
3.258375 -0.9882746794243114 -0.00876741457017944
3.2595234375 -0.9927658732405839 -0.006897068640198345
3.260671875 -0.9921481592950454 -0.008005038942748836
3.2618203125 -0.988800775923863 -0.008089827058741119
3.26296875 -0.9917821773645987 -0.006689476848885274
3.2641171875 -0.9916091821657178 -0.007135945085117383
3.265265625 -0.9898837863139754 -0.007863232164894894
3.2664140625 -0.9902683236749007 -0.008894025049917376
3.2675625 -0.9918627883258857 -0.00820681572805819
3.2687109375 -0.9912889201121138 -0.00852201410663693
3.269859375 -0.9880622294637386 -0.00911146660456072
3.2710078125 -0.9907773314585786 -0.008188128441035156
3.27215625 -0.9906156209138042 -0.008807452854989385
3.2733046875 -0.9864074671656091 -0.009495196762641246
3.274453125 -0.9903782979087189 -0.007443075105863072
3.2756015625 -0.9906543689401608 -0.00803070275859729
3.27675 -0.9878720157545522 -0.008029343500381654
3.2778984375 -0.990652012416601 -0.006864600540606017
3.279046875 -0.9908844962724963 -0.0075906703188761415
3.2801953125 -0.9891196318345423 -0.00785315563558911
3.28134375 -0.9898099623500711 -0.007617751582041116
3.2824921875 -0.9920782641403076 -0.007530330218821137
3.283640625 -0.991325860534338 -0.007875641137270649
3.2847890625 -0.9886291077769077 -0.008190119482070247
3.2859375 -0.9919430221451802 -0.006937587684139941
3.2870859375 -0.991334425799759 -0.0076938532732815645
3.288234375 -0.9884540531071246 -0.008059296854201606
3.2893828125 -0.9909498008700052 -0.008076267829384864
3.29053125 -0.9910645550462021 -0.007247578018373717
3.2916796875 -0.9885081063332858 -0.008906365392767367
3.292828125 -0.9898007558860347 -0.007376989391213645
3.2939765625 -0.9900886305061066 -0.008248033583388534
3.295125 -0.9891639466390194 -0.008793386557396726
3.2962734375 -0.9885262252106379 -0.010491889335948426
3.297421875 -0.9899372039679364 -0.008712777585405757
3.2985703125 -0.9900789716684423 -0.008471605628757838
3.29971875 -0.986078064924871 -0.009676439670887514
3.3008671875 -0.9893535558460622 -0.008514875715790376
3.302015625 -0.9896206654125858 -0.01017591826992123
3.3031640625 -0.986418681056717 -0.010192615585277731
3.3043125 -0.9891063371843265 -0.008600967325221184
3.3054609375 -0.9887659179031469 -0.00981112138141138
3.306609375 -0.9869380733758419 -0.009261844776143911
3.3077578125 -0.9877910572292004 -0.010200379958383965
3.30890625 -0.9895230254033395 -0.009024807906235416
3.3100546875 -0.9890583238525764 -0.009617303695813068
3.311203125 -0.985027012272761 -0.010190657911444245
3.3123515625 -0.9882520625554209 -0.008832313211099972
3.3135 -0.9884801086219243 -0.009845887512003326
3.3146484375 -0.9854036263136281 -0.009847628245371338
3.315796875 -0.9886005436875178 -0.008755986595783395
3.3169453125 -0.9879007142581167 -0.009217488652372686
3.31809375 -0.9861688885228016 -0.009234145125562546
3.3192421875 -0.9875608367590322 -0.009148240248711803
3.320390625 -0.9885327095041794 -0.009444760025480198
3.3215390625 -0.9879037703071074 -0.009971917118934165
3.3226875 -0.9862618225938978 -0.010086846969897971
3.3238359375 -0.9877172224325327 -0.010167757170324712
3.324984375 -0.9878501112481504 -0.011048663801828257
3.3261328125 -0.9846761167225425 -0.010799580064964079
3.32728125 -0.9875196872197913 -0.010042494532245906
3.3284296875 -0.9871921658833992 -0.010699553685233135
3.329578125 -0.9848071665993174 -0.010025853905020372
3.3307265625 -0.9860488491605588 -0.010593682786438102
3.331875 -0.9862620187761818 -0.011465440195021812
3.3330234375 -0.9849216423963743 -0.010544048129266764
3.334171875 -0.9857429764655106 -0.010416583768732168
3.3353203125 -0.9861320347745659 -0.00992617148520767
3.33646875 -0.9863692229509691 -0.010325642886604681
3.3376171875 -0.9848042536734494 -0.010640448549050427
3.338765625 -0.9869748559692558 -0.009898415699680543
3.3399140625 -0.9860160940548103 -0.010395076295973776
3.3410625 -0.9832870804389964 -0.009679078144835089
3.3422109375 -0.9860120828381793 -0.00933163240789179
3.343359375 -0.985574815279145 -0.010637533628336318
3.3445078125 -0.984107008628424 -0.00949282182807127
3.34565625 -0.9854981793222506 -0.009599159275179493
3.3468046875 -0.984773223743194 -0.009051699311156111
3.347953125 -0.9851879914231613 -0.00979460868398336
3.3491015625 -0.9845659073433926 -0.010454250126316962
3.35025 -0.9859691066959787 -0.009444813927808278
3.3513984375 -0.9854540411407037 -0.010438521767646446
3.352546875 -0.9829299152910177 -0.010146686471638983
3.3536953125 -0.9862650464630545 -0.00996107674900511
3.35484375 -0.9852196329585338 -0.010408756064949684
3.3559921875 -0.9840248421717414 -0.00910605640890888
3.357140625 -0.9860024903504471 -0.009052534803444066
3.3582890625 -0.9855845746801585 -0.010135765334875577
3.3594375 -0.9842879550802195 -0.010098793831291239
3.3605859375 -0.9849769999382569 -0.009903613034104024
3.361734375 -0.9856240134063204 -0.010346807380147984
3.3628828125 -0.9848404744235222 -0.010768175586177809
3.36403125 -0.9834777879248113 -0.011044632366415407
3.3651796875 -0.9844840805145936 -0.0108061184574497
3.366328125 -0.9843644939568921 -0.011005233087230688
3.3674765625 -0.9823341271163545 -0.011425365016867046
3.368625 -0.985025061179609 -0.01105988689587236
3.3697734375 -0.983598274991277 -0.011677811187961379
3.370921875 -0.9815724347905032 -0.01047893876466019
3.3720703125 -0.9846416229915766 -0.010354682331980766
3.37321875 -0.9845429499070786 -0.011505234012586803
3.3743671875 -0.9830338623445242 -0.01126677269299304
3.375515625 -0.9828445731931087 -0.011525917060358735
3.3766640625 -0.9835500917183324 -0.01077576525395385
3.3778125 -0.9837156688791596 -0.011214223718262917
3.3789609375 -0.9822745776400396 -0.011601254566174876
3.380109375 -0.9836618331005282 -0.011105800902687618
3.3812578125 -0.9828127610065872 -0.012033092618300989
3.38240625 -0.9817452775465878 -0.010971601196697649
3.3835546875 -0.9841093133600368 -0.010675590880456762
3.384703125 -0.9835835128341504 -0.012137880206095499
3.3858515625 -0.9826203458952758 -0.01109244565626294
3.387 -0.9839961190624444 -0.010600386950973081
3.3881484375 -0.9837586758305681 -0.01174539239409414
3.389296875 -0.9832906677214467 -0.012091075249743358
3.3904453125 -0.9821075269320636 -0.012399744319423298
3.39159375 -0.9833310518586691 -0.012318623140449361
3.3927421875 -0.9830251487516934 -0.013748151554693916
3.393890625 -0.9802623573284233 -0.012114793604492594
3.3950390625 -0.9825195194514987 -0.013466682041641545
3.3961875 -0.9823987330251674 -0.013119528470234385
3.3973359375 -0.9815738059980061 -0.01217845109297043
3.398484375 -0.9822995849418232 -0.012314939913635498
3.3996328125 -0.9823880197609541 -0.012958948069558218
3.40078125 -0.9824108127960749 -0.011850115943403988
3.4019296875 -0.9819966425282173 -0.012900850772793904
3.403078125 -0.9832397033670409 -0.012710219121506758
3.4042265625 -0.9821857416575007 -0.013231874043805908
3.405375 -0.9807554366535083 -0.012083299270408979
3.4065234375 -0.9818693643283627 -0.012248765384040183
3.407671875 -0.9816705749048511 -0.012483684091739777
3.4088203125 -0.9802482086265505 -0.011188363156159079
3.40996875 -0.9815521198548728 -0.011507270723995155
3.4111171875 -0.9809705513615465 -0.012586946480785413
3.412265625 -0.9797405713287258 -0.010854859911784864
3.4134140625 -0.9806718712824603 -0.011000214683384649
3.4145625 -0.9810479238086741 -0.011405457722767007
3.4157109375 -0.9808807459032697 -0.010906175664457368
3.416859375 -0.9803841274393732 -0.011796525762289123
3.4180078125 -0.9823072685568609 -0.012308237669314298
3.41915625 -0.9813076140988917 -0.012482929575596602
3.4203046875 -0.9805055017674675 -0.010966781765010106
3.421453125 -0.9817946412705978 -0.011405660498177705
3.4226015625 -0.9816359905129148 -0.011813546830114735
3.42375 -0.9810539858631601 -0.011564641479652582
3.4248984375 -0.9831333928741367 -0.012118637640385739
3.426046875 -0.9814814857191869 -0.01333662580270547
3.4271953125 -0.98165282885499 -0.012045051475829668
3.42834375 -0.9810302982092545 -0.011627320762860993
3.4294921875 -0.9808989823719232 -0.013074993608067104
3.430640625 -0.9814239835317231 -0.012396751827781619
3.4317890625 -0.9803981370150738 -0.01226068221641937
3.4329375 -0.9815571934409424 -0.01326665998716163
3.4340859375 -0.9805177682574642 -0.012840911413401102
3.435234375 -0.9792752016576587 -0.010677633756397575
3.4363828125 -0.9810957267453164 -0.012284228971656208
3.43753125 -0.9801696227687934 -0.013274465108969957
3.4386796875 -0.9806879948282479 -0.011315160829530546
3.439828125 -0.9808508753973865 -0.011962285650942261
3.4409765625 -0.9802712781674827 -0.013020421128038528
3.442125 -0.9800368026556139 -0.011655053610829358
3.4432734375 -0.9796061826694893 -0.01282979421712542
3.444421875 -0.9806570710366489 -0.013189850554002078
3.4455703125 -0.9795778661179011 -0.013631416513259807
3.44671875 -0.9786288061609792 -0.01271061219752484
3.4478671875 -0.9800932717609244 -0.012489821292638162
3.449015625 -0.9794969249842815 -0.013384898552732352
3.4501640625 -0.9783991906898635 -0.011949098244366754
3.4513125 -0.9796626992686237 -0.01165161363704205
3.4524609375 -0.9788681214523456 -0.011668230152229286
3.453609375 -0.9799272699733037 -0.011063451242199589
3.4547578125 -0.9795037983231046 -0.011068991142751547
3.45590625 -0.979337816585866 -0.011727645919616322
3.4570546875 -0.9803077658503274 -0.012315752996296322
3.458203125 -0.9793660260778807 -0.010973350541038235
3.4593515625 -0.9803126587794455 -0.01217434318473512
3.4605 -0.9804011127660375 -0.01393003403880698
3.4616484375 -0.9791540719496616 -0.011728342239846534
3.462796875 -0.9794221253234652 -0.012885733064936275
3.4639453125 -0.9798579650397167 -0.013784791075757002
3.46509375 -0.9788613039102527 -0.012955190082172663
3.4662421875 -0.9801650714443448 -0.013469593465478324
3.467390625 -0.9793233668632113 -0.012810231359242419
3.4685390625 -0.9803378827691395 -0.012297980578783091
3.4696875 -0.9804653336839486 -0.01308005901273554
3.4708359375 -0.9798707591717626 -0.013969696070552845
3.471984375 -0.9793829754206486 -0.013272735501920901
3.4731328125 -0.9784783040751347 -0.012116846077749294
3.47428125 -0.9802363582250854 -0.013352664442774498
3.4754296875 -0.9788279208144128 -0.014134954536722172
3.476578125 -0.9782550301354734 -0.01287466250585223
3.4777265625 -0.9788227462459624 -0.01331445426066466
3.478875 -0.9782414807845881 -0.014137637860491575
3.4800234375 -0.9788961811813528 -0.012035434590835198
3.481171875 -0.9789351863789144 -0.013105237172656298
3.4823203125 -0.9771009579368435 -0.013680806465288325
3.48346875 -0.9783826312685061 -0.013211351793738335
3.4846171875 -0.9770159192913199 -0.012669307659542078
3.485765625 -0.9769530851956875 -0.014585492309039938
3.4869140625 -0.976411032106773 -0.0147740657613665
3.4880625 -0.9770877082637274 -0.012611869990806157
3.4892109375 -0.9784226166930654 -0.01418717424747673
3.490359375 -0.9777290588666141 -0.014542314241337062
3.4915078125 -0.9780832876649664 -0.012835744898243157
3.49265625 -0.977493508868637 -0.014288178572912591
3.4938046875 -0.977124242283451 -0.015967592792989677
3.494953125 -0.9777187812711304 -0.01431125263190497
3.4961015625 -0.9773222090068511 -0.014606217760098072
3.49725 -0.9775141125370905 -0.014989445956024583
3.4983984375 -0.9785871979272238 -0.015108248748168268
3.499546875 -0.9782100284727131 -0.014697120927682827
3.5006953125 -0.9788274540560592 -0.014363760890320765
3.50184375 -0.9779821546934646 -0.014770680565729666
3.5029921875 -0.9784992412516919 -0.013703459097814313
3.504140625 -0.9792678224547979 -0.014409894429915887
3.5052890625 -0.9779842172630151 -0.01464351536140171
3.5064375 -0.9770677588670637 -0.01371693237223745
3.5075859375 -0.9767341825792524 -0.014519360844658824
3.508734375 -0.9770038768033008 -0.014320137310248948
3.5098828125 -0.9775848526730105 -0.014354916802196777
3.51103125 -0.9774884383847254 -0.012862717003652463
3.5121796875 -0.9766197428362241 -0.014131656355393374
3.513328125 -0.9766228117035877 -0.014601521523709082
3.5144765625 -0.9768863929341414 -0.012626869054811252
3.515625 -0.9766748529715127 -0.01369281302976938
3.5167734375 -0.9754370640391464 -0.014008645770625439
3.517921875 -0.9761654437021595 -0.012366583226948724
3.5190703125 -0.9762863940125005 -0.013401087735346179
3.52021875 -0.9758632943138005 -0.013516405891062622
3.5213671875 -0.9755699443811571 -0.012481743436404319
3.522515625 -0.9757130336556766 -0.012964272247449143
3.5236640625 -0.9754575001639212 -0.014059669458972218
3.5248125 -0.9760034884959405 -0.012849141129336009
3.5259609375 -0.9757071937732916 -0.012685055209306906
3.527109375 -0.9759048433132715 -0.013792451177861209
3.5282578125 -0.9754849965780841 -0.014590859779186172
3.52940625 -0.976613152103045 -0.011580573443333408
3.5305546875 -0.9770978498796529 -0.01437212323127951
3.531703125 -0.9753879401816893 -0.014795623946260786
3.5328515625 -0.9757760937364736 -0.01257339180134285
3.534 -0.9767187236351409 -0.014275393709671097
3.5351484375 -0.9759453830343978 -0.01529563109735678
3.536296875 -0.9771955541605505 -0.014140189715831898
3.5374453125 -0.9757431069242752 -0.014217615272983562
3.53859375 -0.9747602667694394 -0.015388301477350139
3.5397421875 -0.9754073817647723 -0.015810934227540898
3.540890625 -0.9751068030572367 -0.014416063149166988
3.5420390625 -0.9757396432427413 -0.016022345414746064
3.5431875 -0.9748643298675589 -0.015740430082088187
3.5443359375 -0.9757513132610285 -0.013547271728473264
3.545484375 -0.9756969827185906 -0.014472884951438544
3.5466328125 -0.975462558828792 -0.015242170026773272
3.54778125 -0.9757904341366203 -0.014132371948244717
3.5489296875 -0.9751224083934006 -0.013971282118262568
3.550078125 -0.9749456442915473 -0.014899905156101415
3.5512265625 -0.9747216502163227 -0.015385070695839241
3.552375 -0.9747762081595921 -0.013928702243519837
3.5535234375 -0.974522401573761 -0.01620093837556365
3.554671875 -0.973839927890008 -0.01695673438855065
3.5558203125 -0.9737008853180313 -0.014697981459329205
3.55696875 -0.9741246473341185 -0.015589987890191712
3.5581171875 -0.9731362404125375 -0.016318823293189635
3.559265625 -0.9735855199873118 -0.013887636935803131
3.5604140625 -0.9737047845743845 -0.014974434159913848
3.5615625 -0.9727361382685628 -0.015833530476822698
3.5627109375 -0.9734664550244401 -0.014581677746297254
3.563859375 -0.9734793987886468 -0.01573274216492153
3.5650078125 -0.972829270205695 -0.01643964965614879
3.56615625 -0.9724340110761267 -0.017386700321868842
3.5673046875 -0.9721933391493678 -0.01462113003583438
3.568453125 -0.9730039641921677 -0.0155234012678203
3.5696015625 -0.9720770089492374 -0.017280678277829045
3.57075 -0.9725350336448839 -0.013412043312888297
3.5718984375 -0.9718559153134299 -0.015831704547088293
3.573046875 -0.9717921006363379 -0.016433972147076592
3.5741953125 -0.9720626548644419 -0.013463312553447702
3.57534375 -0.9721956461629813 -0.014594158524662733
3.5764921875 -0.9713760910850732 -0.015782033593697134
3.577640625 -0.972343919525223 -0.01581247560522033
3.5787890625 -0.9714511097105479 -0.014992612679770367
3.5799375 -0.9713511840323992 -0.01582690436851207
3.5810859375 -0.9716432587438217 -0.01692363970569223
3.582234375 -0.9725956755246254 -0.013895569941829111
3.5833828125 -0.9719413695283989 -0.015454554406947957
3.58453125 -0.9713601751234291 -0.016729829548860528
3.5856796875 -0.9723279526691407 -0.013791582203698916
3.586828125 -0.9718860316267646 -0.01424258283019567
3.5879765625 -0.9708656605625671 -0.01551148110807295
3.589125 -0.9721440218888205 -0.013190920557926464
3.5902734375 -0.9714349957031647 -0.013920554095978283
3.591421875 -0.970149370270766 -0.014793710501595142
3.5925703125 -0.9710541653597198 -0.014662802934152397
3.59371875 -0.9711862331023235 -0.013249294194766587
3.5948671875 -0.9711367890255009 -0.014741215096130744
3.596015625 -0.9704827852074096 -0.01490132405317135
3.5971640625 -0.9723729007040609 -0.01089572014289833
3.5983125 -0.9708814941090019 -0.013421874658237645
3.5994609375 -0.9702499545435948 -0.014406645229738356
3.600609375 -0.9717725860872262 -0.0123910946494529
3.6017578125 -0.9713317578747951 -0.013799370056294682
3.60290625 -0.9701447852625396 -0.014456704628480754
3.6040546875 -0.9712810891667213 -0.013585044606735375
3.605203125 -0.9723697877280164 -0.013685695844866924
3.6063515625 -0.9716000394963764 -0.01494032142291006
3.6075 -0.9707715718044808 -0.015931346294750404
3.6086484375 -0.9726959164788619 -0.013075250925237217
3.609796875 -0.9712567463419288 -0.015047673900265818
3.6109453125 -0.9712997345626906 -0.01602550566787994
3.61209375 -0.9724557877501638 -0.013094262450704108
3.6132421875 -0.9711548232193569 -0.014695179464348118
3.614390625 -0.9702799578567687 -0.016370810826456417
3.6155390625 -0.9718440889814817 -0.014739178056192986
3.6166875 -0.9717567922287904 -0.015177280987496905
3.6178359375 -0.9712227017383226 -0.01649022689331353
3.618984375 -0.970840850693643 -0.016252378576009252
3.6201328125 -0.9711551645033349 -0.015127522497037332
3.62128125 -0.9701198043776734 -0.01708032866444592
3.6224296875 -0.969830011033502 -0.018495302194705077
3.623578125 -0.971221392612498 -0.015222641157964761
3.6247265625 -0.9705817344404192 -0.017562592528399368
3.625875 -0.9694704103132034 -0.018266220781074982
3.6270234375 -0.9704982622782623 -0.015409885719966071
3.628171875 -0.9702347363806252 -0.017739191777849578
3.6293203125 -0.9700114363722563 -0.01866528087766331
3.63046875 -0.9700006075603764 -0.017681319941527912
3.6316171875 -0.9704232131461523 -0.017152096037460457
3.632765625 -0.9705171785819486 -0.018569456743916607
3.6339140625 -0.9696208929676475 -0.01877923888418223
3.6350625 -0.9700491880144699 -0.016335705596876193
3.6362109375 -0.9692677118448831 -0.017685786108033452
3.637359375 -0.9690008811283066 -0.01914185097235066
3.6385078125 -0.9699754190999117 -0.016206775148592367
3.63965625 -0.9694503947348583 -0.0187181457591849
3.6408046875 -0.968644450326785 -0.020580390965327988
3.641953125 -0.9706342032191788 -0.017616335445874876
3.6431015625 -0.9691701957991727 -0.01811529866805095
3.64425 -0.9685681443485924 -0.01995237997159177
3.6453984375 -0.9689781743089902 -0.01985613576372186
3.646546875 -0.969091013915611 -0.01836219751101975
3.6476953125 -0.9678970837481143 -0.019281785541274188
3.64884375 -0.9671294163641332 -0.019933347043459282
3.6499921875 -0.9692098281573858 -0.01687334898624937
3.651140625 -0.9676665700227236 -0.019349252262675587
3.6522890625 -0.9669533239524178 -0.020431472579875876
3.6534375 -0.9690877320244367 -0.01742783296010314
3.6545859375 -0.9677253131242398 -0.01814178495099461
3.655734375 -0.967785072788247 -0.020439232765582127
3.6568828125 -0.9693910952199019 -0.018666378785203386
3.65803125 -0.969237271853163 -0.018690314590302293
3.6591796875 -0.9673008092384362 -0.019903638809698143
3.660328125 -0.9672583908311776 -0.01919685770830415
3.6614765625 -0.9690239610982172 -0.01758087770864858
3.662625 -0.9684464055187654 -0.018436315120064883
3.6637734375 -0.9664923326736807 -0.01980814865504582
3.664921875 -0.9699380104749498 -0.015781954566777112
3.6660703125 -0.9680725432788436 -0.018950889441213148
3.66721875 -0.966838997544707 -0.01984755006690403
3.6683671875 -0.9688793545532032 -0.017212956516582056
3.669515625 -0.9688659467001637 -0.018182237709344018
3.6706640625 -0.9677981841301275 -0.019405576506553668
3.6718125 -0.9691489345163519 -0.01922707034047544
3.6729609375 -0.969210912129524 -0.017562432975283593
3.674109375 -0.9689476232162555 -0.020035490782936705
3.6752578125 -0.9687101018135426 -0.02057928828087907
3.67640625 -0.9702703930031473 -0.017871373675950958
3.6775546875 -0.9682952445025106 -0.02108039316055116
3.678703125 -0.9689425077943234 -0.021190838926974265
3.6798515625 -0.9717610502147964 -0.01690923274722264
3.681 -0.9695399780377965 -0.020430648482154395
3.6821484375 -0.9690244753834102 -0.021270116592014443
3.683296875 -0.9702720338125908 -0.020524627451172284
3.6844453125 -0.9699484559310224 -0.020010072414242186
3.68559375 -0.9695899530475975 -0.021463974762735205
3.6867421875 -0.9696688123733133 -0.022046522272729213
3.687890625 -0.9709754129726569 -0.01925612715355035
3.6890390625 -0.9701799270051431 -0.02113349517332236
3.6901875 -0.9699280763790434 -0.02210158317962252
3.6913359375 -0.9717578937912732 -0.018489789248161664
3.692484375 -0.9697726048522378 -0.021000313505787488
3.6936328125 -0.9692235898061874 -0.02210030446405603
3.69478125 -0.9718263817596711 -0.01971832853891975
3.6959296875 -0.9707259346696513 -0.021059218512919253
3.697078125 -0.9693195460015227 -0.022391521333730652
3.6982265625 -0.9699590548491597 -0.021112902208213713
3.699375 -0.970147104869824 -0.020097381307368017
3.7005234375 -0.9686698557759277 -0.022050499197859452
3.701671875 -0.9684811195958576 -0.02254713155682439
3.7028203125 -0.9702697815781164 -0.0195391100618586
3.70396875 -0.9689325948045274 -0.022323441470744554
3.7051171875 -0.9682667104638987 -0.023311529964272243
3.706265625 -0.9710214794784027 -0.01927099529770264
3.7074140625 -0.9689686809358005 -0.02111702020323604
3.7085625 -0.9681719885089696 -0.022405689914404725
3.7097109375 -0.9695806716383805 -0.02014633390308275
3.710859375 -0.9694344207276553 -0.021443937553981482
3.7120078125 -0.9673484750537493 -0.02263971639670359
3.71315625 -0.9675366577745708 -0.021759353115191338
3.7143046875 -0.9681378110327713 -0.019568556495811407
3.715453125 -0.9665402431838963 -0.021502817977370622
3.7166015625 -0.9657713668514101 -0.023175253327827133
3.71775 -0.9683710308301118 -0.018655872549000502
3.7188984375 -0.9660067132746898 -0.021217924803279886
3.720046875 -0.9651272445703638 -0.023029103551909118
3.7211953125 -0.9678676731191896 -0.01947814678399761
3.72234375 -0.9664050880791996 -0.021733374873273266
3.7234921875 -0.9655010270338774 -0.023207783522643667
3.724640625 -0.9678390998254613 -0.021476986617580067
3.7257890625 -0.9683257262138254 -0.020449672261812907
3.7269375 -0.9662468684312544 -0.023238868218106404
3.7280859375 -0.9660439283837394 -0.02283749903061906
3.729234375 -0.9674977142838236 -0.019019746545180932
3.7303828125 -0.9666209838831384 -0.02102599845445847
3.73153125 -0.9655323622229248 -0.022244850481629524
3.7326796875 -0.969443197252438 -0.01803429496504947
3.733828125 -0.9670333308929682 -0.020693469898149845
3.7349765625 -0.9658996389805767 -0.021800773714641522
3.736125 -0.9676947898923767 -0.01990315670267287
3.7372734375 -0.9671446969927837 -0.02118893507780814
3.738421875 -0.9660085351707333 -0.022178930862593912
3.7395703125 -0.9669587413387445 -0.02119172273000061
3.74071875 -0.9659245964781789 -0.02021209539876051
3.7418671875 -0.965151211535958 -0.023026520236893652
3.743015625 -0.9654563979640085 -0.022758653850775204
3.7441640625 -0.968328180357285 -0.019625108580245063
3.7453125 -0.9666736210077274 -0.022651848470010102
3.7464609375 -0.9661388563393358 -0.022626899259275954
3.747609375 -0.9694729565984908 -0.01920976379935016
3.7487578125 -0.9676871518814343 -0.021078337755738974
3.74990625 -0.9667783864755611 -0.022645112587686284
3.7510546875 -0.9687074615778921 -0.02061773396494032
3.752203125 -0.9684402774393692 -0.020544049082443477
3.7533515625 -0.9676264306763147 -0.02190455282695851
3.7545 -0.9674763980664578 -0.022015253402734497
3.7556484375 -0.9693290484840732 -0.02008206433193921
3.756796875 -0.9672055289561291 -0.022645298329393437
3.7579453125 -0.9673313426897144 -0.023148914871340742
3.75909375 -0.9703283919427828 -0.01947738271388516
3.7602421875 -0.9678889050895229 -0.022604023906647064
3.761390625 -0.9672546777648443 -0.023908662249928797
3.7625390625 -0.9706558379608048 -0.021679186018138424
3.7636875 -0.9690674611847427 -0.023365345360706474
3.7648359375 -0.9687059124915245 -0.024518021854722016
3.765984375 -0.9704306068589974 -0.023500490210684843
3.7671328125 -0.9701548077843698 -0.022184312653881877
3.76828125 -0.9684666636441368 -0.024342302728394355
3.7694296875 -0.9684608226181932 -0.025621420163508657
3.770578125 -0.9713342399661067 -0.02237132651684781
3.7717265625 -0.969430316746364 -0.024145245516144664
3.772875 -0.9687467274486514 -0.025205325600247824
3.7740234375 -0.9720124196157852 -0.020889932273285394
3.775171875 -0.9704403473367729 -0.023544609053402832
3.7763203125 -0.9693238556527873 -0.024483476457740627
3.77746875 -0.9716899753963697 -0.02328683741687826
3.7786171875 -0.971013734586994 -0.022734574262189278
3.779765625 -0.9701502829224284 -0.023691193255201803
3.7809140625 -0.9700032445510606 -0.02403641855648314
3.7820625 -0.9716899681751339 -0.02184039380282682
3.7832109375 -0.9708571793487311 -0.023713548474019575
3.784359375 -0.9709784847919853 -0.023708220231288823
3.7855078125 -0.9747472651964482 -0.019253593154599458
3.78665625 -0.9711111671841361 -0.02144741911004977
3.7878046875 -0.9704992685101322 -0.02181999734051221
3.788953125 -0.9729072340888956 -0.018587447990447536
3.7901015625 -0.971556931020567 -0.019380994920717376
3.79125 -0.9699827311201952 -0.02095725798062026
3.7923984375 -0.9708337743324935 -0.01817626855734228
3.793546875 -0.9703741802275829 -0.01695594575763615
3.7946953125 -0.9691556677034271 -0.019740322297952306
3.79584375 -0.9680252429025429 -0.020228466324270222
3.7969921875 -0.9701956262584842 -0.016067929186271535
3.798140625 -0.968050993292691 -0.018234418111096218
3.7992890625 -0.9672913144654449 -0.019359816053006518
3.8004375 -0.9679372560381654 -0.01703636468003028
3.8015859375 -0.9666542755147709 -0.019051653889614217
3.802734375 -0.9679564019192566 -0.01869286518737462
3.8038828125 -0.9682174414239653 -0.017136356218934667
3.80503125 -0.9667179428615548 -0.020125883623474894
3.8061796875 -0.9656243173694485 -0.02109061943692908
3.807328125 -0.9693329211367298 -0.01645705804906955
3.8084765625 -0.9669830771091561 -0.02057592646921752
3.809625 -0.9654564221230564 -0.02084113242660246
3.8107734375 -0.9678652242907799 -0.016092929815702206
3.811921875 -0.9661414319742628 -0.01928023610974583
3.8130703125 -0.9660900060355688 -0.02099383334004168
3.81421875 -0.9669118809443965 -0.01930928465967613
3.8153671875 -0.9669176830800883 -0.019707669698437957
3.816515625 -0.9648911201371586 -0.02131828421485954
3.8176640625 -0.9652346875677014 -0.022458576434851718
3.8188125 -0.9672502036249213 -0.01878629828383116
3.8199609375 -0.9657662715151574 -0.020987679304434015
3.821109375 -0.9657563510341605 -0.022366889916930865
3.8222578125 -0.9690693788291955 -0.01753241198768124
3.82340625 -0.9667733113785048 -0.020719603268048392
3.8245546875 -0.9654545830728265 -0.020807611081755994
3.825703125 -0.9711265526446275 -0.01666454705365794
3.8268515625 -0.9688341981030947 -0.017504964840183213
3.828 -0.9661514946403412 -0.019988249935235236
3.8291484375 -0.9654374025324123 -0.021143003720061615
3.830296875 -0.964938929575239 -0.022269971023435975
3.8314453125 -0.9651273668240353 -0.02281735827459752
3.83259375 -0.965417725762618 -0.023412099779236695
3.8337421875 -0.9684133946080473 -0.019361991312538185
3.834890625 -0.9661798667469909 -0.021705676604028334
3.8360390625 -0.9663290989550375 -0.02249400127568124
3.8371875 -0.9679519725722336 -0.02026140163607698
3.8383359375 -0.9668116942859168 -0.021518183703836014
3.839484375 -0.9654488074810313 -0.02311363113555731
3.8406328125 -0.9655561526202873 -0.023415084591603075
3.84178125 -0.9677774750590207 -0.020938954223754358
3.8429296875 -0.9661433526663892 -0.022610524251484743
3.844078125 -0.9651782566551955 -0.02368269463514744
3.8452265625 -0.9699007316551405 -0.019251864218608528
3.846375 -0.9660515502151485 -0.023197852376982908
3.8475234375 -0.965505007791564 -0.024266944088877584
3.848671875 -0.9673388800947416 -0.01974387336104927
3.8498203125 -0.9650230868763828 -0.021762172159475013
3.85096875 -0.9643349496889584 -0.022956621142170563
3.8521171875 -0.9663938523407694 -0.021851396266885592
3.853265625 -0.966795889300012 -0.021057140011034536
3.8544140625 -0.9640287884787268 -0.024035993023058422
3.8555625 -0.9641287936286562 -0.024223623697654073
3.8567109375 -0.9673935705631109 -0.020848449461047636
3.857859375 -0.9651266320655736 -0.023412707570984626
3.8590078125 -0.9640562611161748 -0.024530974246389448
3.86015625 -0.9672729463048024 -0.019706261596106223
3.8613046875 -0.9657478378764646 -0.0217530527826012
3.862453125 -0.9639674723527203 -0.024455488333107955
3.8636015625 -0.9674001814897082 -0.020266969710051985
3.86475 -0.965815062377118 -0.02089078913487813
3.8658984375 -0.9644885371183629 -0.023983125069512
3.867046875 -0.9659139629647444 -0.023598877345719138
3.8681953125 -0.9667199133408497 -0.02222441810601944
3.86934375 -0.964686056120694 -0.023049709109443095
3.8704921875 -0.9647428184135975 -0.024290066607705385
3.871640625 -0.9676203631888087 -0.020055525098357896
3.8727890625 -0.9650739086706366 -0.023032016349026574
3.8739375 -0.9637749303645019 -0.02412295052788202
3.8750859375 -0.9675066540549755 -0.021304631028189996
3.876234375 -0.9652698890754995 -0.02304420809626123
3.8773828125 -0.964541730946612 -0.0244374953126687
3.87853125 -0.9657171655165395 -0.02259978435255172
3.8796796875 -0.9652863908473912 -0.023740033372980307
3.880828125 -0.9638969711673742 -0.024949756367272286
3.8819765625 -0.9642971686032923 -0.026257962009503227
3.883125 -0.9660090796745684 -0.022022603149861097
3.8842734375 -0.9643994517695172 -0.025050861099798483
3.885421875 -0.9632553432469977 -0.0254125830086335
3.8865703125 -0.9677280414481477 -0.021214484597634475
3.88771875 -0.9649160878603789 -0.024436454481217007
3.8888671875 -0.9638840913266886 -0.026154926913572435
3.890015625 -0.9667685460547801 -0.02348373536993456
3.8911640625 -0.9649357591793177 -0.02456800181540983
3.8923125 -0.9641618391750116 -0.025932260254060507
3.8934609375 -0.9658836981315528 -0.024565362561285803
3.894609375 -0.9663273736333798 -0.02315218993568169
3.8957578125 -0.964651588188009 -0.02594795942953887
3.89690625 -0.9642473689616712 -0.026909433955292467
3.8980546875 -0.9672554862801735 -0.02193848944872187
3.899203125 -0.9652942560554368 -0.02547522016883766
3.9003515625 -0.9648609716472392 -0.02664045058889347
3.9015 -0.9678329691988187 -0.022596951481360372
3.9026484375 -0.9657056764338482 -0.024969514406379234
3.903796875 -0.965373153464263 -0.027132822581649008
3.9049453125 -0.9675600105219782 -0.025203090383074223
3.90609375 -0.9668836072442902 -0.02573775907561421
3.9072421875 -0.9656729219356252 -0.027334462276284527
3.908390625 -0.9653816136730569 -0.027847841343245583
3.9095390625 -0.9679685376958356 -0.024935219106255235
3.9106875 -0.96614445726279 -0.028222678801749335
3.9118359375 -0.9653081513193679 -0.02836334262777898
3.912984375 -0.9690928653697113 -0.02337264304775219
3.9141328125 -0.966159829264489 -0.026418825379822236
3.91528125 -0.9656588852476004 -0.02640436135527499
3.9164296875 -0.9692118455053278 -0.023783075594623587
3.917578125 -0.9670144525693637 -0.025209985881704644
3.9187265625 -0.9660425984790509 -0.02666221788596418
3.919875 -0.9672445060922523 -0.02440475823887525
3.9210234375 -0.9673224628456772 -0.023235818932696217
3.922171875 -0.9666287137296106 -0.026345677834082648
3.9233203125 -0.9654261679125258 -0.027085676260408753
3.92446875 -0.968158911143526 -0.0223238279460809
3.9256171875 -0.9667390058187827 -0.02468994218918555
3.926765625 -0.9662643891437186 -0.025314797653564203
3.9279140625 -0.968206763240565 -0.021134502059896754
3.9290625 -0.9663572804384831 -0.023949215585519656
3.9302109375 -0.9654019135451848 -0.025434012801150208
3.931359375 -0.9682266904904806 -0.02141994918743087
3.9325078125 -0.9661430571772907 -0.0239888102424676
3.93365625 -0.9650168913513936 -0.024977740337735976
3.9348046875 -0.967540962629947 -0.023862134328499596
3.935953125 -0.9680582921804458 -0.02127872728836991
3.9371015625 -0.9656543086636631 -0.02298324809651542
3.93825 -0.9649699270131855 -0.024699565383140942
3.9393984375 -0.9687200347684429 -0.020820205201980968
3.940546875 -0.9658353561038816 -0.024065031593630548
3.9416953125 -0.964753887192861 -0.024934833143521185
3.94284375 -0.9680217824137863 -0.020803209699358838
3.9439921875 -0.9652657849833913 -0.023927242862895437
3.945140625 -0.9652325082784561 -0.024447269937535543
3.9462890625 -0.9670847818987176 -0.022610771962047083
3.9474375 -0.9663913104567996 -0.022791537817418273
3.9485859375 -0.9647165070467484 -0.025341226400156125
3.949734375 -0.9650214552166634 -0.023900651108082982
3.9508828125 -0.9666665103160776 -0.019873550712387056
3.95203125 -0.9645891137496924 -0.02333265326748568
3.9531796875 -0.9642941124690992 -0.024224231711244104
3.954328125 -0.9674483369198603 -0.019865294017712976
3.9554765625 -0.9646747330839452 -0.022369785094970118
3.956625 -0.9645061173043336 -0.023614750210473545
3.9577734375 -0.96647765038072 -0.02125082871246209
3.958921875 -0.9645173263362886 -0.022931432002879226
3.9600703125 -0.9640914426976874 -0.02414317646014008
3.96121875 -0.965534018271636 -0.02229206922759125
3.9623671875 -0.964685021497163 -0.02163429911238246
3.963515625 -0.9632702544857978 -0.02390848965298431
3.9646640625 -0.9636664931535754 -0.023886373074623324
3.9658125 -0.9661962265744193 -0.02012737737742848
3.9669609375 -0.9636735963398442 -0.02351048680122475
3.968109375 -0.9638763362130297 -0.02493558478822555
3.9692578125 -0.9660659109950351 -0.021298936673684654
3.97040625 -0.963920256394529 -0.024517945579827838
3.9715546875 -0.9634460864891145 -0.025413675654392842
3.972703125 -0.9663169407942669 -0.023284847380910245
3.9738515625 -0.9651405182922349 -0.02382855048678295
3.975 -0.9636337998567962 -0.025430168252825958
3.9761484375 -0.9637312042664425 -0.025999939300930086
3.977296875 -0.9663234538835044 -0.023011234093477273
3.9784453125 -0.9638507894764129 -0.02643434425154878
3.97959375 -0.9636026588568694 -0.027001765701687497
3.9807421875 -0.9670435225892493 -0.022565489531870153
3.981890625 -0.9642577242770772 -0.026248275906107454
3.9830390625 -0.9635505598186901 -0.027465844697710684
3.9841875 -0.966375182721963 -0.023242273677178238
3.9853359375 -0.9637667394409661 -0.025854178598364308
3.986484375 -0.9629878223359004 -0.02660446613587575
3.9876328125 -0.9645559808664411 -0.02486439364004256
3.98878125 -0.9644269744193508 -0.024764652865503223
3.9899296875 -0.9636614085156155 -0.02650491640067687
3.991078125 -0.9631760949002262 -0.0271854529312045
3.9922265625 -0.9663442875071222 -0.02258514763102848
3.993375 -0.9644123586850339 -0.025526460280221264
3.9945234375 -0.9618745388525337 -0.02699619750997051
3.995671875 -0.9663505130108401 -0.022068562567441663
3.9968203125 -0.9641521144930747 -0.025216394047017643
3.99796875 -0.9636878017104716 -0.025808536189951825
3.9991171875 -0.966329710126633 -0.02262772698702642
4.000265625 -0.9650309117215997 -0.024234401710161058
4.0014140625 -0.9630349747798926 -0.025446961977955262
4.0025625 -0.9643547053920244 -0.024413440411843512
4.0037109375 -0.9646589584181533 -0.02280923247732286
4.004859375 -0.962900671283515 -0.025930075117131246
4.0060078125 -0.9630366331996693 -0.026676147718553755
4.00715625 -0.9664820287030307 -0.02071040007952224
4.0083046875 -0.9629711655134172 -0.02562810294532042
4.009453125 -0.9629506315694174 -0.026134323808116144
4.0106015625 -0.9658863124582394 -0.022037468733414944
4.01175 -0.9641446047251704 -0.02628768621161881
4.0128984375 -0.9639562523494258 -0.028789396780101617
4.014046875 -0.9650089338683464 -0.02566796388729764
4.0151953125 -0.9645147691252155 -0.025989746216150966
4.01634375 -0.9631747273328879 -0.028482751592671218
4.0174921875 -0.9638390090603028 -0.02921076864278066
4.018640625 -0.9638122112654055 -0.025731735010280865
4.0197890625 -0.9622938843466035 -0.027250411445690237
4.0209375 -0.9634191340769913 -0.028308021908351966
4.0220859375 -0.9665539155610303 -0.02503269181890988
4.023234375 -0.962913577968947 -0.027667160385557
4.0243828125 -0.9635294020103339 -0.028462060958623803
4.02553125 -0.965498381478949 -0.02551827948333618
4.0266796875 -0.964053913735166 -0.027252594545615738
4.027828125 -0.9628910234923893 -0.02848867751529388
4.0289765625 -0.9641194476949094 -0.027588101939162113
4.030125 -0.9641620732592775 -0.02591931826427052
4.0312734375 -0.9639893874604881 -0.02809681747334347
4.032421875 -0.9639127787459909 -0.028497985559497285
4.0335703125 -0.9665584876375791 -0.024868442558325765
4.03471875 -0.9646040693686893 -0.02765879265912824
4.0358671875 -0.9640938188508037 -0.028328315105874302
4.037015625 -0.9675082729836525 -0.025597485385651264
4.0381640625 -0.964887568343143 -0.02834118811068226
4.0393125 -0.9651040972504046 -0.02943206689127731
4.0404609375 -0.9658986270478748 -0.02759240286912712
4.041609375 -0.9651695305348791 -0.027675929890607187
4.0427578125 -0.9652298761192221 -0.02908707946062522
4.04390625 -0.9648651616478892 -0.03036509322937536
4.0450546875 -0.9665094759626516 -0.027392973327107772
4.046203125 -0.9637885939297658 -0.029587513690670475
4.0473515625 -0.9639103727404932 -0.03159776901076894
4.0485 -0.9684393507214728 -0.02742692944434344
4.0496484375 -0.9662186274769979 -0.02979415232992677
4.050796875 -0.9658371685240125 -0.03073206029583525
4.0519453125 -0.9710366290051116 -0.026641042095531975
4.05309375 -0.9686377370510739 -0.02688128344829982
4.0542421875 -0.9650149850082592 -0.029682672183581893
4.055390625 -0.9642457824202172 -0.030918921906164132
4.0565390625 -0.963696314617061 -0.031279381976452025
4.0576875 -0.963005039782635 -0.030702124061657954
4.0588359375 -0.9643412891319362 -0.03188862989800717
4.059984375 -0.9667139738712666 -0.027947128896422035
4.0611328125 -0.9646166025610659 -0.029845296920177344
4.06228125 -0.9643397078578211 -0.029298198520756102
4.0634296875 -0.9665426123276932 -0.027116103959544502
4.064578125 -0.9641182969209434 -0.02897328353648959
4.0657265625 -0.9627098569400625 -0.03082384052395437
4.066875 -0.9630938311514423 -0.030374996965953027
4.0680234375 -0.9648664018418235 -0.027657133202771134
4.069171875 -0.9652211051993087 -0.028912949052152692
4.0703203125 -0.9636136382332109 -0.030024498093863983
4.07146875 -0.9678156565418221 -0.026466124090984033
4.0726171875 -0.9647603019721959 -0.029317435631687816
4.073765625 -0.964931328551571 -0.0300096545925842
4.0749140625 -0.9671864092259275 -0.02672069458899501
4.0760625 -0.96514723198911 -0.028236953518573304
4.0772109375 -0.9646919987641845 -0.030486612464522944
4.078359375 -0.9661138137196683 -0.02942030614752178
4.0795078125 -0.9653823251752711 -0.02855833666737262
4.08065625 -0.9639762294151514 -0.03097760909641384
4.0818046875 -0.9643307426037651 -0.031150676803948785
4.082953125 -0.9660429687431257 -0.02897700088581906
4.0841015625 -0.9648809018135833 -0.03032897259679118
4.08525 -0.9645637018583031 -0.031726129805227626
4.0863984375 -0.9669579385538354 -0.02810591821649655
4.087546875 -0.9646426913084745 -0.029771594366133802
4.0886953125 -0.9639240422011512 -0.031155203056686148
4.08984375 -0.9663495816833442 -0.028096944506814714
4.0909921875 -0.9643494117248554 -0.02965377870140873
4.092140625 -0.9629280211914166 -0.0319012861567437
4.0932890625 -0.9646352382792813 -0.03112620962147286
4.0944375 -0.9657861624585832 -0.028109300684473204
4.0955859375 -0.9646270870465776 -0.0305965373165748
4.096734375 -0.9633480146280947 -0.03214385483667273
4.0978828125 -0.9672818794973378 -0.026842058854470024
4.09903125 -0.9652883959565478 -0.02859922200234083
4.1001796875 -0.9637473221391796 -0.030575171706067744
4.101328125 -0.966862167984673 -0.02752421851927811
4.1024765625 -0.964802390791229 -0.03014810826843936
4.103625 -0.9649474124295968 -0.03147844977231112
4.1047734375 -0.9674584196394977 -0.0293685136497161
4.105921875 -0.9657307106092781 -0.029381878289395785
4.1070703125 -0.9648344685015775 -0.031288667709657325
4.10821875 -0.9646523020606672 -0.031758663092143063
4.1093671875 -0.9670534550945061 -0.02846886520225006
4.110515625 -0.9651635637181282 -0.02935964962591303
4.1116640625 -0.9655820173772823 -0.031001798599407215
4.1128125 -0.968327583943802 -0.027712233213833037
4.1139609375 -0.9659761146678894 -0.03040869616513775
4.115109375 -0.9663951645588185 -0.030545751027423657
4.1162578125 -0.9683308885917751 -0.028744625706056848
4.11740625 -0.9659331954454282 -0.02852233387804759
4.1185546875 -0.9651593786338764 -0.032078989318441054
4.119703125 -0.9663230848807277 -0.03138691045850428
4.1208515625 -0.9667100158420242 -0.02979336258953086
4.122 -0.9659152422996878 -0.03233320843252646
4.1231484375 -0.965384278821937 -0.032961563588117415
4.124296875 -0.9662985738351394 -0.02814113990683803
4.1254453125 -0.964866908679822 -0.031334216954051114
4.12659375 -0.9633224191113676 -0.032054155146965996
4.1277421875 -0.965553838992534 -0.02900738464978203
4.128890625 -0.9644741578019271 -0.03132346621429549
4.1300390625 -0.9625755875130151 -0.03320457763166368
4.1311875 -0.9650633079264523 -0.030822793010741506
4.1323359375 -0.9645242241769675 -0.029945254287629564
4.133484375 -0.9646417990391236 -0.03113194893596788
4.1346328125 -0.9653390064522712 -0.03380380625822621
4.13578125 -0.9659958159442034 -0.030636058326019067
4.1369296875 -0.9641264433984302 -0.03256405682173802
4.138078125 -0.9647340103790097 -0.033370004332063885
4.1392265625 -0.9682574572028141 -0.029097083838108773
4.140375 -0.9656942577986358 -0.031202437446913034
4.1415234375 -0.9638807137438421 -0.033126558513071336
4.142671875 -0.9676369197821493 -0.0302314501383526
4.1438203125 -0.9671476405831076 -0.03165808264506431
4.14496875 -0.9656168840152164 -0.03369168753037399
4.1461171875 -0.9672617307452729 -0.032994099511242825
4.147265625 -0.9665288657792103 -0.03145696566219719
4.1484140625 -0.966419132735322 -0.034451842918969966
4.1495625 -0.9661221328265224 -0.03400871348467477
4.1507109375 -0.9676837244874793 -0.029981552427209512
4.151859375 -0.9667571943210544 -0.0337748364035656
4.1530078125 -0.965201007288999 -0.03477569116423934
4.15415625 -0.9681970905713567 -0.032055665381075904
4.1553046875 -0.9674532328059503 -0.03485103377353577
4.156453125 -0.966477633813613 -0.03595157985790898
4.1576015625 -0.9691550279205969 -0.03301825979723089
4.15875 -0.9682890271938501 -0.03425368329953349
4.1598984375 -0.9662149377821416 -0.03453438201555786
4.161046875 -0.9684085738299246 -0.03425337032236486
4.1621953125 -0.9685141095695187 -0.03222214001510715
4.16334375 -0.9677000827229756 -0.03440360545605775
4.1644921875 -0.9674832976028123 -0.03510508981998217
4.165640625 -0.9705212499133383 -0.030563962543933787
4.1667890625 -0.9683419022817287 -0.03404021498518106
4.1679375 -0.9678209998941001 -0.034159160710789394
4.1690859375 -0.9708399853183435 -0.030568760639327952
4.170234375 -0.9694099432263434 -0.03262533203285328
4.1713828125 -0.9686156613030434 -0.03389629478003764
4.17253125 -0.967751526618837 -0.03325393821648592
4.1736796875 -0.9692174972475942 -0.032076400008883066
4.174828125 -0.968507569559813 -0.03403131137187687
4.1759765625 -0.9684237148226813 -0.03391533835236371
4.177125 -0.9697245000510517 -0.031023529028046948
4.1782734375 -0.968385600779957 -0.034268800462002924
4.179421875 -0.9697522001602703 -0.034078004998048306
4.1805703125 -0.9705849950357512 -0.03123067801446111
4.18171875 -0.9694997315933861 -0.03211361226998638
4.1828671875 -0.9686767041422935 -0.03460708327693879
4.184015625 -0.9683403057704323 -0.03407942886823351
4.1851640625 -0.9698443905240604 -0.03165858812199157
4.1863125 -0.9690331456200787 -0.034146153531613765
4.1874609375 -0.9700483496646873 -0.03581597230062694
4.188609375 -0.9695293617943568 -0.03489482449919018
4.1897578125 -0.9678818984352878 -0.034839053344908166
4.19090625 -0.9691596219514567 -0.03587815451259724
4.1920546875 -0.970142042728535 -0.03150506688021759
4.193203125 -0.9693289195119538 -0.03513382729938164
4.1943515625 -0.9693977459296541 -0.03772743936375261
4.1955 -0.9710650146189127 -0.03165073530799262
4.1966484375 -0.97034925475473 -0.03472611259598818
4.197796875 -0.9688965756730605 -0.034461851773611496
4.1989453125 -0.9704513227141451 -0.03271383339546202
4.20009375 -0.9689105514663829 -0.03173963869781088
4.2012421875 -0.9679091918664491 -0.03134005179887589
4.202390625 -0.9690499602724746 -0.03295877647894335
4.2035390625 -0.9701849644277633 -0.030650126831991698
4.2046875 -0.9685955562306251 -0.03242537825776626
4.2058359375 -0.9680189690386585 -0.033855283696398786
4.206984375 -0.9707226016670432 -0.031224467552721236
4.2081328125 -0.9694276220961676 -0.030962466543018652
4.20928125 -0.9688594421564806 -0.03458048937017605
4.2104296875 -0.9705619840356643 -0.03387873703240829
4.211578125 -0.9702351463183726 -0.032787857852754565
4.2127265625 -0.9682945559983671 -0.03264851397862034
4.213875 -0.9698937328344992 -0.03367703178629644
4.2150234375 -0.9692240528917953 -0.03165917532835666
4.216171875 -0.9676060642081687 -0.03273731218791015
4.2173203125 -0.9692156152517921 -0.035245449773469884
4.21846875 -0.9709336413146715 -0.03238605199400574
4.2196171875 -0.9681550129754741 -0.03231915675264169
4.220765625 -0.968039768303649 -0.034590274404807664
4.2219140625 -0.9701658523188694 -0.03282051202232811
4.2230625 -0.9679968718099607 -0.03417059513448545
4.2242109375 -0.9690366369675454 -0.037465894868916494
4.225359375 -0.9688463102695344 -0.03569239943440439
4.2265078125 -0.9706088144226881 -0.03381352973360896
4.22765625 -0.969891772444379 -0.0358161423397112
4.2288046875 -0.9684697123421021 -0.03773009093120516
4.229953125 -0.9695579019048942 -0.03496783705956519
4.2311015625 -0.967984116374026 -0.03767940538268594
4.23225 -0.9683570092943712 -0.03827091415932021
4.2333984375 -0.970476769353599 -0.03470415567301921
4.234546875 -0.969672292639441 -0.03730548939973932
4.2356953125 -0.9693754327198618 -0.03803630810747713
4.23684375 -0.969625404197172 -0.035968630780109645
4.2379921875 -0.9695667902082724 -0.036265228175809794
4.239140625 -0.9689500566130209 -0.03774688458813524
4.2402890625 -0.9712799745797814 -0.03616311726720889
4.2414375 -0.9718451396961647 -0.03518740436839407
4.2425859375 -0.970649159333383 -0.03781817291783135
4.243734375 -0.9708043521584853 -0.039562225150365476
4.2448828125 -0.9734061408151611 -0.03563079385732759
4.24603125 -0.9707125978540718 -0.039085266722794276
4.2471796875 -0.9719450331696787 -0.04019301505677181
4.248328125 -0.9735541332749044 -0.0372812528633229
4.2494765625 -0.9721576158682654 -0.040346099054115736
4.250625 -0.9732878885592526 -0.04079850616008865
4.2517734375 -0.9745335746717982 -0.038490728906545174
4.252921875 -0.9728084896850517 -0.03979414904109488
4.2540703125 -0.9717663354282424 -0.04041016300950723
4.25521875 -0.9728655296827641 -0.04041904528848585
4.2563671875 -0.9724393635924029 -0.038268812285936954
4.257515625 -0.9732791958653386 -0.04065875999116797
4.2586640625 -0.9724446270970899 -0.039835267926428955
4.2598125 -0.9743357680265853 -0.03868232061949975
4.2609609375 -0.9728273215356932 -0.04074082625639251
4.262109375 -0.9721318008088518 -0.039798320269480325
4.2632578125 -0.9740376322037245 -0.038702631010196054
4.26440625 -0.9726345844934844 -0.03887163939927439
4.2655546875 -0.9744137561518758 -0.03841993008752595
4.266703125 -0.9735033925747144 -0.03893676910017278
4.2678515625 -0.9745422427585333 -0.038974073263670805
4.269 -0.9739298047966065 -0.03840567838672962
4.2701484375 -0.973359295285505 -0.0399783152052669
4.271296875 -0.9725518849653549 -0.035828077276600555
4.2724453125 -0.9731612696983843 -0.038297558183689906
4.27359375 -0.9726629020483901 -0.037301753930875245
4.2747421875 -0.9734604423295735 -0.03480041800680282
4.275890625 -0.973597219428682 -0.035647836978084935
4.2770390625 -0.9742107121042926 -0.03427437097494994
4.2781875 -0.9752101086116403 -0.03376592870875121
4.2793359375 -0.9749357948944074 -0.035507775440379516
4.280484375 -0.974627100588572 -0.036078860733957344
4.2816328125 -0.9739641407165436 -0.03588827387409238
4.28278125 -0.9746208389665976 -0.03490873366288305
4.2839296875 -0.9752670496721176 -0.03643905623891418
4.285078125 -0.9741843656313618 -0.03573672708994141
4.2862265625 -0.9760429029503055 -0.034338904901991874
4.287375 -0.974590900736466 -0.034413559035977176
4.2885234375 -0.973315754272608 -0.03419301848225274
4.289671875 -0.9756999332353905 -0.034051587541790426
4.2908203125 -0.9757752335632912 -0.034345690449987074
4.29196875 -0.9749287872317443 -0.03703107116740911
4.2931171875 -0.9756790814049072 -0.03695969350010189
4.294265625 -0.9756414524204968 -0.03476815993580998
4.2954140625 -0.9744459109879087 -0.03677675919536608
4.2965625 -0.9747115065794243 -0.03857142810187472
4.2977109375 -0.9769343944584381 -0.034437273144788505
4.298859375 -0.9743720490998304 -0.037568416398339105
4.3000078125 -0.9750960583950583 -0.03772135345592276
4.30115625 -0.9764169891892662 -0.034534377966554036
4.3023046875 -0.9734368572781813 -0.03529973668058184
4.303453125 -0.9730497266156438 -0.03741974070967799
4.3046015625 -0.9758424920630142 -0.03589786599212805
4.30575 -0.9765306347239603 -0.03474555327483583
4.3068984375 -0.975414000338483 -0.03620182422316365
4.308046875 -0.9753309892462229 -0.03771711862162935
4.3091953125 -0.9773476227138733 -0.03520855541179457
4.31034375 -0.9752916121479634 -0.036351302036572525
4.3114921875 -0.9753717153384536 -0.036646519766017516
4.312640625 -0.9766928918561328 -0.03338915288406655
4.3137890625 -0.9763431495387105 -0.03777103552666783
4.3149375 -0.9776803508288691 -0.038000653261741235
4.3160859375 -0.9813651058994708 -0.034385224038263495
4.317234375 -0.9788114003557395 -0.037161567175476196
4.3183828125 -0.9808673356536559 -0.03757404472806963
4.31953125 -0.9807789634732768 -0.03646808117749323
4.3206796875 -0.980402928918629 -0.036834345547607394
4.321828125 -0.9805523373865114 -0.03667959240532026
4.3229765625 -0.9784185951414306 -0.035843275772949046
4.324125 -0.9817416542092231 -0.03508975927905117
4.3252734375 -0.9806758442167542 -0.03553936827145021
4.326421875 -0.9789214939502966 -0.03905712618388152
4.3275703125 -0.9787668822015054 -0.03578133755564583
4.32871875 -0.978224401275424 -0.03786330458129861
4.3298671875 -0.9786594768982324 -0.03799607603251992
4.331015625 -0.9796165136822981 -0.035633848405692226
4.3321640625 -0.9790131912006936 -0.03836702597559921
4.3333125 -0.9797602398982611 -0.03762953577466732
4.3344609375 -0.9788053136509564 -0.03730882551174014
4.335609375 -0.9787829886758674 -0.03821998494785017
4.3367578125 -0.9771163951143385 -0.03853891447315194
4.33790625 -0.9768744853637449 -0.0390443475875753
4.3390546875 -0.9789319820913587 -0.037279150622312296
4.340203125 -0.9766834737825487 -0.0379859436662911
4.3413515625 -0.9769282752116871 -0.03941114245300159
4.3425 -0.9791256179726109 -0.038129405198436106
4.3436484375 -0.9777783928376719 -0.034340877896391286
4.344796875 -0.9777824518619825 -0.03662750555344069
4.3459453125 -0.9793524460900247 -0.03577586022478818
4.34709375 -0.97835090110554 -0.03453982381781584
4.3482421875 -0.9786587321243971 -0.03611814804657343
4.349390625 -0.9796353921807398 -0.03842718670125106
4.3505390625 -0.9790832250768847 -0.0359328110392621
4.3516875 -0.9788674877229613 -0.036475922113134884
4.3528359375 -0.9786796837666433 -0.03667540408312969
4.353984375 -0.9799974811314617 -0.03350735447832037
4.3551328125 -0.9767648791359893 -0.03459322794993974
4.35628125 -0.9769457057101658 -0.037092899964108306
4.3574296875 -0.9772081637316132 -0.035251544092635256
4.358578125 -0.9768944726826168 -0.03402367261087946
4.3597265625 -0.9779038026358275 -0.03734721128753321
4.360875 -0.9775139210305511 -0.03607169612842964
4.3620234375 -0.9774128675610612 -0.03456285685045185
4.363171875 -0.9786208227088362 -0.03819412071414735
4.3643203125 -0.9786310478104567 -0.037661822506717124
4.36546875 -0.9788250619000103 -0.034677838258875604
4.3666171875 -0.9785818827877439 -0.03763841242291038
4.367765625 -0.9772019427270922 -0.03666027928103499
4.3689140625 -0.9799170879961244 -0.033175345886800656
4.3700625 -0.9802168889809184 -0.03608031889895236
4.3712109375 -0.9801190512420506 -0.03677743519250007
4.372359375 -0.9799493491892044 -0.034316397487926115
4.3735078125 -0.9801261994206205 -0.03576371085311475
4.37465625 -0.9800817319260599 -0.03666391350002671
4.3758046875 -0.9818141030554806 -0.036594039788457794
4.376953125 -0.982536449480085 -0.03611079576535822
4.3781015625 -0.9824811228792565 -0.03603620411574335
4.37925 -0.9817709461513459 -0.03518601607871813
4.3803984375 -0.985048073697805 -0.03370341121205919
4.381546875 -0.9830849319929049 -0.03523594847524825
4.3826953125 -0.9832144203487927 -0.038197413880082104
4.38384375 -0.9846427238494266 -0.035982721838299425
4.3849921875 -0.9839955860945211 -0.035042164106790175
4.386140625 -0.9841398983403601 -0.03907340413940086
4.3872890625 -0.9847312193194951 -0.03829798120350619
4.3884375 -0.9846699486038982 -0.037605348258135884
4.3895859375 -0.9842589257683867 -0.038344405714346996
4.390734375 -0.9843304501882262 -0.03888676434500149
4.3918828125 -0.9824216609672458 -0.036730993038435494
4.39303125 -0.9840343479822928 -0.03905888450929253
4.3941796875 -0.9838660407022862 -0.037835650270832744
4.395328125 -0.982991851498977 -0.03681159157335716
4.3964765625 -0.9826192389834822 -0.037895417528957004
4.397625 -0.9825695129443894 -0.04003257274859881
4.3987734375 -0.9835682156863229 -0.03813195142705911
4.399921875 -0.9829704661436481 -0.037942521901480286
4.4010703125 -0.9818904429213873 -0.04139650538066414
4.40221875 -0.9831166143684158 -0.03988226206244244
4.4033671875 -0.9835989512190917 -0.03933051674003783
4.404515625 -0.9809256511194027 -0.04038335755026895
4.4056640625 -0.9820413121461223 -0.04211084692892696
4.4068125 -0.9828467376195673 -0.037042751975529364
4.4079609375 -0.9811506326114566 -0.040178295884963994
4.409109375 -0.9830384147851542 -0.04056216213322508
4.4102578125 -0.9822361229556805 -0.039453334355919495
4.41140625 -0.9829752591788574 -0.0398268321511179
4.4125546875 -0.98141502537388 -0.03981313266613966
4.413703125 -0.9823316110617781 -0.03696460891645065
4.4148515625 -0.9799294379107953 -0.036856940586856755
4.416 -0.9796973670476086 -0.03787799104745472
4.4171484375 -0.9817782633101568 -0.03862449176272989
4.418296875 -0.9815400192411846 -0.03618252070952535
4.4194453125 -0.9792690191564755 -0.036445712646524936
4.42059375 -0.9816382367560899 -0.036642587827323186
4.4217421875 -0.9819735691334179 -0.035262602192045175
4.422890625 -0.9820454507049653 -0.03696455080949755
4.4240390625 -0.9815443161797721 -0.03825952154459858
4.4251875 -0.9814168429791548 -0.03684740712270142
4.4263359375 -0.9811477094293036 -0.03613997689801704
4.427484375 -0.9795144526627211 -0.038132291159558296
4.4286328125 -0.9811397892064692 -0.036484747357585307
4.42978125 -0.9800874491925585 -0.035989750046341196
4.4309296875 -0.9799396894199847 -0.038036373845749455
4.432078125 -0.9794525959660163 -0.03641548916862944
4.4332265625 -0.9795259968908299 -0.03484479633267472
4.434375 -0.9801835634442566 -0.03703591888040689
4.4355234375 -0.9805557251257236 -0.03688093568233308
4.436671875 -0.9808092070618476 -0.03422001362787519
4.4378203125 -0.9820350622594209 -0.03603747637208665
4.43896875 -0.9818880361884725 -0.03606787833983677
4.4401171875 -0.9815443893836476 -0.034521023656817806
4.441265625 -0.9821707560501811 -0.03343200770077581
4.4424140625 -0.9829799832501245 -0.033675394318505344
4.4435625 -0.9833370729763686 -0.03446095340314811
4.4447109375 -0.9849116341244638 -0.03370027362963432
4.445859375 -0.983873681049419 -0.03275450575721903
4.4470078125 -0.9838884723731371 -0.03394986907401921
4.44815625 -0.9853756930309044 -0.03552647830518625
4.4493046875 -0.9859219059936509 -0.03524737107599123
4.450453125 -0.9859130584787748 -0.03341615698771187
4.4516015625 -0.9863713907120212 -0.035212669471423125
4.45275 -0.9874119307540963 -0.03273682513879833
4.4538984375 -0.9866920230949723 -0.034288847242088846
4.455046875 -0.987057413937117 -0.03740292292848116
4.4561953125 -0.9868832999536334 -0.03569195069955741
4.45734375 -0.9877757952945243 -0.03500745504214959
4.4584921875 -0.9889535376152565 -0.03775695148636914
4.459640625 -0.9885763935174026 -0.035083280787146946
4.4607890625 -0.9889907217749265 -0.03613916568880924
4.4619375 -0.9879784766746286 -0.0384785967219579
4.4630859375 -0.9867912132600904 -0.036967200593799515
4.464234375 -0.9883349788729018 -0.0361074359123868
4.4653828125 -0.9874084018767152 -0.03811591186461517
4.46653125 -0.9875844022899077 -0.03833410057131145
4.4676796875 -0.9877511444840597 -0.035646332294515054
4.468828125 -0.9867349648298878 -0.04041974119447764
4.4699765625 -0.9857153957225736 -0.0403826734730916
4.471125 -0.9855943743170994 -0.03612201037202739
4.4722734375 -0.9865074937241849 -0.03949859965588137
4.473421875 -0.9857248698558625 -0.038541355716849524
4.4745703125 -0.9846612811873268 -0.035717380381411784
4.47571875 -0.9843790874201408 -0.03641937918483629
4.4768671875 -0.9847597586938286 -0.03726477763538438
4.478015625 -0.9846665514315747 -0.03529917008344802
4.4791640625 -0.9852018394303994 -0.03624359358125376
4.4803125 -0.984679971725274 -0.03808811360396239
4.4814609375 -0.9854935035649793 -0.038515794682418225
4.482609375 -0.9855951338597576 -0.03553522731271108
4.4837578125 -0.9866956321391404 -0.03749396785898479
4.48490625 -0.9869697073414062 -0.03787720224925564
4.4860546875 -0.9867259470899377 -0.03739517152186089
4.487203125 -0.9862931275421154 -0.039445985458209654
4.4883515625 -0.9872183444866133 -0.03884913007099855
4.4895 -0.986559133571763 -0.039208723952053576
4.4906484375 -0.9869081082994535 -0.03815079455982001
4.491796875 -0.985887329741849 -0.03866000981322035
4.4929453125 -0.9871720662590774 -0.039535709865376745
4.49409375 -0.9866306012609927 -0.03662695550379369
4.4952421875 -0.9872042363908873 -0.037407619872725256
4.496390625 -0.9875693703124778 -0.03866731699055864
4.4975390625 -0.9868149887204125 -0.03703868546270184
4.4986875 -0.9865738936574755 -0.03903246401933458
4.4998359375 -0.9863323666166152 -0.03965479551358089
4.500984375 -0.985537587062203 -0.03825643443461274
4.5021328125 -0.9860903137599191 -0.03756595202405194
4.50328125 -0.9856764584644592 -0.03721027446798214
4.5044296875 -0.9836795068137532 -0.03734818793596528
4.505578125 -0.9847584028693106 -0.03575964319107741
4.5067265625 -0.9846010898768296 -0.03858974127521689
4.507875 -0.9844196146811516 -0.03591706772583686
4.5090234375 -0.9859751032122208 -0.03429313902694381
4.510171875 -0.9863220841361565 -0.035040011358972445
4.5113203125 -0.9876683644857196 -0.03394396363180413
4.51246875 -0.9862773982269706 -0.03309918013339863
4.5136171875 -0.9854212211761217 -0.03233583684269309
4.514765625 -0.9864421531319079 -0.034713600818976065
4.5159140625 -0.9866543698087057 -0.0314502132304829
4.5170625 -0.9870146729568436 -0.032438494057975525
4.5182109375 -0.9888221056239033 -0.03309211784522695
4.519359375 -0.9887619488003303 -0.032991880619306524
4.5205078125 -0.9890440604450694 -0.03440588437047226
4.52165625 -0.9908273433345287 -0.03112352731485285
4.5228046875 -0.9895706190140547 -0.03194309762622349
4.523953125 -0.9907063320519073 -0.03230954167497194
4.5251015625 -0.9915434140467111 -0.03117947723938251
4.52625 -0.9907899162088585 -0.033920722406801454
4.5273984375 -0.9902729046057417 -0.03264987795240469
4.528546875 -0.9918237778684417 -0.03207361146466914
4.5296953125 -0.9906622809474979 -0.0321356538430799
4.53084375 -0.9877750048881494 -0.03265825533843411
4.5319921875 -0.9914624829674743 -0.032719423781667215
4.533140625 -0.9909849598790095 -0.035182616805232256
4.5342890625 -0.9897613345849261 -0.03505814768761706
4.5354375 -0.9920128727576557 -0.033884139678992176
4.5365859375 -0.9898499730696392 -0.03554169099033866
4.537734375 -0.9908352141626469 -0.03565353962164444
4.5388828125 -0.989709049124206 -0.0346149993793856
4.54003125 -0.9913428717433324 -0.03503228320120322
4.5411796875 -0.9914546966588879 -0.0364191938775249
4.542328125 -0.9890119287103614 -0.03568832014399484
4.5434765625 -0.9906768620694257 -0.03517977688367738
4.544625 -0.9912102633648447 -0.03673128870639812
4.5457734375 -0.9887070592444316 -0.03487837882605152
4.546921875 -0.9886219836240762 -0.03203747742209956
4.5480703125 -0.9890602731578823 -0.03481858010238956
4.54921875 -0.9881772378710317 -0.03359739514955437
4.5503671875 -0.989291577800265 -0.032337442425781765
4.551515625 -0.9884040505797436 -0.03573313663002822
4.5526640625 -0.9901510014924777 -0.03520018889704005
4.5538125 -0.9870967356730269 -0.034570506666405765
4.5549609375 -0.9885535138153906 -0.03715781995888899
4.556109375 -0.9900663770609645 -0.035359063615764894
4.5572578125 -0.9888810916107862 -0.03567818760256322
4.55840625 -0.9909031068020848 -0.037334461794831644
4.5595546875 -0.9909158604828859 -0.03763247558809629
4.560703125 -0.990042898696461 -0.03886371706383396
4.5618515625 -0.9898290527728396 -0.036818290233555484
4.563 -0.9927467934817429 -0.036147115251861595
4.5641484375 -0.9904463559968214 -0.03643200817983255
4.565296875 -0.9894124414713995 -0.03558339382055252
4.5664453125 -0.9897270984873832 -0.03713237559100943
4.56759375 -0.9904802355449212 -0.03707059287541396
4.5687421875 -0.9888708383617928 -0.03651034800024918
4.569890625 -0.9913817832951844 -0.036302074592744066
4.5710390625 -0.9914911571466819 -0.03783308948049538
4.5721875 -0.9873511573782211 -0.03697831853075906
4.5733359375 -0.9883685781328544 -0.03631576416791896
4.574484375 -0.9891212215965444 -0.03806830046938743
4.5756328125 -0.9876951638619101 -0.03721455037162365
4.57678125 -0.9890894356424302 -0.035433902203661896
4.5779296875 -0.9877357926118504 -0.03686498208231642
4.579078125 -0.987630700564013 -0.035779926180069616
4.5802265625 -0.9861858859792272 -0.034423846842007194
4.581375 -0.9885557324761653 -0.03433585794034966
4.5825234375 -0.9901616088724445 -0.03483702473539574
4.583671875 -0.9871033480027396 -0.034157468582580494
4.5848203125 -0.9888386393174295 -0.033080115519124265
4.58596875 -0.9913880036955545 -0.03248776917797713
4.5871171875 -0.9908204602317774 -0.03263579255334005
4.588265625 -0.9910520803229472 -0.030495968138844656
4.5894140625 -0.9920258469562525 -0.032028821257641005
4.5905625 -0.9914092163744646 -0.03449782918135137
4.5917109375 -0.9924813634247052 -0.030803784614017796
4.592859375 -0.9927769436544649 -0.03268567659742752
4.5940078125 -0.9932700878288407 -0.03314825864254131
4.59515625 -0.9924402730705293 -0.032461565312052285
4.5963046875 -0.9937925380292809 -0.03504664122083898
4.597453125 -0.9946614393607229 -0.0330110554473215
4.5986015625 -0.9921379577139284 -0.03309037557512359
4.59975 -0.9943833768307562 -0.030699474560723666
4.6008984375 -0.9942040568586763 -0.03215618481964105
4.602046875 -0.9913112806144965 -0.03305306063432166
4.6031953125 -0.9926411422601001 -0.030868987918568874
4.60434375 -0.9931875356222798 -0.03198007083338596
4.6054921875 -0.9918686767882471 -0.0334924248633625
4.606640625 -0.99087581944931 -0.03011178214458582
4.6077890625 -0.9925458841419508 -0.034072439301325905
4.6089375 -0.9935259710898473 -0.034764753474348264
4.6100859375 -0.9912658555980707 -0.03476739293772869
4.611234375 -0.993383046775459 -0.03482700704152321
4.6123828125 -0.9942383606809542 -0.036063654820363056
4.61353125 -0.9913448308392594 -0.037067898759769444
4.6146796875 -0.9936133013391764 -0.03479082409469712
4.615828125 -0.9930519665117316 -0.036240259389922994
4.6169765625 -0.9932137062249602 -0.03560289026635321
4.618125 -0.9926720054207796 -0.03317238812037551
4.6192734375 -0.992192042706812 -0.03618167366256128
4.620421875 -0.9927515220453724 -0.03602351620143482
4.6215703125 -0.9909730034346138 -0.03411126790869248
4.62271875 -0.9920884344491472 -0.03535944252519706
4.6238671875 -0.992597429464932 -0.03604228150105643
4.625015625 -0.9897580669705317 -0.0343532271136166
4.6261640625 -0.991765546368977 -0.033936552757375796
4.6273125 -0.9918716109783923 -0.036296886695337684
4.6284609375 -0.9904863209478907 -0.03557763846844795
4.629609375 -0.9930409597724053 -0.03373175709848732
4.6307578125 -0.9932748098332139 -0.035198430291746
4.63190625 -0.9934383358246479 -0.03685830711526643
4.6330546875 -0.9933021458243232 -0.03395694495441126
4.634203125 -0.9938755523968502 -0.035311678032770716
4.6353515625 -0.9947771279899643 -0.03535985282091342
4.6365 -0.9914658415242079 -0.03391666410797574
4.6376484375 -0.9936677912186682 -0.03483959446546341
4.638796875 -0.9942398277989204 -0.035812806229125874
4.6399453125 -0.9912286315673073 -0.034796009603184554
4.64109375 -0.9933482748174572 -0.03320482079323524
4.6422421875 -0.9943135937432495 -0.03417476068965519
4.643390625 -0.991625478199688 -0.035674480338951126
4.6445390625 -0.9916477416900229 -0.03336843174318453
4.6456875 -0.9929102920932158 -0.03645016414548874
4.6468359375 -0.9929248958445698 -0.03539173871829658
4.647984375 -0.9906541422973733 -0.03328078823819972
4.6491328125 -0.9914136718350126 -0.03368674339613363
4.65028125 -0.9908649057455747 -0.03531666816100158
4.6514296875 -0.9895881472988199 -0.03208972336133971
4.652578125 -0.9924234487967936 -0.032028703560610494
4.6537265625 -0.9920613762893609 -0.033366102782314444
4.654875 -0.9909432525440567 -0.03363102813745836
4.6560234375 -0.9933422973832964 -0.03212248999621729
4.657171875 -0.9935644838775344 -0.033565944918417315
4.6583203125 -0.9922483086422953 -0.0321604662656496
4.65946875 -0.9922998487662757 -0.031007666736959656
4.6606171875 -0.9917711816829986 -0.03151938310423286
4.661765625 -0.9941671547229564 -0.03299872520737396
4.6629140625 -0.9906516307261866 -0.03173244753532371
4.6640625 -0.9941677097058047 -0.03124144640182104
4.6652109375 -0.9940158389369977 -0.030196860011599908
4.666359375 -0.9897608503508282 -0.030066734053157934
4.6675078125 -0.9919221689139248 -0.029370610083826368
4.66865625 -0.9934639276763859 -0.03257211185984059
4.6698046875 -0.991685369685201 -0.03178585203762355
4.670953125 -0.9928799243355934 -0.027431294701686912
4.6721015625 -0.9936026431582055 -0.029963387083464042
4.67325 -0.9926549485712326 -0.03115426616220389
4.6743984375 -0.9912532169042917 -0.028479524481261995
4.675546875 -0.9925157664703035 -0.030592604864943432
4.6766953125 -0.9937561381968067 -0.03169293880934415
4.67784375 -0.9918796779640873 -0.030134969641254034
4.6789921875 -0.9937241483811182 -0.031068915723783362
4.680140625 -0.9939071540876856 -0.03313693972432965
4.6812890625 -0.9921899565379543 -0.03139524842119104
4.6824375 -0.9932466584385974 -0.03036707079457461
4.6835859375 -0.9940410691690474 -0.03195150037180837
4.684734375 -0.9929524647470316 -0.033245528649876246
4.6858828125 -0.9935572162288067 -0.03053078676110539
4.68703125 -0.9928159058034349 -0.031450758794805744
4.6881796875 -0.9939191012279197 -0.033965517862171175
4.689328125 -0.9917765044239324 -0.03196001963550009
4.6904765625 -0.9929658088546641 -0.03172168705435653
4.691625 -0.9938450387762661 -0.033085018882056234
4.6927734375 -0.9915650330015484 -0.03172430452649749
4.693921875 -0.9941243142494461 -0.031190632701476095
4.6950703125 -0.9948934961927495 -0.03101718864767601
4.69621875 -0.9916527438684961 -0.030405125879887362
4.6973671875 -0.9949331882490106 -0.02814112951037029
4.698515625 -0.9952212442961323 -0.031494296096936804
4.6996640625 -0.9953874293002282 -0.03025960323079529
4.7008125 -0.995443983346168 -0.030192468201362316
4.7019609375 -0.9963160178950092 -0.03144295211994297
4.703109375 -0.9960007242707195 -0.03246312152387413
4.7042578125 -0.9924244831354497 -0.02987845653734246
4.70540625 -0.9950466788333294 -0.0299853793079541
4.7065546875 -0.9954683275962011 -0.030386046320125523
4.707703125 -0.9920902621717952 -0.030814376707221605
4.7088515625 -0.9942608657820771 -0.03087157902202574
4.71 -0.9973397021246146 -0.030497213868317434
4.7111484375 -0.9939841829963861 -0.03185434140381286
4.712296875 -0.9951822941331021 -0.029219257227217875
4.7134453125 -0.9967590511902904 -0.03181631523124116
4.71459375 -0.9965672379923107 -0.031847707490935365
4.7157421875 -0.9937906316620543 -0.030635813705648288
4.716890625 -0.9947293786500856 -0.03055670298524439
4.7180390625 -0.9947064411338795 -0.030841477426158823
4.7191875 -0.9933457960406917 -0.030609837166934682
4.7203359375 -0.9955396506097431 -0.029092997146750336
4.721484375 -0.9969198142285423 -0.030399966147947433
4.7226328125 -0.9925438881449721 -0.0319233021384777
4.72378125 -0.9946502172661817 -0.027892155149863644
4.7249296875 -0.9971718097949378 -0.030145593475150168
4.726078125 -0.9961734278450848 -0.030278973080620136
4.7272265625 -0.9955435797234896 -0.02814799536110027
4.728375 -0.9979131164739853 -0.02876161859817379
4.7295234375 -0.9975473600788826 -0.030419222609039683
4.730671875 -0.9955125235951654 -0.030355301421771716
4.7318203125 -0.99623388671414 -0.028922995334488402
4.73296875 -0.9983648634899959 -0.029908454589666976
4.7341171875 -0.9935822805372079 -0.02912297596176148
4.735265625 -0.9972376010488397 -0.028715285319194844
4.7364140625 -0.9982085921551905 -0.029648771080865846
4.7375625 -0.9961915450410754 -0.03102533131730338
4.7387109375 -0.9966788972039184 -0.02776236565127979
4.739859375 -0.9980144835850636 -0.029347248173720523
4.7410078125 -0.9973482246142549 -0.029132262398905664
4.74215625 -0.9962245956162719 -0.026826279053737884
4.7433046875 -0.9971229017702443 -0.028909708884066958
4.744453125 -0.9969807232801355 -0.02971779333941811
4.7456015625 -0.9950765159614812 -0.029322592736037156
4.74675 -0.9973353563777227 -0.02662265621344921
4.7478984375 -0.997316285155055 -0.029088307356746904
4.749046875 -0.9931260152721391 -0.029508820549251857
4.7501953125 -0.9950296481717459 -0.028528335149262007
4.75134375 -0.9968625913097411 -0.030624385417503133
4.7524921875 -0.995879534552056 -0.03125643093400725
4.753640625 -0.9958936825371373 -0.026998873973666168
4.7547890625 -0.9966349546882337 -0.02922437518666371
4.7559375 -0.9979284886528352 -0.029773864495653918
4.7570859375 -0.9956159836656189 -0.028273998778569842
4.758234375 -0.9967830420053805 -0.028135993184510308
4.7593828125 -0.9981550407269273 -0.029375085514867644
4.76053125 -0.9936027515550331 -0.031155469067498803
4.7616796875 -0.9957043994047287 -0.029938521893498493
4.762828125 -0.9971088631269078 -0.029954959054546995
4.7639765625 -0.994282820635696 -0.031021141876880348
4.765125 -0.9965097361402591 -0.028047571138186234
4.7662734375 -0.9983568179884953 -0.030172591050891387
4.767421875 -0.9956985791622517 -0.02998067024708112
4.7685703125 -0.9964777571357801 -0.027444319410814086
4.76971875 -0.9972454872726643 -0.02975190717824608
4.7708671875 -0.9976656957411818 -0.03139715277210195
4.772015625 -0.9939679475912401 -0.02945806061986886
4.7731640625 -0.9964272668084735 -0.02876308363966623
4.7743125 -0.9965595227973658 -0.03056536413950657
4.7754609375 -0.9937562561696064 -0.029996418722597215
4.776609375 -0.9964628816314154 -0.027825748828384428
4.7777578125 -0.9962839349092315 -0.029216091272134898
4.77890625 -0.9927074202437565 -0.031246261002265546
4.7800546875 -0.9951891164835331 -0.02689394545763521
4.781203125 -0.9976573451320337 -0.0298781638297142
4.7823515625 -0.9983506015048136 -0.029833866867662498
4.7835 -0.9950796418191664 -0.027324589644070835
4.7846484375 -0.99632306779424 -0.029233102422485363
4.785796875 -0.9965595623303225 -0.030601517524713573
4.7869453125 -0.992207502762878 -0.029367900481836046
4.78809375 -0.9953896351531278 -0.027931923554179866
4.7892421875 -0.9967394956629587 -0.029879118033018237
4.790390625 -0.9939596535588613 -0.03027619670355411
4.7915390625 -0.9954320481557841 -0.02837140789783904
4.7926875 -0.9955595316035617 -0.030259603927510648
4.7938359375 -0.9957460558571707 -0.030866180851559566
4.794984375 -0.9967935890415953 -0.025701117787455235
4.7961328125 -0.9973768354332182 -0.028960295753890725
4.79728125 -0.9977860439613166 -0.03011557405471202
4.7984296875 -0.9936586191655323 -0.029106619412687218
4.799578125 -0.9965952296570024 -0.02915877496389896
4.8007265625 -0.9989230004193306 -0.029147921096786378
4.801875 -0.9946177222945582 -0.027816433293683385
4.8030234375 -0.9984181822090975 -0.027335131636369997
4.804171875 -0.9983810437610375 -0.028964917107893506
4.8053203125 -0.9938669780048353 -0.02914238788987006
4.80646875 -0.9983169204744465 -0.026761123659512914
4.8076171875 -0.9994703239984877 -0.026910023129544214
4.808765625 -0.9946381017071472 -0.02825802759850371
4.8099140625 -0.9975266364601693 -0.026132798499987286
4.8110625 -0.9975518037802518 -0.027500538728475382
4.8122109375 -0.9966416807535082 -0.027859558120701428
4.813359375 -0.9963665239326888 -0.025517071888372128
4.8145078125 -0.9982729141447796 -0.02782235992414006
4.81565625 -0.9981807859671732 -0.028323951460775793
4.8168046875 -0.9942067583405212 -0.027281877965885132
4.817953125 -0.9965192354227244 -0.027721567338748754
4.8191015625 -0.9980345745344393 -0.028399067834386643
4.82025 -0.9937514058634208 -0.02987939942719206
4.8213984375 -0.9965614799486184 -0.028107320381961398
4.822546875 -0.997927435137552 -0.030047191278534224
4.8236953125 -0.9945623769623348 -0.032125306753863964
4.82484375 -0.9958625360708953 -0.027390616252314454
4.8259921875 -0.9984884265085945 -0.02953454151988333
4.827140625 -0.9990582783969079 -0.029561887149818583
4.8282890625 -0.9977741022485699 -0.026914649504208077
4.8294375 -0.9983397881494034 -0.028939890957437098
4.8305859375 -0.9993218949236857 -0.030740853075304025
4.831734375 -0.9941973617706774 -0.0310019449859934
4.8328828125 -0.9982105865334286 -0.02872788377868976
4.83403125 -0.9991894491740024 -0.03085887978584334
4.8351796875 -0.9948769981716639 -0.031109975697094422
4.836328125 -0.9978675648746949 -0.02739659952625126
4.8374765625 -0.9994483905376342 -0.028321167303825168
4.838625 -0.9972438766898658 -0.02942177730821613
4.8397734375 -0.9984663073296514 -0.025292797918265802
4.840921875 -0.9994557797489257 -0.028604896169618893
4.8420703125 -0.9999720275037826 -0.029357365967538435
4.84321875 -0.9953282687802626 -0.02845583043393815
4.8443671875 -0.9987984543225351 -0.028129447525766405
4.845515625 -1.0000708495046602 -0.02825538605085065
4.8466640625 -0.9960511638799631 -0.027716485191623508
4.8478125 -0.9985560569786237 -0.02590626266865889
4.8489609375 -0.999714347808451 -0.0286692179909126
4.850109375 -0.9961923989186237 -0.03005532212038281
4.8512578125 -0.9987374352457329 -0.025020466852976236
4.85240625 -1.0005157519311514 -0.02834035067112395
4.8535546875 -0.9999948473514456 -0.029121905469774445
4.854703125 -0.9978463457779508 -0.026706878311589022
4.8558515625 -0.9999278320077963 -0.027493085834132236
4.857 -1.0014086975183631 -0.029615120227040576
4.8581484375 -0.9968413360909307 -0.028413508409318597
4.859296875 -0.9998515125416244 -0.028043236126248205
4.8604453125 -1.0016593212371878 -0.028505975807379527
4.86159375 -0.9970122926907922 -0.029256681308897553
4.8627421875 -1.0007959370949613 -0.025743765897183052
4.863890625 -1.0012383462958894 -0.028081551433872587
4.8650390625 -0.9993868899491142 -0.029107682660895987
4.8661875 -0.9993887287865098 -0.025943987603625374
4.8673359375 -1.0013196621996094 -0.02794204064169925
4.868484375 -1.0020502400165503 -0.026524896380555316
4.8696328125 -0.998076894476144 -0.026216074458629487
4.87078125 -1.0008352199043502 -0.024882301640428497
4.8719296875 -1.0024813624994273 -0.027218255300456323
4.873078125 -0.9972069530501309 -0.027207512606679446
4.8742265625 -1.001496806015395 -0.025516463900869896
4.875375 -1.0023988182106953 -0.026272707062230338
4.8765234375 -0.9995997083065487 -0.027683328853012196
4.877671875 -1.0021167529004396 -0.023600885943000416
4.8788203125 -1.0035249003980045 -0.026219326845423968
4.87996875 -1.001554584977606 -0.0260482402201289
4.8811171875 -1.0007648053013323 -0.023450223035456796
4.882265625 -1.001695517694901 -0.024735212615144858
4.8834140625 -1.002402663304354 -0.026279228168157837
4.8845625 -0.9983292322871868 -0.025230581972039035
4.8857109375 -1.0023015228658263 -0.023389974646665507
4.886859375 -1.0021732972045139 -0.025072401863263344
4.8880078125 -0.9975709947345869 -0.025569148208263504
4.88915625 -1.0008813223003352 -0.02282996285596693
4.8903046875 -1.0019412951954287 -0.024411762764543293
4.891453125 -0.9995203292728156 -0.026665100123716035
4.8926015625 -1.0009335411501898 -0.022918786561093057
4.89375 -1.0015502430934786 -0.023711154763132833
4.8948984375 -1.0031557992652218 -0.024337676338013398
4.896046875 -0.9980673991142135 -0.023028527728385095
4.8971953125 -1.0019088418112105 -0.022647124554197165
4.89834375 -1.0027470123515867 -0.024454987680020315
4.8994921875 -0.9977640474798312 -0.024939400151587438
4.900640625 -1.0024510836426577 -0.022000188797112658
4.9017890625 -1.0040120543135198 -0.02337169753353202
4.9029375 -0.99902811154413 -0.025525138036258305
4.9040859375 -1.0021205623190268 -0.020903513532773588
4.905234375 -1.0033994524000491 -0.022854822221359733
4.9063828125 -1.0006498419097518 -0.02422585963190331
4.90753125 -1.000921842321612 -0.020085581285991416
4.9086796875 -1.0030822067545824 -0.021398183334295218
4.909828125 -1.0041632538305525 -0.022031201453267063
4.9109765625 -0.998973724140126 -0.02251730554953678
4.912125 -1.0019440993202424 -0.020348998256687442
4.9132734375 -1.0023087975800906 -0.022872557722837777
4.914421875 -0.9971646827482699 -0.023349122196814634
4.9155703125 -1.0013434215986108 -0.020083730192101662
4.91671875 -1.002303291859746 -0.02311293065635961
4.9178671875 -0.9982723463876966 -0.02476588765745502
4.919015625 -0.9997576617289006 -0.019476491532287837
4.9201640625 -1.0026174751275305 -0.023386736444569456
4.9213125 -1.003860951192205 -0.022169312024824472
4.9224609375 -1.000158382525413 -0.02203405333661121
4.923609375 -1.001860458539407 -0.021724370897066858
4.9247578125 -1.00353906007637 -0.022714238501213874
4.92590625 -0.9977463128926639 -0.02402656056756
4.9270546875 -1.0024971336458106 -0.02176915353863862
4.928203125 -1.0022414407468392 -0.022908601489004032
4.9293515625 -0.9968689905018975 -0.0237295857795157
4.9305 -1.0004728503956266 -0.020264107380790736
4.9316484375 -1.0033156055263364 -0.022509708517525262
4.932796875 -1.0009608643452852 -0.02421349028618669
4.9339453125 -1.000752740335607 -0.020376637867622005
4.93509375 -1.001753724037885 -0.023504219190373044
4.9362421875 -1.0032091505678575 -0.023042049155359373
4.937390625 -0.9976529596260437 -0.02328856481797864
4.9385390625 -1.002356517067343 -0.022218844208810512
4.9396875 -1.0033459494211905 -0.023152895352196473
4.9408359375 -0.9972346813398253 -0.02373571365557825
4.941984375 -1.0012744912313642 -0.021091095221373812
4.9431328125 -1.0023959664032807 -0.02296543561348316
4.94428125 -0.9987978448525369 -0.02378064827652679
4.9454296875 -1.0003209670547504 -0.01975193311124962
4.946578125 -1.0019954101141901 -0.022252598976700427
4.9477265625 -1.0007805253908237 -0.0234234764756914
4.948875 -0.9997774227946877 -0.020858499172490885
4.9500234375 -1.003052578267822 -0.021535240266579436
4.951171875 -1.0038134569981867 -0.021061092250766356
4.9523203125 -0.9969575302480266 -0.021791738541270977
4.95346875 -1.0027905330438358 -0.02061800496817684
4.9546171875 -1.0033494681443562 -0.02245855875771599
4.955765625 -0.9974518730464106 -0.023936230611304538
4.9569140625 -1.000927739147381 -0.019475465302732003
4.9580625 -1.0030834570299396 -0.02129669744804269
4.9592109375 -0.9992045948613688 -0.023065644011243114
4.960359375 -1.000836208183534 -0.01911886321103745
4.9615078125 -1.0031034670157404 -0.02194708653653249
4.96265625 -1.0024065471897348 -0.022800800252994913
4.9638046875 -0.9999197137618481 -0.01965389661950523
4.964953125 -1.0025168902991002 -0.021555038527109605
4.9661015625 -1.0038561918033455 -0.021071030255219114
4.96725 -0.9967440280918354 -0.0215440084097743
4.9683984375 -1.001639660168783 -0.02046608469594574
4.969546875 -1.0033281992401013 -0.021156736001945176
4.9706953125 -0.9978868386083657 -0.02156846581773378
4.97184375 -1.0009040157817783 -0.01819654056314382
4.9729921875 -1.0022952541762729 -0.022383253427185473
4.974140625 -1.0005313116615633 -0.021036924511474764
4.9752890625 -0.9999621702277289 -0.01911718460869749
4.9764375 -1.0022300222035436 -0.02145640669627205
4.9775859375 -1.0031164766760028 -0.021219012318962532
4.978734375 -0.9967401021374596 -0.02054617449898627
4.9798828125 -1.001706088509544 -0.02022511829780599
4.98103125 -1.0030325658746195 -0.021035596259764172
4.9821796875 -0.9963563435692641 -0.02381248100617489
4.983328125 -1.0007621868378973 -0.020044413199871547
4.9844765625 -1.0014980573749304 -0.02135989504689878
4.985625 -0.998914407036922 -0.021768993401668185
4.9867734375 -1.0000854438126252 -0.018020334732664844
4.987921875 -1.0016463743535955 -0.0204704693713266
4.9890703125 -1.0013594601500628 -0.021093210594695766
4.99021875 -0.999037425228905 -0.01841161075354933
4.9913671875 -1.001327966536404 -0.02086135327372468
4.992515625 -1.0022952992309653 -0.01990817011145518
4.9936640625 -0.995715816005378 -0.02089064771269733
4.9948125 -1.0023952344259386 -0.019794294265746304
4.9959609375 -1.003295946743565 -0.01982693974050123
4.997109375 -0.9987265439503564 -0.022857272546305346
4.9982578125 -1.0019678918049457 -0.018463869539425387
4.99940625 -1.003034381722939 -0.02088602202204523
5.0005546875 -0.9991899944825751 -0.021477252484587206
5.001703125 -1.0008382871267327 -0.018145382526937592
5.0028515625 -1.0030991884301055 -0.02024350168585959
5.004 -1.0043080022991588 -0.02058602358438083
5.0051484375 -0.9974736611416293 -0.020771563265131132
5.006296875 -1.0018043329881159 -0.02085658520069769
5.0074453125 -1.0034280485379576 -0.020987619835631438
5.00859375 -0.9964919612678275 -0.02218084554896807
5.0097421875 -1.001767164150139 -0.018469439152119294
5.010890625 -1.0034738428330696 -0.02010129923427853
5.0120390625 -0.9976104157710628 -0.02198175486868656
5.0131875 -1.0008895698892317 -0.017516113950125048
5.0143359375 -1.002480002722271 -0.019216030956326652
5.015484375 -1.0016172199332707 -0.02050834236882594
5.0166328125 -1.0000231766415175 -0.018343258142160312
5.01778125 -1.003133944224392 -0.020276711117815413
5.0189296875 -1.0045097800299572 -0.019880876268406428
5.020078125 -0.9960446237784296 -0.021294254534400814
5.0212265625 -1.0021292820979653 -0.019262513184739843
5.022375 -1.0034559455951004 -0.0198479350221287
5.0235234375 -0.995308238525244 -0.02105668908649408
5.024671875 -0.9982759861997311 -0.019587940807256135
5.0258203125 -1.0022390293975365 -0.017875076318369917
5.02696875 -1.0043604776741537 -0.019828894053937327
5.0281171875 -1.0055755893835552 -0.019539223810147416
5.029265625 -1.0056052105576534 -0.019918381672537136
5.0304140625 -1.0060900476501051 -0.019940568125605157
5.0315625 -0.9970368857499685 -0.019411346516985825
5.0327109375 -1.0025146761966957 -0.01840248983265498
5.033859375 -1.0038599986332228 -0.01949287017673291
5.0350078125 -0.9982505722872662 -0.021558065831173118
5.03615625 -1.0022758397920561 -0.017471078592026124
5.0373046875 -1.0049924184389687 -0.018697958081650902
5.038453125 -1.0026422401732986 -0.01932032832304751
5.0396015625 -1.0014547975706807 -0.01559631237288335
5.04075 -1.0038070329176514 -0.01775433681903938
5.0418984375 -1.0050865572640815 -0.01981287826036998
5.043046875 -0.9990195203896926 -0.018474743884091982
5.0441953125 -1.0023591189045478 -0.018670846806810804
5.04534375 -1.0041074441251887 -0.019051502787476762
5.0464921875 -0.9979438312543415 -0.021139351689449012
5.047640625 -1.002422264217274 -0.016480768386745143
5.0487890625 -1.0046666793373593 -0.017727826349520207
5.0499375 -1.0002170749809691 -0.020060797361344695
5.0510859375 -1.0024773096840018 -0.016021047130345314
5.052234375 -1.004679722682983 -0.01821313589855554
5.0533828125 -1.0040265940134232 -0.01823891055345049
5.05453125 -1.0012974085838242 -0.016011280093013225
5.0556796875 -1.0038958396123923 -0.017038106101071995
5.056828125 -1.004865395290105 -0.017394349069519435
5.0579765625 -0.9966713256962747 -0.018981792161100366
5.059125 -1.0018067401879491 -0.016571425743922286
5.0602734375 -1.0058380516091792 -0.01644966744046819
5.061421875 -0.9960147635461363 -0.017710745767143876
5.0625703125 -0.9966498828481747 -0.01746211957240304
5.06371875 -1.0019143825700274 -0.017169061443244413
5.0648671875 -1.0048015405815551 -0.01648462573974256
5.066015625 -1.0042495137918654 -0.01609528385651325
5.0671640625 -1.0051990186843036 -0.016187582813687068
5.0683125 -1.0045513376370936 -0.015924659716156198
5.0694609375 -0.9968359551068857 -0.018371712242199967
5.070609375 -1.0021832883066426 -0.014910902996729147
5.0717578125 -1.0041368238347603 -0.017214409758175564
5.07290625 -0.9989418220250138 -0.017866508872208864
5.0740546875 -1.0020871732545504 -0.013451737311703599
5.075203125 -1.0028570671141248 -0.01583443465485751
5.0763515625 -1.0027488522357362 -0.01644327645790905
5.0775 -1.000456418981548 -0.014357236112013255
5.0786484375 -1.0034855397604998 -0.014871041077298142
5.079796875 -1.004465268600777 -0.015020025840772
5.0809453125 -0.99610569849258 -0.017225472156818356
5.08209375 -1.0023666275849348 -0.01421948599756101
5.0832421875 -1.0029521739001273 -0.017117256086348426
5.084390625 -0.9968586777769545 -0.018057875021470216
5.0855390625 -1.0006518760213972 -0.013696443390747687
5.0866875 -1.002682642008872 -0.015283191083547643
5.0878359375 -0.9988283948089854 -0.017904567638481445
5.088984375 -1.0000270273766405 -0.013379316259687246
5.0901328125 -1.0020743999584847 -0.016347079511136564
5.09128125 -1.0042860098570499 -0.016295767715041848
5.0924296875 -0.9972440311360324 -0.01594676810381357
5.093578125 -1.0010276123208401 -0.0160013608832264
5.0947265625 -1.0019533714307411 -0.016037011884014768
5.095875 -0.9952493245372226 -0.017967186576918315
5.0970234375 -1.0009135822653505 -0.014357368264361792
5.098171875 -1.0026281183284058 -0.016088651638979212
5.0993203125 -0.9970002576622617 -0.01825094670801003
5.10046875 -1.0010018697290008 -0.013862942941929052
5.1016171875 -1.0024575029419514 -0.015218411314751656
5.102765625 -1.0010768916992197 -0.01607340542012492
5.1039140625 -0.9978101249106661 -0.014017315882753234
5.1050625 -1.0021913550878534 -0.0166348182445962
5.1062109375 -1.003000968048157 -0.016611523860589728
5.107359375 -0.9960355937212049 -0.016449528011543424
5.1085078125 -1.001788839565331 -0.01599036595133954
5.10965625 -1.0032284924845323 -0.016233408969950625
5.1108046875 -0.9956470499931831 -0.016974059494846316
5.111953125 -1.0009996242737147 -0.014459355623729409
5.1131015625 -1.0031150420986177 -0.015047334460430606
5.11425 -0.9990054032570179 -0.016893351042531035
5.1153984375 -0.9997080383691893 -0.012235714347424431
5.116546875 -1.0020887014916995 -0.015129846989431428
5.1176953125 -1.0014985893100352 -0.014767096803609214
5.11884375 -0.9972596230160605 -0.013578023294059438
5.1199921875 -1.0015149972978779 -0.015126438355652805
5.121140625 -1.0027401988839177 -0.014201000376649814
5.1222890625 -0.9943395769058423 -0.014821101143145221
5.1234375 -1.0004184455279381 -0.014015247463292468
5.1245859375 -1.0030114739371288 -0.014212274382484513
5.125734375 -0.9960859284027181 -0.017511536209624867
5.1268828125 -0.9991862900477924 -0.012550260761262866
5.12803125 -1.001924062737537 -0.0137324636816821
5.1291796875 -0.9998869223165935 -0.01542202399091025
5.130328125 -0.9989452433010384 -0.012066568508843245
5.1314765625 -1.0027549622456005 -0.013687939240141334
5.132625 -1.002864687761027 -0.012884487678523043
5.1337734375 -0.9958272230146672 -0.013979185361603308
5.134921875 -1.000813466509033 -0.01367985150982276
5.1360703125 -1.0024364683574012 -0.015407257961647103
5.13721875 -0.9950063537977014 -0.016687588053174413
5.1383671875 -0.9998616843643432 -0.013199794591568531
5.139515625 -1.001337644321576 -0.014409580275681594
5.1406640625 -0.9961100189362355 -0.016430860208961257
5.1418125 -0.9981434402586051 -0.01211277039638839
5.1429609375 -1.0020500496815337 -0.013629914620169825
5.144109375 -0.9990749297578028 -0.013383960736165684
5.1452578125 -0.9972042279375862 -0.011873930306892433
5.14640625 -1.0003954735519929 -0.013930596527712585
5.1475546875 -1.0029490620490906 -0.014078325687270021
5.148703125 -0.9942277703143929 -0.01428044941029774
5.1498515625 -1.000504205207111 -0.01353989280406423
5.151 -1.0040476075935911 -0.013975024857396462
5.1521484375 -0.9965203046320975 -0.01588695926714742
5.153296875 -1.0015631930108035 -0.012876557642737374
5.1544453125 -1.0031639993189227 -0.01352791225846725
5.15559375 -0.9990925341388892 -0.015890693556472435
5.1567421875 -0.9981053895981209 -0.012156442108056206
5.157890625 -1.0023730969218116 -0.015152232763478143
5.1590390625 -1.004380105915666 -0.01567031639468079
5.1601875 -0.997396878950672 -0.015034842513639117
5.1613359375 -1.003071079087604 -0.015210407524974823
5.162484375 -1.0031859961091092 -0.014581045341768295
5.1636328125 -0.9954189382185774 -0.016118999763004932
5.16478125 -1.000677092234235 -0.014004061059934653
5.1659296875 -1.0028602095670294 -0.015304404910695527
5.167078125 -0.995529990221739 -0.01710468973717414
5.1682265625 -1.0001530130790843 -0.012861432774433582
5.169375 -1.0015977814898371 -0.014529379372776059
5.1705234375 -1.0002359353595855 -0.01567455329940624
5.171671875 -0.9985726795693297 -0.013303089716120174
5.1728203125 -1.00285983271921 -0.01467876381692184
5.17396875 -1.004070513646173 -0.014199294665999486
5.1751171875 -0.9943895000354841 -0.015636889498898437
5.176265625 -1.0016098591490536 -0.014841093941186788
5.1774140625 -1.003582019171247 -0.016057651273694688
5.1785625 -0.9945561962135993 -0.01763379984900532
5.1797109375 -0.9996567265645964 -0.014594217620433173
5.180859375 -1.0016174595765062 -0.014309345726037872
5.1820078125 -0.9969328984440446 -0.018469135049169146
5.18315625 -0.998389706962456 -0.014281373643740998
5.1843046875 -1.0015837786569337 -0.015403586002797932
5.185453125 -1.0028184513005474 -0.015083963412993999
5.1866015625 -0.9971404171805505 -0.015118142932371782
5.18775 -1.0022276641828978 -0.0157116082476103
5.1888984375 -1.0037592341567545 -0.017721412554165556
5.190046875 -0.9898430069399383 -0.02125650660943747
5.1911953125 -0.9986692819524289 -0.015233092686779474
5.19234375 -1.001021923267437 -0.015345078541375097
5.1934921875 -1.0035624457306214 -0.01509529365943451
5.194640625 -1.005168182146756 -0.015219786300578467
5.1957890625 -1.0054694253849221 -0.014890461824604559
5.1969375 -1.0039454013377944 -0.014936327935010797
5.1980859375 -0.9971700509470982 -0.013332744431230234
5.199234375 -1.0019265248988938 -0.015028808506137779
5.2003828125 -1.002769171168536 -0.01618791342631131
5.20153125 -0.9941060549580865 -0.01738202468677391
5.2026796875 -1.0014720448707832 -0.014488156246926254
5.203828125 -1.0033839269168119 -0.014634584232185815
5.2049765625 -0.9966895216079535 -0.01691686514036873
5.206125 -0.999115858736979 -0.012765795282039725
5.2072734375 -1.0018893248239664 -0.014653299407961864
5.208421875 -0.9998740718295447 -0.01587068835716681
5.2095703125 -0.9972080039671034 -0.011746490334958892
5.21071875 -1.0000248416745083 -0.011897821782216891
5.2118671875 -1.0022233532673568 -0.013332616473181666
5.213015625 -0.99514077191186 -0.015042062809546924
5.2141640625 -1.0010948040218532 -0.013764912342491636
5.2153125 -1.0014969340390993 -0.013624444673754496
5.2164609375 -0.9935812594555957 -0.016708428930423957
5.217609375 -0.9985307120850161 -0.011582312326227334
5.2187578125 -1.0021665879692654 -0.012365417297792135
5.21990625 -0.9971682381688822 -0.015077362569838604
5.2210546875 -0.998376543649379 -0.011908309479174171
5.222203125 -1.0016494146412283 -0.01294719868893058
5.2233515625 -1.0035189507668152 -0.012950798614014658
5.2245 -0.9955053491900404 -0.012409510833901627
5.2256484375 -1.0013161275042681 -0.01283203849002404
5.226796875 -1.0024785170035044 -0.013338436820501232
5.2279453125 -0.9935565647416033 -0.013490192305450247
5.22909375 -1.0003911979672946 -0.012742209354695985
5.2302421875 -1.0019836993690765 -0.013656347070421973
5.231390625 -0.9949801620782892 -0.016674709525009906
5.2325390625 -0.9996969940658734 -0.011911260479963395
5.2336875 -1.0030005002677496 -0.011759995007534885
5.2348359375 -0.9991353064023435 -0.014274142993508418
5.235984375 -0.9968543441700042 -0.0114392965850795
5.2371328125 -1.0004120980328115 -0.013756919905457299
5.23828125 -1.0017846865594677 -0.013539988701102776
5.2394296875 -0.9923446670568119 -0.013969938743814567
5.240578125 -0.9990664906151402 -0.013264648341449414
5.2417265625 -1.0011059532811053 -0.013012685534159199
5.242875 -0.9934690777850562 -0.015008855252962583
5.2440234375 -0.9994630656559643 -0.012026436742401073
5.245171875 -1.001485372202308 -0.011899036160634147
5.2463203125 -0.99396887079853 -0.01495967899035297
5.24746875 -0.9977296736086507 -0.011193144243515057
5.2486171875 -1.0016125831202694 -0.012433768084329846
5.249765625 -1.0022230293682985 -0.012456800978111207
5.2509140625 -0.9958242368440758 -0.01114676598561437
5.2520625 -0.9997625966185905 -0.012348595953480312
5.2532109375 -1.0015942714806605 -0.013349793323046033
5.254359375 -0.9918073846142356 -0.01574974574184182
5.2555078125 -0.9994399431783023 -0.013192254758411043
5.25665625 -1.0022698659153317 -0.013421074249264253
5.2578046875 -0.9943690159807844 -0.015163176058785532
5.258953125 -0.9985781155685708 -0.011911120140036036
5.2601015625 -1.0025951080839894 -0.014262562411391538
5.26125 -0.9989122831094952 -0.016158024676371063
5.2623984375 -0.9978886642576746 -0.0131354463397617
5.263546875 -1.00072897276592 -0.012575962945175267
5.2646953125 -1.0027415210577453 -0.014454318713744224
5.26584375 -0.9933344970255671 -0.013056085581347743
5.2669921875 -0.999863719900926 -0.01361915628671663
5.268140625 -1.0025188054356102 -0.0140841425709963
5.2692890625 -0.9928497234787731 -0.015242824351479584
5.2704375 -0.9981279178483584 -0.014086815721758697
5.2715859375 -1.001117820096775 -0.013424637775915266
5.272734375 -0.9960643022783914 -0.015437684825144057
5.2738828125 -0.9986753436424326 -0.011966074444564198
5.27503125 -1.0023870791187974 -0.013623431725006463
5.2761796875 -1.000377197247964 -0.013324607965859506
5.277328125 -0.9969867077903586 -0.01351311208357478
5.2784765625 -1.0007572367275859 -0.014216799439375205
5.279625 -1.0037717764693312 -0.014061942716256007
5.2807734375 -0.9923095413084272 -0.015469062851264842
5.281921875 -0.9986001796559173 -0.013650461122393168
5.2830703125 -1.001444723853587 -0.01273973804130317
5.28421875 -0.9935246699663414 -0.01547211191197502
5.2853671875 -0.998948445411981 -0.012684497023591035
5.286515625 -1.0026906351546097 -0.013052828262277716
5.2876640625 -0.997410269817557 -0.014708512404212316
5.2888125 -0.9978594042807795 -0.012687745509514889
5.2899609375 -1.0029226914436382 -0.01336559088242701
5.291109375 -1.0038110238311782 -0.01323476889112142
5.2922578125 -0.9963554090861221 -0.014032537651544844
5.29340625 -1.0016996037522083 -0.012460268596515466
5.2945546875 -1.003407799969204 -0.011913636497085649
5.295703125 -0.9935780356785403 -0.015175361145302907
5.2968515625 -1.001691585275452 -0.013053669771653051
5.298 -1.0034271747244439 -0.014235428427351177
5.2991484375 -0.9966538521086319 -0.015578180124761233
5.300296875 -0.9996740747956064 -0.011587993539165384
5.3014453125 -1.0022892705699553 -0.012831121609243473
5.30259375 -1.0015168652511086 -0.013245764904512305
5.3037421875 -0.9979442549174122 -0.011696773128708982
5.304890625 -1.0021255870642316 -0.011331647862290718
5.3060390625 -1.0036487212840737 -0.012181164748632511
5.3071875 -0.9956084783250072 -0.01290009207857877
5.3083359375 -1.0016934441996028 -0.01367202368167482
5.309484375 -1.00419671726496 -0.0134229333885406
5.3106328125 -0.9949753637272968 -0.014322076346747446
5.31178125 -1.0003354659511547 -0.011213211772649015
5.3129296875 -1.0045106599570488 -0.012478805523791575
5.314078125 -0.9989028820094314 -0.015098491161827973
5.3152265625 -1.0002098910730999 -0.010817590916435554
5.316375 -1.0027392137473132 -0.0120269267896723
5.3175234375 -1.003082696014403 -0.011991540208828616
5.318671875 -0.9972118737033444 -0.013140766951371924
5.3198203125 -1.003548795975049 -0.012245070229000468
5.32096875 -1.0043807656141825 -0.014530040708159747
5.3221171875 -0.9953598472180971 -0.016911785382267633
5.323265625 -1.0011877539555822 -0.013243288610354842
5.3244140625 -1.0046694203709017 -0.013245516597987048
5.3255625 -0.9978059149817613 -0.016514022117884095
5.3267109375 -1.0009516413751425 -0.012870382393268917
5.327859375 -1.0049049913352426 -0.012659628987248983
5.3290078125 -1.0007938011759168 -0.013969616773517088
5.33015625 -1.0000307363125114 -0.011318008240028682
5.3313046875 -1.003654106150794 -0.013157861869581039
5.332453125 -1.0058495067926956 -0.014346466634353267
5.3336015625 -0.996354317584291 -0.01453781293284584
5.33475 -1.0022452424403616 -0.012368433175604349
5.3358984375 -1.00422224624683 -0.011484756367414833
5.337046875 -0.9948841037584369 -0.014181988903398363
5.3381953125 -1.0012168193515016 -0.01072947073110804
5.33934375 -1.0044311014644351 -0.01114103931031013
5.3404921875 -0.9973925303235471 -0.013317700748555511
5.341640625 -0.9999952025522324 -0.009494072112235727
5.3427890625 -1.003887902733811 -0.011288878880055739
5.3439375 -1.0042031855975992 -0.0107775375167668
5.3450859375 -0.9986440561404175 -0.010013856901360974
5.346234375 -1.0029465192476892 -0.01068196621139414
5.3473828125 -1.004236343899038 -0.009366820460775332
5.34853125 -0.9950244476025528 -0.011307621704547077
5.3496796875 -1.002986933039104 -0.00851606082239205
5.350828125 -1.0044477980461035 -0.00892877194505512
5.3519765625 -0.9964616382481352 -0.012333995841912054
5.353125 -1.000933287621273 -0.00744120299070597
5.3542734375 -1.0027497181190193 -0.00865794738582465
5.355421875 -0.9991646525804052 -0.009976810811072934
5.3565703125 -0.9984085058195739 -0.006834953650299874
5.35771875 -1.0035319223048274 -0.008832558884570962
5.3588671875 -1.004503171708983 -0.007096021086561613
5.360015625 -0.9960507477696683 -0.008920365825865542
5.3611640625 -1.0014368212681863 -0.008063727570061976
5.3623125 -1.0042377742159927 -0.008965014383571793
5.3634609375 -0.9934093867000698 -0.011318004706632065
5.364609375 -1.0003582807324616 -0.00672113718831352
5.3657578125 -1.0039819731097532 -0.007879221218101487
5.36690625 -0.9965996733206293 -0.009897547202999818
5.3680546875 -1.0000891880776166 -0.00734208564206941
5.369203125 -1.0041112783393156 -0.008049238099022735
5.3703515625 -1.0025917371071804 -0.008118215736411222
5.3715 -0.9982981636867655 -0.007142295893893522
5.3726484375 -1.0033768687141211 -0.008421911500096316
5.373796875 -1.0050912837705646 -0.0073140829592783715
5.3749453125 -0.9927625849006153 -0.008357029452627306
5.37609375 -1.002164333847393 -0.0074498092455793155
5.3772421875 -1.003767856567159 -0.006796472917916838
5.378390625 -0.9945859207327116 -0.010077196469763336
5.3795390625 -1.0009038908627692 -0.0072107566291500155
5.3806875 -1.0036247861051026 -0.0073706803866132944
5.3818359375 -0.9983379574675835 -0.008958549934284167
5.382984375 -0.999289396984934 -0.004610387511037921
5.3841328125 -1.0024582308331214 -0.006793200576791586
5.38528125 -1.004514500690911 -0.006814274376842802
5.3864296875 -0.9962247981376133 -0.007857663842865452
5.387578125 -1.0028665065632356 -0.006006472746106231
5.3887265625 -1.002569487460853 -0.0052986537391057215
5.389875 -0.9920643475905148 -0.00782684231326633
5.3910234375 -0.998907801686364 -0.0064784635614079655
5.392171875 -1.001155060855874 -0.006586913196645838
5.3933203125 -0.9950533654487522 -0.008987605932071166
5.39446875 -0.998005024392583 -0.005342581899246031
5.3956171875 -1.00114696967865 -0.007374135908205032
5.396765625 -0.9996822877701573 -0.0064482472065160445
5.3979140625 -0.9963185772491593 -0.005953420508675623
5.3990625 -1.000227388758062 -0.006572732179809165
5.4002109375 -1.0001442270672423 -0.005232311497044114
5.401359375 -0.9903851434959462 -0.007088213606387138
5.4025078125 -0.9985371092890745 -0.006334965659916175
5.40365625 -1.0003882750775073 -0.005550627524103603
5.4048046875 -0.9910493112355181 -0.009592124479538989
5.405953125 -0.9960966053430713 -0.0060378773464063035
5.4071015625 -0.9979209725093657 -0.005584267002107516
5.40825 -0.9929704745246162 -0.009389097153821
5.4093984375 -0.9942455880795953 -0.004249061581004056
5.410546875 -0.9990903845280482 -0.006234771885694268
5.4116953125 -0.9998246714647053 -0.004764970118005342
5.41284375 -0.9908707779721025 -0.005151352936514451
5.4139921875 -0.9962290848154343 -0.006103929857908887
5.415140625 -0.9992907003853748 -0.005623686505026645
5.4162890625 -0.9885212691293471 -0.007065152812344096
5.4174375 -0.9966374100276328 -0.005852146887109645
5.4185859375 -0.9980828254237756 -0.0052608605724666635
5.419734375 -0.9910315045241817 -0.008647832680501406
5.4208828125 -0.9970189391407818 -0.006126332061113272
5.42203125 -0.9989272470745549 -0.006209038068740749
5.4231796875 -0.9953474282059639 -0.006854308678695867
5.424328125 -0.9929122172298886 -0.0042916570760098
5.4254765625 -0.9966374045247672 -0.005982515659099019
5.426625 -0.9985062801727034 -0.00473541111741211
5.4277734375 -0.9890247529222589 -0.007536223593773282
5.428921875 -0.9968068328048143 -0.005911967539081228
5.4300703125 -0.9992804321709837 -0.005608158206572671
5.43121875 -0.9888385580169614 -0.009091240410171793
5.4323671875 -0.9959514737013703 -0.007105625203581475
5.433515625 -0.9987249303851083 -0.005898413407415426
5.4346640625 -0.9930696661375886 -0.008469575826976966
5.4358125 -0.9947675173877861 -0.0034089695480134727
5.4369609375 -0.9969350946767306 -0.0049195714238661065
5.438109375 -0.9976318363333652 -0.007067303236731055
5.4392578125 -0.991091646361121 -0.006987368828814372
5.44040625 -0.9960330139441442 -0.006166504816529597
5.4415546875 -0.997672697836396 -0.005305482236831291
5.442703125 -0.987560116881901 -0.008008367503544896
5.4438515625 -0.9946991762128815 -0.007574879114558439
5.445 -0.9967635850730275 -0.007805939477201769
5.4461484375 -0.988690931787171 -0.009572004049783672
5.447296875 -0.9923384660285524 -0.00673624325008057
5.4484453125 -0.994945738945519 -0.007048234352411323
5.44959375 -0.9910222844145076 -0.008561714144438196
5.4507421875 -0.9924481013427747 -0.006874634895140633
5.451890625 -0.9966155003972867 -0.008132987187433244
5.4530390625 -0.9978254805762519 -0.007910417239836723
5.4541875 -0.9876640933870664 -0.00863659791250801
5.4553359375 -0.9936023988934934 -0.008601510155177045
5.456484375 -0.9974856057051857 -0.00818181325909953
5.4576328125 -0.9864843034179186 -0.011747825706091397
5.45878125 -0.9932683507322899 -0.010228473365954699
5.4599296875 -0.9962700368282894 -0.007911040545292708
5.461078125 -0.9895292109342687 -0.012390151658291743
5.4622265625 -0.9930416657270585 -0.010089570134697023
5.463375 -0.9960650523991573 -0.011596393819186562
5.4645234375 -0.9943032858091372 -0.011899110832670284
5.465671875 -0.9910114491076747 -0.010664119480592885
5.4668203125 -0.9949035555555601 -0.010774975453933258
5.46796875 -0.9968786346551936 -0.011108205234266727
5.4691171875 -0.9859520266656129 -0.01339480868515669
5.470265625 -0.9944461268506817 -0.012514272994181841
5.4714140625 -0.9961806380325683 -0.010581251599162941
5.4725625 -0.9874074382893033 -0.014156799275715504
5.4737109375 -0.9921459913722799 -0.012012956924634152
5.474859375 -0.9952528825438168 -0.012146343809897209
5.4760078125 -0.9895385871025818 -0.015247720806668419
5.47715625 -0.9912069787084026 -0.0108663272363351
5.4783046875 -0.9944620935486108 -0.011202773116051237
5.479453125 -0.9960594278332119 -0.01098692963238887
5.4806015625 -0.9898823380898929 -0.012043352607935376
5.48175 -0.9940868758134996 -0.012156012440944552
5.4828984375 -0.9972221794922523 -0.010654717068680847
5.484046875 -0.9859335752787844 -0.013055275881539055
5.4851953125 -0.9937993416978567 -0.011780063929945142
5.48634375 -0.995725527576658 -0.011057156189511905
5.4874921875 -0.9885908404979629 -0.014772719209392757
5.488640625 -0.9929388883456746 -0.011289079040371477
5.4897890625 -0.9945518982529629 -0.009525633218143814
5.4909375 -0.9933630943887634 -0.01207959161190042
5.4920859375 -0.9905889602690138 -0.012096527564716825
5.493234375 -0.9951951147682887 -0.012582497795405378
5.4943828125 -0.9971943403904453 -0.012202802130491991
5.49553125 -0.9882818222877976 -0.013760333465977298
5.4966796875 -0.9967950056811676 -0.010848196858945447
5.497828125 -0.9971326053102769 -0.011580247755121231
5.4989765625 -0.9881203984175042 -0.014657423073224263
5.500125 -0.9939547515037582 -0.011482913681886808
5.5012734375 -0.9956752193550513 -0.008484922576882964
5.502421875 -0.9899895035454599 -0.012688629494530729
5.5035703125 -0.9924854512445126 -0.010472478916911193
5.50471875 -0.9972937359538533 -0.008848088545395733
5.5058671875 -0.9967455204949318 -0.00960646369491866
5.507015625 -0.9896293187068548 -0.008798773116010045
5.5081640625 -0.9950098134136737 -0.009445085218474453
5.5093125 -0.9963173466099334 -0.009663096794067044
5.5104609375 -0.9849699408654693 -0.012849538103925556
5.511609375 -0.9941463504154551 -0.010614195834050044
5.5127578125 -0.995968663604021 -0.008633204818419116
5.51390625 -0.9871852779723903 -0.010488593351070274
5.5150546875 -0.9926914329059772 -0.009367108785026251
5.516203125 -0.9968581342243934 -0.009416611302432043
5.5173515625 -0.9929278606365799 -0.010236006150660656
5.5185 -0.9910721483901892 -0.008887692871531322
5.5196484375 -0.9949389510209158 -0.010286466902477032
5.520796875 -0.9962105428031081 -0.009268151961742466
5.5219453125 -0.9870794689967626 -0.012155519346235905
5.52309375 -0.9942937903443513 -0.010544932606628116
5.5242421875 -0.9964425588627635 -0.00901744903218668
5.525390625 -0.9859327468027377 -0.011120585180072085
5.5265390625 -0.9938082500701582 -0.011966937969633135
5.5276875 -0.9965887918880293 -0.011992680634795805
5.5288359375 -0.9891003944887511 -0.01343717140103809
5.529984375 -0.9925469148351901 -0.013063828222131313
5.5311328125 -0.9960062593415153 -0.011701990006412921
5.53228125 -0.9959196531472027 -0.011048163987318699
5.5334296875 -0.9905894716103695 -0.012760520513536266
5.534578125 -0.9953065561022687 -0.012005882938163126
5.5357265625 -0.996661473599824 -0.010104062683950449
5.536875 -0.9860818310680006 -0.012507527056756257
5.5380234375 -0.9936377714639373 -0.011706801957164614
5.539171875 -0.9971922073414272 -0.011569464463680817
5.5403203125 -0.9878273352506476 -0.015165053975103177
5.54146875 -0.9944164584386022 -0.01184133807773513
5.5426171875 -0.9973667289929358 -0.011029996702628164
5.543765625 -0.9910611905360276 -0.013418740607959362
5.5449140625 -0.990987671208716 -0.01180886730007602
5.5460625 -0.9965012291103883 -0.011769252135323316
5.5472109375 -0.9977085722105108 -0.01073452245047471
5.548359375 -0.9886214046599864 -0.012314730230377352
5.5495078125 -0.9935736234230724 -0.011189320681114862
5.55065625 -0.9971654236247756 -0.01087282385608107
5.5518046875 -0.9854787027425991 -0.013901138522659062
5.552953125 -0.994380041781143 -0.010970929240762595
5.5541015625 -0.9952917507122233 -0.010427273306297224
5.55525 -0.988957026547001 -0.011167501346438014
5.5563984375 -0.9926056935713783 -0.010503704754239174
5.557546875 -0.9959139061481107 -0.010783230537786598
5.5586953125 -0.9947028700462313 -0.010518370552167505
5.55984375 -0.9907242093012395 -0.010798452953188042
5.5609921875 -0.9942186877661241 -0.008897462080131147
5.562140625 -0.9966427359478867 -0.008730823816437083
5.5632890625 -0.9867035773006669 -0.012415545441080422
5.5644375 -0.9956265053888066 -0.010136439218504878
5.5655859375 -0.9974695430423127 -0.010472615826303572
5.566734375 -0.986369516187561 -0.011562453613607387
5.5678828125 -0.9933058801468919 -0.010379144025998474
5.56903125 -0.9961846699929304 -0.009283821854812191
5.5701796875 -0.989910363966144 -0.012027941161431188
5.571328125 -0.9918035164307822 -0.00948073725159232
5.5724765625 -0.9955215216815781 -0.008591106654654873
5.573625 -0.9973902980010219 -0.009253828615567866
5.5747734375 -0.9889530376455767 -0.009931496385333805
5.575921875 -0.9941506188474168 -0.01043998865733621
5.5770703125 -0.9961564385088694 -0.011263789217475575
5.57821875 -0.9846486349781314 -0.013622777308670342
5.5793671875 -0.9929035601424834 -0.010256685395411885
5.580515625 -0.9969719528171062 -0.009594746235550858
5.5816640625 -0.9881657512066936 -0.01219482245449477
5.5828125 -0.9925166471312533 -0.010023082785260831
5.5839609375 -0.993998477219447 -0.010534013257904873
5.585109375 -0.9916633233575122 -0.011854473689167089
5.5862578125 -0.9911712482424301 -0.010896190698263211
5.58740625 -0.9953726969621387 -0.011974514847939988
5.5885546875 -0.9980310091698883 -0.010364019624398216
5.589703125 -0.9878056901533196 -0.012285410382212564
5.5908515625 -0.9935286038039688 -0.01106608155781394
5.592 -0.9961172805229201 -0.012064694346459293
5.5931484375 -0.9858391928292447 -0.015217688259597809
5.594296875 -0.9938132180478934 -0.014521661799655625
5.5954453125 -0.9977608299215137 -0.012689090650801649
5.59659375 -0.9886424163474011 -0.013812214482173402
5.5977421875 -0.9918106873932927 -0.012522104494216271
5.598890625 -0.9960690179580934 -0.013567613762158856
5.6000390625 -0.9933038632916353 -0.012848774823180559
5.6011875 -0.9895417332864787 -0.01382851677939162
5.6023359375 -0.9931359533361493 -0.011780076512430876
5.603484375 -0.9950554312330836 -0.012171368074116909
5.6046328125 -0.985339770329978 -0.016838001596767654
5.60578125 -0.99364396769202 -0.014171766591034612
5.6069296875 -0.995729256755119 -0.014245310700748332
5.608078125 -0.9852798273820341 -0.014847319041625208
5.6092265625 -0.9907611332033214 -0.013309268522752812
5.610375 -0.994172133994349 -0.014463819949875792
5.6115234375 -0.9891115023822206 -0.01617873332248025
5.612671875 -0.9912960071652493 -0.01483797742942558
5.6138203125 -0.9945850209040434 -0.013105580698945657
5.61496875 -0.9957372609161723 -0.012865748016475914
5.6161171875 -0.98720948535608 -0.015731739097683627
5.617265625 -0.9938668967459277 -0.014393551043664535
5.6184140625 -0.9951573258799119 -0.012572069467725148
5.6195625 -0.9841736522811084 -0.016385309210723877
5.6207109375 -0.9911981013024004 -0.014233819923446946
5.621859375 -0.9940077764107924 -0.013350526577688829
5.6230078125 -0.9888438699402889 -0.015937851704101322
5.62415625 -0.991830178957836 -0.01597611336864098
5.6253046875 -0.9950628646393554 -0.014341386571091769
5.626453125 -0.9904397962480234 -0.012619479374307366
5.6276015625 -0.988786217872082 -0.013821774131700007
5.62875 -0.9942334792765991 -0.01363394180885169
5.6298984375 -0.9948510838412992 -0.014155048867180088
5.631046875 -0.9860015095992539 -0.016041595922363136
5.6321953125 -0.9937551046055852 -0.013270522364950237
5.63334375 -0.9950108594403541 -0.011947382000811656
5.6344921875 -0.9868469173708082 -0.01528945972013649
5.635640625 -0.992724244432105 -0.014784639716013591
5.6367890625 -0.9961673901506106 -0.012261901488413066
5.6379375 -0.9881382294969018 -0.013370813973567111
5.6390859375 -0.9896228918611183 -0.01346706607364627
5.640234375 -0.9943697225301297 -0.01291089796002988
5.6413828125 -0.9956885735658918 -0.011522145075593085
5.64253125 -0.9879039350461226 -0.013999155403157805
5.6436796875 -0.9942605786918607 -0.011246209754107818
5.644828125 -0.9960657725562435 -0.011169854819231093
5.6459765625 -0.9862750775846405 -0.015070087633367188
5.647125 -0.9942104779598603 -0.01356714178719104
5.6482734375 -0.996885137969961 -0.011217786521398126
5.649421875 -0.9839922235476901 -0.013169015611562626
5.6505703125 -0.9869684690396251 -0.013519346993518908
5.65171875 -0.9949091157409893 -0.012670599405716729
5.6528671875 -0.9969235434380093 -0.011750190249770351
5.654015625 -0.9984250971688126 -0.010921544486077524
5.6551640625 -0.9990689713897118 -0.01002407093632407
5.6563125 -0.9976059356083388 -0.0100340318561567
5.6574609375 -0.9862477100528477 -0.014694972627431913
5.658609375 -0.9933323283760157 -0.013164855856353672
5.6597578125 -0.9963262550464933 -0.012278687421708581
5.66090625 -0.9901288416220582 -0.014532895324473306
5.6620546875 -0.9910457223239961 -0.013165279105066194
5.663203125 -0.9953123199121447 -0.013215199526569923
5.6643515625 -0.9940876218317211 -0.013412942754333745
5.6655 -0.9884849956442576 -0.014869387203792661
5.6666484375 -0.9950899867486357 -0.014961621980911707
5.667796875 -0.9968132325035102 -0.011197339006952883
5.6689453125 -0.9856122881765801 -0.01594061983777087
5.67009375 -0.9940779216393254 -0.01456309442552442
5.6712421875 -0.9957605275121937 -0.013706877879214208
5.672390625 -0.9870468835670008 -0.017137610612838347
5.6735390625 -0.9917847130745863 -0.012944688121056397
5.6746875 -0.995313647108718 -0.013939586786308814
5.6758359375 -0.9908702218429857 -0.015799837620992643
5.676984375 -0.9914829761262969 -0.015179482229405267
5.6781328125 -0.9950283059462441 -0.014565846921954187
5.67928125 -0.995650217855765 -0.01231479468573704
5.6804296875 -0.9882120239592203 -0.015191686511098174
5.681578125 -0.9941994493370866 -0.015123387268067709
5.6827265625 -0.9952802187728729 -0.013654107445237665
5.683875 -0.9855247960445438 -0.016524345200519763
5.6850234375 -0.992795560047026 -0.014510911728750797
5.686171875 -0.994850570430854 -0.014495591930839019
5.6873203125 -0.9883659147531524 -0.016828445027172234
5.68846875 -0.9928075584834536 -0.01461549192715289
5.6896171875 -0.9948533040017996 -0.014633247168738484
5.690765625 -0.9939370503651944 -0.013745460283118294
5.6919140625 -0.9898019941129833 -0.01471938487428931
5.6930625 -0.9944359121918351 -0.015645606293845482
5.6942109375 -0.9960135438489954 -0.014723084492353766
5.695359375 -0.9861526374754213 -0.01669394875301755
5.6965078125 -0.9939874194709101 -0.01668194000373177
5.69765625 -0.9957367522079015 -0.01354609625048142
5.6988046875 -0.9865763950983669 -0.018053246375414223
5.699953125 -0.991986940495675 -0.014471402757685992
5.7011015625 -0.9949153826841814 -0.014086318305077034
5.70225 -0.989550645953347 -0.015464230625742176
5.7033984375 -0.9911555343961106 -0.014641326855675652
5.704546875 -0.9948975395210603 -0.014256802634679822
5.7056953125 -0.9961506787308989 -0.013830518501411232
5.70684375 -0.9894478165288936 -0.016519532409776716
5.7079921875 -0.9953967001820254 -0.016036808535047048
5.709140625 -0.9967597743772891 -0.013865526253773824
5.7102890625 -0.9872679691645466 -0.017302656242864117
5.7114375 -0.9936632317986029 -0.014884050152805473
5.7125859375 -0.9970499996691312 -0.01353074409268537
5.713734375 -0.9891991521475128 -0.016405916918851543
5.7148828125 -0.9944872334781903 -0.014219795192837587
5.71603125 -0.9978962885678986 -0.013638051489356984
5.7171796875 -0.9935370454326493 -0.014111675173713145
5.718328125 -0.9913826179739531 -0.01418034887441183
5.7194765625 -0.9974984926354915 -0.014638641066442332
5.720625 -0.9987142450435014 -0.011634611515194876
5.7217734375 -0.9875348307298955 -0.016634273364114188
5.722921875 -0.9964215507481278 -0.013551657377315507
5.7240703125 -0.9970755431910535 -0.014121532392812441
5.72521875 -0.9887028198636683 -0.016893146439034334
5.7263671875 -0.9955051777139421 -0.014377149432212799
5.727515625 -0.9967108507863012 -0.013706095266649648
5.7286640625 -0.9903877289649871 -0.01603456054360869
5.7298125 -0.9935833946159586 -0.016803485524405165
5.7309609375 -0.9990262328123598 -0.01469780003548729
5.732109375 -0.9986716760900402 -0.014173044194279616
5.7332578125 -0.9917276213411449 -0.015147184004519587
5.73440625 -0.9967709408569873 -0.015359329418307949
5.7355546875 -0.998515673518643 -0.014682858352188105
5.736703125 -0.9880009901981714 -0.0174682200579358
5.7378515625 -0.9959741791652287 -0.016336758507039972
5.739 -0.998183009476393 -0.012122897684879175
5.7401484375 -0.9912086916221939 -0.015451388734911059
5.741296875 -0.9964353017429244 -0.013997600035500601
5.7424453125 -0.9991567228047423 -0.013895287944009821
5.74359375 -0.9948064300070262 -0.013497102212746082
5.7447421875 -0.9938192070589013 -0.013437372291598693
5.745890625 -0.9979299353570648 -0.015019372339641984
5.7470390625 -1.0002107116184746 -0.013176504550731494
5.7481875 -0.990063553272309 -0.015315483090378668
5.7493359375 -0.9969860790181974 -0.013876872329240064
5.750484375 -0.9980093705888746 -0.011173724913291133
5.7516328125 -0.9890441697486999 -0.016518605844187975
5.75278125 -0.9967535199850355 -0.01340612997891591
5.7539296875 -0.9984449083033731 -0.013149731987347674
5.755078125 -0.9905600716489191 -0.01659817433431121
5.7562265625 -0.9951274841764942 -0.013180805009435359
5.757375 -0.9975279057993537 -0.01230647019540515
5.7585234375 -0.9980500182218437 -0.012689182102934404
5.759671875 -0.9897507644808438 -0.01470264668075115
5.7608203125 -0.9958846639691239 -0.012789948821608318
5.76196875 -0.9964771928389338 -0.013604376712467739
5.7631171875 -0.9844054775804186 -0.016227885197314093
5.764265625 -0.9935931591839431 -0.013969206122945999
5.7654140625 -0.9956013647343176 -0.01399968869135744
5.7665625 -0.9886317318634992 -0.016536868310888894
5.7677109375 -0.9940630503803222 -0.015475729712524436
5.768859375 -0.9956815345449919 -0.013166841597749529
5.7700078125 -0.9918877325196955 -0.0146012758257828
5.77115625 -0.9919483214218976 -0.01387725559233335
5.7723046875 -0.9960910423735193 -0.01330176849734422
5.773453125 -0.9966056484814072 -0.013025443769933184
5.7746015625 -0.9882490094782996 -0.014396463338243834
5.77575 -0.9946222099577822 -0.01378209623903108
5.7768984375 -0.9965118783837728 -0.012389118779972202
5.778046875 -0.9880346252556982 -0.015411704247956806
5.7791953125 -0.9953772108098794 -0.012938706614770243
5.78034375 -0.997754711729578 -0.010800835908273299
5.7814921875 -0.990375650425217 -0.013308830440190374
5.782640625 -0.9945394595505561 -0.012809688855177824
5.7837890625 -0.9972894657733606 -0.011614904145334712
5.7849375 -0.9940008100736418 -0.011849097464742095
5.7860859375 -0.9925096660331182 -0.011924437674636482
5.787234375 -0.9978822697948766 -0.010735054188505955
5.7883828125 -0.9995770395677316 -0.010922492823192298
5.78953125 -0.9896039000019494 -0.012904240478341267
5.7906796875 -0.9969096431824074 -0.012286790552005794
5.791828125 -0.9996563764563269 -0.010792959344331991
5.7929765625 -0.9912114228257249 -0.012364819924658266
5.794125 -0.9958329017358976 -0.011624548309600594
5.7952734375 -0.9972732130720608 -0.009401241868693427
5.796421875 -0.9915137894024032 -0.01239939217209865
5.7975703125 -0.9930672972349328 -0.011747227273915195
5.79871875 -0.9955313168751911 -0.010360858850791133
5.7998671875 -0.9975127503121988 -0.009368290576101085
5.801015625 -0.9901251559686912 -0.013531542306632866
5.8021640625 -0.9951379216142766 -0.011196934941786058
5.8033125 -0.9962262537386739 -0.009874197256797612
5.8044609375 -0.9855167564389049 -0.012956312726181099
5.805609375 -0.9933058398153152 -0.010456505494734605
5.8067578125 -0.9969287352184688 -0.010569060815645681
5.80790625 -0.9884527214871507 -0.013367343657481379
5.8090546875 -0.991915119801673 -0.011972959018997559
5.810203125 -0.9953245487844633 -0.009298953924054443
5.8113515625 -0.991841350539746 -0.009443558947267935
5.8125 -0.9902805154407519 -0.010130621577468427
5.8136484375 -0.9949231267503167 -0.010561438418956348
5.814796875 -0.9965636890253735 -0.009502483214569452
5.8159453125 -0.987483836872812 -0.0128184557601215
5.81709375 -0.9927758632758207 -0.010540669435310623
5.8182421875 -0.9958057107025781 -0.009443557742423045
5.819390625 -0.9852997771009081 -0.01319043225602623
5.8205390625 -0.9926655551366043 -0.012384654371357079
5.8216875 -0.9961945615805771 -0.009483120530981035
5.8228359375 -0.9893028461584972 -0.01132200367838436
5.823984375 -0.9915189758743645 -0.012250305701015443
5.8251328125 -0.9940679881629293 -0.01125078149919001
5.82628125 -0.995267213296925 -0.010350125607668903
5.8274296875 -0.9883857678168275 -0.013339663366593979
5.828578125 -0.9932164148344226 -0.01141579791997585
5.8297265625 -0.9943381745854102 -0.010565854211145906
5.830875 -0.9835764871302637 -0.013917708404707387
5.8320234375 -0.9921720473407689 -0.01237933918219599
5.833171875 -0.9942478569703073 -0.012059013228037936
5.8343203125 -0.9851897773370307 -0.01308753152737295
5.83546875 -0.9901054574993075 -0.012380289640675127
5.8366171875 -0.9918488354355773 -0.011334492218265865
5.837765625 -0.9880317139392547 -0.012041990874363646
5.8389140625 -0.9889546192216714 -0.010898020918438465
5.8400625 -0.9926248040950145 -0.00942802405277178
5.8412109375 -0.9925916350456232 -0.009201235213809306
5.842359375 -0.9845467556081495 -0.013111580100700425
5.8435078125 -0.991960714613762 -0.011377496283909355
5.84465625 -0.9937269065645497 -0.011485171064263638
5.8458046875 -0.9832625006828563 -0.014312051636845312
5.846953125 -0.9900551674107668 -0.010777771107131042
5.8481015625 -0.9925424974495676 -0.010570922305697887
5.84925 -0.9862466656494047 -0.011995911717870546
5.8503984375 -0.9876368221281412 -0.012229652843524962
5.851546875 -0.9909714758122238 -0.010516491814065434
5.8526953125 -0.990140564757203 -0.010117051933770209
5.85384375 -0.9849126717888028 -0.013294929162199074
5.8549921875 -0.9900857517042541 -0.012431498118425876
5.856140625 -0.9926856319495377 -0.011175664023860367
5.8572890625 -0.9819153443034929 -0.015189275279440348
5.8584375 -0.9894844296686468 -0.01273684899554068
5.8595859375 -0.99126985727506 -0.011398602779099432
5.860734375 -0.9833217477921052 -0.013564004093667481
5.8618828125 -0.9877368563460142 -0.013445382289115446
5.86303125 -0.9909059281285861 -0.011960447538421813
5.8641796875 -0.9875591923172939 -0.013261108302366244
5.865328125 -0.986322415376658 -0.014004489401285972
5.8664765625 -0.9895717365077322 -0.012101031727891363
5.867625 -0.9917217473820316 -0.011815330451963271
5.8687734375 -0.9850313464290139 -0.01455386325198546
5.869921875 -0.9899940811653692 -0.012746034177995746
5.8710703125 -0.9916069641919802 -0.010798221394447916
5.87221875 -0.9820270935253113 -0.015861836919434158
5.8733671875 -0.9893950020416485 -0.013735386758229398
5.874515625 -0.9920084130139091 -0.012151798829518265
5.8756640625 -0.9862289673822359 -0.01376634578706655
5.8768125 -0.9892415278982996 -0.014222496787856032
5.8779609375 -0.9922705121655242 -0.012575353022403021
5.879109375 -0.9908186027522351 -0.012539827944509432
5.8802578125 -0.9872426221938148 -0.015235745458660799
5.88140625 -0.991234892308496 -0.012902430260419248
5.8825546875 -0.9931734916797623 -0.011950680892936091
5.883703125 -0.9838464777477801 -0.01611855454054406
5.8848515625 -0.9903541420169357 -0.01376972391193744
5.886 -0.9928041377146078 -0.014177739882466053
5.8871484375 -0.9849192396656092 -0.01717190990595209
5.888296875 -0.9892360368497413 -0.015495743535896944
5.8894453125 -0.9920743753875907 -0.01376836049642978
5.89059375 -0.9874319302901196 -0.01615345635369181
5.8917421875 -0.9888003902514524 -0.016602884446612343
5.892890625 -0.9918386373246518 -0.015523068405205329
5.8940390625 -0.9918288950214478 -0.014545535032155263
5.8951875 -0.9863179975899162 -0.016503732899748644
5.8963359375 -0.9901967892019473 -0.014003501131453877
5.897484375 -0.9927130352699873 -0.013682591083029133
5.8986328125 -0.982633154251094 -0.018566685372761363
5.89978125 -0.9900725487028603 -0.01564953759604598
5.9009296875 -0.9909015676495658 -0.014677243673320156
5.902078125 -0.984185761786277 -0.016579862595269
5.9032265625 -0.9884222583353223 -0.01630533535610665
5.904375 -0.9910682004571469 -0.015235704624207702
5.9055234375 -0.9872674816144347 -0.015359823782032295
5.906671875 -0.9867887413669251 -0.015327487739930035
5.9078203125 -0.9912495305576376 -0.013742250076597573
5.90896875 -0.9914460551484034 -0.012612630873328284
5.9101171875 -0.9833733014889366 -0.018046656509510477
5.911265625 -0.9889606325409246 -0.015247608165044287
5.9124140625 -0.9913948679732845 -0.013613175680916377
5.9135625 -0.9819224382229129 -0.01667199581949877
5.9147109375 -0.9883104852080234 -0.014835314859331615
5.915859375 -0.9914844508506594 -0.014074963794980772
5.9170078125 -0.985658540614833 -0.01532481835853955
5.91815625 -0.9882963634696466 -0.015068380549938393
5.9193046875 -0.990833015771384 -0.014787897237654127
5.920453125 -0.9924144076247896 -0.012531900830228454
5.9216015625 -0.9863427747770785 -0.016852122907626853
5.92275 -0.9902296208171328 -0.015028536830670586
5.9238984375 -0.9906772477814018 -0.013798466430270391
5.925046875 -0.9817819181053622 -0.017305463165661127
5.9261953125 -0.9891245093186375 -0.01674853962516345
5.92734375 -0.9910065857527378 -0.01449225534763865
5.9284921875 -0.9849905229027698 -0.0164642396553583
5.929640625 -0.9889886665578089 -0.01679613477314125
5.9307890625 -0.9915915261409708 -0.014478916530174787
5.9319375 -0.9875061945224222 -0.01728518346176719
5.9330859375 -0.9861009693150181 -0.016206597910596615
5.934234375 -0.9909829459532522 -0.015735708196629478
5.9353828125 -0.99085472155434 -0.01467199278177497
5.93653125 -0.9832982412388396 -0.01740673136886693
5.9376796875 -0.9896453983368265 -0.015840453246671514
5.938828125 -0.9915731978559945 -0.014294529350939
5.9399765625 -0.9828758683126273 -0.01785690074620412
5.941125 -0.9887528524972471 -0.01585769059460583
5.9422734375 -0.9906105766893858 -0.015162355156913936
5.943421875 -0.9851716664082174 -0.016901660069660075
5.9445703125 -0.9894026646009564 -0.016091237919918365
5.94571875 -0.9922933740758589 -0.014872206458581963
5.9468671875 -0.9913067689489603 -0.01552311872563042
5.948015625 -0.9884258284841787 -0.017625334305325813
5.9491640625 -0.9914130204089222 -0.016360982508337285
5.9503125 -0.9930799831447484 -0.015244547846470224
5.9514609375 -0.9846360166452319 -0.019327026494447952
5.952609375 -0.991808891067454 -0.01734103900902184
5.9537578125 -0.9932517026643339 -0.015957603082405847
5.95490625 -0.9851014306385029 -0.01823638390480377
5.9560546875 -0.9907066367351125 -0.016945111864864942
5.957203125 -0.9937616248312244 -0.016505089917043206
5.9583515625 -0.988178477338446 -0.018762153521671834
5.9595 -0.9898455009683501 -0.018575992291234328
5.9606484375 -0.9932503415480826 -0.0171786613719742
5.961796875 -0.9943417387543649 -0.017291971360436753
5.9629453125 -0.9873697410063537 -0.01973466357025791
5.96409375 -0.9924209235991581 -0.01765519348102207
5.9652421875 -0.9944633746307004 -0.016603694970102528
5.966390625 -0.9850112785683217 -0.02040707647704325
5.9675390625 -0.9914664111904602 -0.01822002886658519
5.9686875 -0.9936604070851205 -0.016883773234951216
5.9698359375 -0.9869106935216011 -0.01938696851823668
5.970984375 -0.9917257892766566 -0.017956716623978713
5.9721328125 -0.9939058044650487 -0.017019781876493154
5.97328125 -0.9919047654597409 -0.017778027960844572
5.9744296875 -0.9892235825973881 -0.01802114696993687
5.975578125 -0.9935244630835464 -0.016947084970843768
5.9767265625 -0.9943120107436607 -0.014877564970277007
5.977875 -0.9869900835746109 -0.018309202675008796
5.9790234375 -0.9924155520119622 -0.015350782533741836
5.980171875 -0.9944173059875039 -0.01591170922095235
5.9813203125 -0.9864345976533857 -0.018934261295628044
5.98246875 -0.9910255111835077 -0.017712317667181454
5.9836171875 -0.9939580721771644 -0.015578791938357123
5.984765625 -0.9891363661387306 -0.017392241310056802
5.9859140625 -0.9906481229005315 -0.017531909349792943
5.9870625 -0.9936574076265017 -0.016215209093827565
5.9882109375 -0.9938201756050972 -0.01630863955896175
5.989359375 -0.990275512087471 -0.01840823181004679
5.9905078125 -0.9939163097436342 -0.01794607006868315
5.99165625 -0.9956748967950004 -0.01720957913646827
5.9928046875 -0.9885348867590292 -0.020216210278898236
5.993953125 -0.9932932556559504 -0.01722072533685086
5.9951015625 -0.995116617627692 -0.014356469093360288
5.99625 -0.987479352953268 -0.01767518359352825
5.9973984375 -0.9920496387213436 -0.01737383362098563
5.998546875 -0.9949483141105621 -0.015512323105141015
5.9996953125 -0.9911564985669203 -0.01807900348557759
6.00084375 -0.9907469868841656 -0.018651367319735823
6.0019921875 -0.9937202566423258 -0.017135736767110735
6.003140625 -0.9935692018409444 -0.017107748645644627
6.0042890625 -0.9902394550157776 -0.018891273528653163
6.0054375 -0.9938634803364366 -0.017495335217110344
6.0065859375 -0.995330378466907 -0.016136620104377122
6.007734375 -0.9882310549013055 -0.019736045140241215
6.0088828125 -0.993711921275312 -0.017779666357639473
6.01003125 -0.9960244505439729 -0.01598023092378513
6.0111796875 -0.9887911446368625 -0.01908143207350936
6.012328125 -0.9941354681768029 -0.017998161326269607
6.0134765625 -0.9966631026838594 -0.017043468511168294
6.014625 -0.9922584813962221 -0.01827901453324894
6.0157734375 -0.9930048818738386 -0.01811963053280645
6.016921875 -0.9966984411378745 -0.015638868216042864
6.0180703125 -0.9969103950844328 -0.014761479671049835
6.01921875 -0.9919730070695366 -0.01691157607672751
6.0203671875 -0.9961401506010671 -0.015873208811772996
6.021515625 -0.9971216628090716 -0.01430311705246591
6.0226640625 -0.9887088253078797 -0.018645286448632004
6.0238125 -0.9955089673436864 -0.016054046969940977
6.0249609375 -0.9965802858911313 -0.015015540994136517
6.026109375 -0.9905155557698887 -0.01675181022624387
6.0272578125 -0.9936015270583494 -0.01629400034679919
6.02840625 -0.9961079653239678 -0.014936336878101135
6.0295546875 -0.994479064300129 -0.013119524250990805
6.030703125 -0.9861300308157852 -0.01971183441759268
6.0318515625 -0.9930116587974902 -0.01719587553006758
6.033 -0.9953716380296113 -0.015933319452985477
6.0341484375 -0.9967707265997997 -0.014487630856067392
6.035296875 -0.9971488560932571 -0.013973461761802756
6.0364453125 -0.9984862335269101 -0.013319854279538846
6.03759375 -0.991914478143527 -0.016531727641613828
6.0387421875 -0.9933097612946813 -0.01625244004769109
6.039890625 -0.9969546516335879 -0.015380965481746035
6.0410390625 -0.9957485742464267 -0.015162691966834816
6.0421875 -0.9925002334533003 -0.016990456822626076
6.0433359375 -0.9964430541572812 -0.015569158698202292
6.044484375 -0.9978842966974559 -0.013697869785695621
6.0456328125 -0.9888539410862867 -0.017243709827699308
6.04678125 -0.9958398537580757 -0.015836844358588217
6.0479296875 -0.9981339391557245 -0.014448318028993044
6.049078125 -0.9911113075473221 -0.016658723329561493
6.0502265625 -0.994944309085602 -0.015161480838644114
6.051375 -0.9963044586066631 -0.013404386320225444
6.0525234375 -0.9945485044934719 -0.013094658760209581
6.053671875 -0.9931458068800723 -0.01416275553422613
6.0548203125 -0.9972209125238026 -0.013738361193148111
6.05596875 -0.9976672586228109 -0.012090726370221204
6.0571171875 -0.9908876063457032 -0.014897880155665153
6.058265625 -0.9956409986178132 -0.013934204306359055
6.0594140625 -0.9969248002509651 -0.012274824339997142
6.0605625 -0.9891392636232361 -0.015365409720486646
6.0617109375 -0.9939749669313482 -0.01368519483990866
6.062859375 -0.9963035220550209 -0.01354161290206974
6.0640078125 -0.9913523876615278 -0.014056191337244372
6.06515625 -0.9937336257179046 -0.014591812748511753
6.0663046875 -0.9956141300690823 -0.013669674406368088
6.067453125 -0.9937996029183828 -0.013544348664132157
6.0686015625 -0.992098006820431 -0.014922956386433112
6.06975 -0.9949568188415012 -0.014811338194625918
6.0708984375 -0.9970063304885991 -0.013092733791985597
6.072046875 -0.9885018003226997 -0.017649112082208353
6.0731953125 -0.9946712019299722 -0.015590188130981439
6.07434375 -0.9951780540211521 -0.013847401945097579
6.0754921875 -0.9890016817866542 -0.017015570700031492
6.076640625 -0.9953635299509935 -0.015609397170444971
6.0777890625 -0.9964513552653433 -0.0145736859971878
6.0789375 -0.9920342739986427 -0.015645829793420437
6.0800859375 -0.9932577320778494 -0.015223869033607968
6.081234375 -0.9964579585900504 -0.013316539560845945
6.0823828125 -0.9969640930962904 -0.013419146891986585
6.08353125 -0.9928651340008797 -0.01563788861424942
6.0846796875 -0.995554890636768 -0.0149031906369878
6.085828125 -0.9981623625316981 -0.012219850198322347
6.0869765625 -0.9902413319861872 -0.01545468115703019
6.088125 -0.997335821669864 -0.01250035979309752
6.0892734375 -0.9995977201091183 -0.009810070351956909
6.090421875 -0.9924474824056946 -0.013441408170482411
6.0915703125 -0.9952122407294595 -0.013126663692165138
6.09271875 -0.9973040042074598 -0.011824315425095246
6.0938671875 -0.9946079471435803 -0.013300649397198935
6.095015625 -0.9934609815814998 -0.013361742157385462
6.0961640625 -0.9958725559182449 -0.012477823015840796
6.0973125 -0.9975224081645842 -0.011347461963321481
6.0984609375 -0.9910269748951872 -0.013420481507439085
6.099609375 -0.9944174969005639 -0.013495813096526029
6.1007578125 -0.9971360663366182 -0.01231836965672315
6.10190625 -0.9896124835422893 -0.01470414306599565
6.1030546875 -0.9954161255512971 -0.013911337638458851
6.104203125 -0.9959618093541776 -0.012186389260613745
6.1053515625 -0.9926398972798489 -0.014307042972514304
6.1065 -0.9936366270996935 -0.013435664374204216
6.1076484375 -0.995944381087265 -0.011782054632351761
6.108796875 -0.9946319206969373 -0.011361329813393987
6.1099453125 -0.9910284652173094 -0.013743550656209427
6.11109375 -0.9935548889723812 -0.012051138968949701
6.1122421875 -0.9950229159843823 -0.011414989026999986
6.113390625 -0.9864200942526505 -0.015325967706366725
6.1145390625 -0.9926773204000392 -0.013334326875994798
6.1156875 -0.9941837995244522 -0.011669498676984483
6.1168359375 -0.9885385925371731 -0.014256511005473746
6.117984375 -0.9920846892909945 -0.0145406676070668
6.1191328125 -0.9938344036007892 -0.0126324378229472
6.12028125 -0.9902659879793297 -0.013884914584959829
6.1214296875 -0.9902315998155884 -0.013843118176026667
6.122578125 -0.9931301317532655 -0.012008181572449816
6.1237265625 -0.9953610065190475 -0.011825740083245405
6.124875 -0.9897436105178326 -0.015161804204554756
6.1260234375 -0.9929448117057759 -0.0139010399677921
6.127171875 -0.9939935728266911 -0.012021510711978121
6.1283203125 -0.9877648747031926 -0.01643031992228771
6.12946875 -0.9934275523963284 -0.01606933468389085
6.1306171875 -0.9955608692454477 -0.0143045640918473
6.131765625 -0.9900556647299904 -0.01549355334512896
6.1329140625 -0.9922013122104898 -0.01494080603528826
6.1340625 -0.9952665903444062 -0.013448931143086512
6.1352109375 -0.9941167966998947 -0.01464096546490512
6.136359375 -0.991174709445046 -0.016384237420883824
6.1375078125 -0.994063648646975 -0.014833958905359088
6.13865625 -0.9973212892617802 -0.014656740507505484
6.1398046875 -0.989267339184287 -0.01736994429107261
6.140953125 -0.9950101483925043 -0.015627376412088972
6.1421015625 -0.9979931739995566 -0.014208862952810847
6.14325 -0.9907342463490812 -0.016143605582177173
6.1443984375 -0.993684106118697 -0.015821865242477196
6.145546875 -0.995869721441774 -0.014359676144438616
6.1466953125 -0.9930695750763748 -0.01571315663638681
6.14784375 -0.9945441786014926 -0.017028523028274192
6.1489921875 -0.9964207469018874 -0.013490355118365022
6.150140625 -0.998367527602458 -0.012818125554272058
6.1512890625 -0.993373150529586 -0.01570847610932001
6.1524375 -0.9963964802493135 -0.013787996946516085
6.1535859375 -0.9990152284718065 -0.013375414681951109
6.154734375 -0.9912813051460464 -0.017510183529907825
6.1558828125 -0.9961713064290492 -0.015209114065988419
6.15703125 -0.99758280343585 -0.01332720005234847
6.1581796875 -0.9931890783053094 -0.014588996309807617
6.159328125 -0.9971022214241283 -0.015557087055500601
6.1604765625 -0.9980407935429039 -0.013977314393754381
6.161625 -0.9956035678659889 -0.014005531436668259
6.1627734375 -0.9947326171608577 -0.015168164739808782
6.163921875 -0.9969067184156188 -0.013885904542002378
6.1650703125 -0.999974765044406 -0.013024666034129204
6.16621875 -0.9937377945988151 -0.01528360010124706
6.1673671875 -0.9966813867152635 -0.0132996759399715
6.168515625 -0.9988164426532019 -0.013230949389098912
6.1696640625 -0.9920421721487059 -0.015067403908395713
6.1708125 -0.9962482463001149 -0.01538341304293897
6.1719609375 -0.9987585507903766 -0.013060244707390894
6.173109375 -0.9950124437374346 -0.014512385953203227
6.1742578125 -0.9952213510157025 -0.015597713178139745
6.17540625 -0.9977212111310619 -0.013079726906440117
6.1765546875 -0.9971141867093705 -0.013485287982246075
6.177703125 -0.9945197512270714 -0.015260523622943417
6.1788515625 -0.9982461273347485 -0.012339693543437183
6.18 -0.9979802421755422 -0.01220820823299669
6.1811484375 -0.9903244408325632 -0.01517167069063572
6.182296875 -0.9958473915500243 -0.013509291479685444
6.1834453125 -0.9985819018604742 -0.0125028747054979
6.18459375 -0.9931172759136428 -0.014850455956356062
6.1857421875 -0.9959322049958425 -0.014266414140183155
6.186890625 -0.9973957634546433 -0.012324269830509452
6.1880390625 -0.9951426719570594 -0.012430695504641556
6.1891875 -0.9955585311970916 -0.015145537701569074
6.1903359375 -0.9984556560196667 -0.013653110557061462
6.191484375 -0.9988188733562178 -0.012547496489402163
6.1926328125 -0.9946021529672227 -0.015862325621011163
6.19378125 -0.9991973149780422 -0.013852007810339365
6.1949296875 -1.0022332684396296 -0.014282369721202642
6.196078125 -0.9960005707522613 -0.01493531231177593
6.1972265625 -0.9995062193687787 -0.013403277190916774
6.198375 -1.0017401975637 -0.012121188189791882
6.1995234375 -0.9972680923128237 -0.012810083751564505
6.200671875 -0.9996094138222071 -0.012992201003690404
6.2018203125 -1.0019610254971523 -0.010357422778410133
6.20296875 -1.000456095057089 -0.008720229210875813
6.2041171875 -0.9976266721701753 -0.010810763696412196
6.205265625 -1.000075493694325 -0.009236623109351742
6.2064140625 -1.0015131152833885 -0.008458018543865166
6.2075625 -0.9940719800412738 -0.011305842406776463
6.2087109375 -0.9973322649611164 -0.009672985013640993
6.209859375 -0.9989929507204083 -0.008272973027833752
6.2110078125 -0.9946897342513423 -0.0091825434870659
6.21215625 -0.9972883222361988 -0.010212180395692941
6.2133046875 -1.0002454512130334 -0.009088232533409252
6.214453125 -0.9963239970715339 -0.009669868959015365
6.2156015625 -0.9947044764588308 -0.008323016223058692
6.21675 -0.996779419994056 -0.0067612642794067646
6.2178984375 -0.9979235049072972 -0.004992352432058228
6.219046875 -0.9943813333322795 -0.007530629989447249
6.2201953125 -0.9959197248014646 -0.006179954514114766
6.22134375 -0.9963890000878558 -0.0048694804978973456
6.2224921875 -0.9910393437741664 -0.007983478283844724
6.223640625 -0.99453198463324 -0.006690407304651889
6.2247890625 -0.9958067869941691 -0.005596440556196541
6.2259375 -0.9912551358169974 -0.007171685477692986
6.2270859375 -0.9928634233589999 -0.006152291724575994
6.228234375 -0.9952143002077158 -0.005890744986449394
6.2293828125 -0.9945271585193456 -0.005514422312673309
6.23053125 -0.9905029441746827 -0.010451024588384917
6.2316796875 -0.9942450409193838 -0.008766939542831777
6.232828125 -0.9952486384693348 -0.006891632664746926
6.2339765625 -0.9954918742034787 -0.006051963857807957
6.235125 -0.9961347790192574 -0.005380874657111831
6.2362734375 -0.9968465433721048 -0.006681205909039367
6.237421875 -0.9916580441829166 -0.007661683173416339
6.2385703125 -0.9914384090510618 -0.010327647972374968
6.23971875 -0.9926625847832934 -0.007915718523204808
6.2408671875 -0.9929401245347473 -0.007934155976001493
6.242015625 -0.9898390704014122 -0.01025227311114605
6.2431640625 -0.9922701407055622 -0.01039048842194809
6.2443125 -0.9938334359129966 -0.008024362931655114
6.2454609375 -0.9869901816689277 -0.011733432191625051
6.246609375 -0.9906080218446385 -0.010509525139947642
6.2477578125 -0.9924131692188605 -0.0087391876549055
6.24890625 -0.9881254359637999 -0.010167040305361336
6.2500546875 -0.9904017255499808 -0.009253598490410256
6.251203125 -0.9922176984067976 -0.00846825934532014
6.2523515625 -0.989999683816165 -0.009966017380170972
6.2535 -0.9889932633130281 -0.010529695599683767
6.2546484375 -0.9916989928922901 -0.010869661155091637
6.255796875 -0.9926839186899158 -0.0094721097131477
6.2569453125 -0.9888828546508004 -0.009977541627388231
6.25809375 -0.9926022367102338 -0.009093182818104978
6.2592421875 -0.9933334514346716 -0.009406377040521524
6.260390625 -0.9881330347506738 -0.010985362838298332
6.2615390625 -0.990755706205332 -0.01129615220928469
6.2626875 -0.9932769241141602 -0.009694253693150606
6.2638359375 -0.9901175719612516 -0.011752786381405395
6.264984375 -0.990790158295624 -0.012244503298756676
6.2661328125 -0.9947394935245385 -0.011032803339846492
6.26728125 -0.993273591211183 -0.010797814917066315
6.2684296875 -0.9916642624964127 -0.011827673226765298
6.269578125 -0.9950795999800847 -0.011370398644476448
6.2707265625 -0.9959522304514482 -0.010137661983250626
6.271875 -0.9914136954263414 -0.013417426041511554
6.2730234375 -0.9955180265008214 -0.01268374305676584
6.274171875 -0.9969532654337806 -0.010930162865314619
6.2753203125 -0.9907600391896614 -0.013188129636111379
6.27646875 -0.9929313497734648 -0.011573952557562953
6.2776171875 -0.9945567280048713 -0.011947733228822949
6.278765625 -0.993261429856847 -0.01157308814062842
6.2799140625 -0.9937594102761825 -0.013554993477754046
6.2810625 -0.9957568198357747 -0.011695632784446117
6.2822109375 -0.995694308058498 -0.01124426151393014
6.283359375 -0.9911709568076122 -0.013686339430453193
6.2845078125 -0.9955526897089194 -0.013092515491516105
6.28565625 -0.9958961158519525 -0.011912746013293951
6.2868046875 -0.9905751356187491 -0.014518662636091972
6.287953125 -0.994565499020854 -0.01126916686495702
6.2891015625 -0.9959428794896945 -0.011010835096545518
6.29025 -0.994653784884388 -0.011899143517181285
6.2913984375 -0.9947345749300457 -0.011848487777088648
6.292546875 -0.996197268371918 -0.010088888865292175
6.2936953125 -0.9948864046307477 -0.007876170443889788
6.29484375 -0.994804949845245 -0.009839639630784658
6.2959921875 -0.9977400852715759 -0.009733671489748102
6.297140625 -0.997225802442697 -0.008486287015990884
6.2982890625 -0.9912111706422064 -0.010541651103235933
6.2994375 -0.9938364867176126 -0.009283264364371033
6.3005859375 -0.9944911041882921 -0.008037380381992323
6.301734375 -0.9908529021764616 -0.01112298466000168
6.3028828125 -0.992245655510986 -0.010774877371419689
6.30403125 -0.993105290649159 -0.009476792209840684
6.3051796875 -0.9885175029653861 -0.011906645970945193
6.306328125 -0.9889432675391158 -0.01551498551752295
6.3074765625 -0.9914280406526065 -0.015235874201296323
6.308625 -0.9947676718894386 -0.015286655800788557
6.3097734375 -0.9913520090657398 -0.01657217643386323
6.310921875 -0.9943199440269722 -0.01564395756163163
6.3120703125 -0.9957215419634722 -0.014959618054185192
6.31321875 -0.9905857617341957 -0.017183231710556468
6.3143671875 -0.9955448581201544 -0.016192251891070555
6.315515625 -0.9959427575654838 -0.013734577963634753
6.3166640625 -0.9909592707560536 -0.014497577118248131
6.3178125 -0.9930851008540914 -0.013017688806894606
6.3189609375 -0.9941361034928512 -0.012701525896766347
6.320109375 -0.9946848670703412 -0.01565783155341069
6.3212578125 -0.9930561487737355 -0.015072638867067945
6.32240625 -0.9936465677075961 -0.012410093728233526
6.3235546875 -0.9932049433605169 -0.013016917421498894
6.324703125 -0.9884016993571133 -0.015696485697928572
6.3258515625 -0.9938384829925307 -0.01583090530193053
6.327 -0.9947177199263864 -0.013173116185909217
6.3281484375 -0.988887801214888 -0.01617961449575725
6.329296875 -0.9913351826031154 -0.0148014436893604
6.3304453125 -0.9916439638797805 -0.013809586885829804
6.33159375 -0.9904854643236383 -0.01752436181001872
6.3327421875 -0.9916955684245402 -0.018061260602889873
6.333890625 -0.9923389881824625 -0.01644282757724054
6.3350390625 -0.9929945355101679 -0.01655665267759974
6.3361875 -0.9921051161820025 -0.014951886692016927
6.3373359375 -0.9956354277065416 -0.015787859358288373
6.338484375 -0.9977153576163603 -0.014092093834184721
6.3396328125 -0.9911611878995888 -0.014041573981883548
6.34078125 -0.9930258633211867 -0.01248244178138698
6.3419296875 -0.9941744302603955 -0.01255266494721434
6.343078125 -0.9918629051769583 -0.014627000370435975
6.3442265625 -0.9939135167364432 -0.014704219785917967
6.345375 -0.9945517258731138 -0.015090541184177408
6.3465234375 -0.9920598569230508 -0.015022294121414557
6.347671875 -0.9916933413588189 -0.016087620519975893
6.3488203125 -0.9931935192539075 -0.013958674064795625
6.34996875 -0.9961119724679242 -0.015127460142283916
6.3511171875 -0.9922515205377201 -0.015728004864139097
6.352265625 -0.9943468246796107 -0.014892888361439146
6.3534140625 -0.9961895019865106 -0.01586103249092051
6.3545625 -0.9924104757183704 -0.01717182154720145
6.3557109375 -0.9969106678316757 -0.017071783716301924
6.356859375 -0.9970280845378333 -0.014982160521124006
6.3580078125 -0.9936928098704623 -0.015726256597460936
6.35915625 -0.9947932991168666 -0.016728653713702905
6.3603046875 -0.9960556156724911 -0.01716209867034884
6.361453125 -0.9975003367220769 -0.018593343905836838
6.3626015625 -0.994462170143762 -0.017431496046862373
6.36375 -0.9957970361622581 -0.018259676507187905
6.3648984375 -0.9963115425781301 -0.017961742655626042
6.366046875 -0.9944872581009303 -0.02104560351386004
6.3671953125 -0.997785382731273 -0.02196884629674927
6.36834375 -0.9997137775908048 -0.019397371580597615
6.3694921875 -0.9965460804633102 -0.020153046037654995
6.370640625 -0.9987507247163177 -0.018168116338741828
6.3717890625 -1.0005297637921937 -0.018285718551346745
6.3729375 -0.9993531277053394 -0.018715450896003488
6.3740859375 -0.9985087711993839 -0.019353672143158918
6.375234375 -1.0007489851173013 -0.017688368971370577
6.3763828125 -1.0000775887859812 -0.016202146661478973
6.37753125 -0.999029428732609 -0.017707670339215033
6.3786796875 -1.0004631204829582 -0.019159260925168668
6.379828125 -1.0007606125913315 -0.019624751719633397
6.3809765625 -0.9950736494297321 -0.019114279374959776
6.382125 -0.9978573950029692 -0.018737468863857173
6.3832734375 -1.0005629153789255 -0.018064134182296587
6.384421875 -0.9975285826859825 -0.017753120980663326
6.3855703125 -1.0000132705835396 -0.01940628108010671
6.38671875 -1.0015398008144722 -0.01770082705951339
6.3878671875 -1.0007060192757091 -0.01564144207614567
6.389015625 -0.9990034880369792 -0.01572307092064186
6.3901640625 -1.002242708335022 -0.01707946967518635
6.3913125 -1.003877607068689 -0.017981684822908982
6.3924609375 -0.9993655337577926 -0.01847093268933539
6.393609375 -1.0009589889221913 -0.016044022860330062
6.3947578125 -1.0001378818544588 -0.015921371729421804
6.39590625 -0.9972318711876654 -0.015142703340431773
6.3970546875 -0.9998533642599844 -0.01674482555890798
6.398203125 -1.0008474906418954 -0.015398218983533371
6.3993515625 -0.9992241005343357 -0.014799029963186772
6.4005 -0.9995455989864457 -0.01468795269326692
6.4016484375 -1.0013218340017143 -0.014790484496011544
6.402796875 -0.9996283617240281 -0.014272429930399205
6.4039453125 -0.9989229045151852 -0.014592756080013605
6.40509375 -1.0027748156774872 -0.015159693406876257
6.4062421875 -0.9999674686668265 -0.013978940574818827
6.407390625 -0.9978749659235783 -0.014296965674684886
6.4085390625 -1.0005110314216445 -0.013260040986362659
6.4096875 -1.0017039162936767 -0.013485012297481558
6.4108359375 -0.9994097232332153 -0.016248062874065744
6.411984375 -1.0010765090630025 -0.014922066572748166
6.4131328125 -1.0024295444990703 -0.012534955868551051
6.41428125 -0.9988928918220323 -0.014598397164849508
6.4154296875 -1.0012566176597308 -0.014808077954746868
6.416578125 -1.0021576799501646 -0.017110465839612787
6.4177265625 -1.0002026340076977 -0.015294760642292682
6.418875 -0.9988018241138957 -0.014521166258638474
6.4200234375 -1.0019732479753296 -0.01369007668296296
6.421171875 -1.002790260535069 -0.012669077673359203
6.4223203125 -1.0021391533740653 -0.015161001860086759
6.42346875 -1.004432421672167 -0.014305087076643103
6.4246171875 -1.0036036800799486 -0.013019250018449752
6.425765625 -1.0011245865207812 -0.016313105858097005
6.4269140625 -1.0032496466191798 -0.01580961646647694
6.4280625 -1.0031926831516917 -0.016487940613844232
6.4292109375 -1.002723138300259 -0.018653826784929384
6.430359375 -1.004579475514046 -0.016422188572195517
6.4315078125 -1.0070535815106965 -0.01576849737647243
6.43265625 -1.0059977743616477 -0.017038284516331326
6.4338046875 -1.0062413148149036 -0.01743909236139865
6.434953125 -1.0099665416681167 -0.01846789127958967
6.4361015625 -1.0112768909147574 -0.017517418178373295
6.43725 -1.0082625926404625 -0.01627728130333625
6.4383984375 -1.011251573953382 -0.015897336052248967
6.439546875 -1.0139305899230764 -0.01188371671805466
6.4406953125 -1.0107754480042712 -0.013251847339610545
6.44184375 -1.011726369411349 -0.01146278501307263
6.4429921875 -1.0130448808834192 -0.00939772442970821
6.444140625 -1.0110862718415463 -0.010442262340541908
6.4452890625 -1.009745578855226 -0.011552766728225139
6.4464375 -1.0113824376569123 -0.013345403010867118
6.4475859375 -1.00985568348462 -0.009780490434493139
6.448734375 -1.006910028503739 -0.00934798901686884
6.4498828125 -1.0065409478873062 -0.00809055468598896
6.45103125 -1.0060176324846282 -0.006855171038649244
6.4521796875 -1.002126545510475 -0.005933977882398245
6.453328125 -1.003810218334116 -0.007090110499928193
6.4544765625 -1.004054457954572 -0.007417099965592255
6.455625 -1.0008818293037942 -0.006101854730249101
6.4567734375 -1.0004130451250213 -0.006400416015220289
6.457921875 -1.0029623803623973 -0.00878437006790983
6.4590703125 -1.0017501596859386 -0.009407575889251507
6.46021875 -0.9997873800939489 -0.00966780349038554
6.4613671875 -1.000831919917692 -0.008434850649455983
6.462515625 -1.001478310696687 -0.008169909240116457
6.4636640625 -0.997020756659481 -0.01092066360490801
6.4648125 -1.0008533125966506 -0.012638792981378322
6.4659609375 -1.0000932508348381 -0.011872203473089593
6.467109375 -0.9960811708330655 -0.009975816897865475
6.4682578125 -0.9987240980646694 -0.011750453112395809
6.46940625 -0.9987907863173285 -0.010827358587680302
6.4705546875 -0.9992927257996739 -0.01281140348687071
6.471703125 -0.9983279736820148 -0.012193807418680314
6.4728515625 -1.0006450188523086 -0.010238403934457962
6.474 -1.0020781376925119 -0.011303579289401178
6.4751484375 -1.0026244911102382 -0.012367111477585013
6.476296875 -1.0039666014370354 -0.01280571005476841
6.4774453125 -1.0047619546194593 -0.010919796210224153
6.47859375 -1.00000724125453 -0.009798683086405968
6.4797421875 -1.0039424634118486 -0.009373790864607434
6.480890625 -1.0063007152289165 -0.008616020114428746
6.4820390625 -1.004393984538682 -0.010953281365861545
6.4831875 -1.0067148005513298 -0.011520949420569665
6.4843359375 -1.009924553695423 -0.008507288198542684
6.485484375 -1.007462411460949 -0.008605520188347482
6.4866328125 -1.0066237865248113 -0.008472953211207834
6.48778125 -1.0071964506128899 -0.0102075355924785
6.4889296875 -1.0080917007827348 -0.00856881009663446
6.490078125 -1.004452586120336 -0.007684473284305632
6.4912265625 -1.0051938680521262 -0.009280314558120312
6.492375 -1.0048529640950334 -0.009464847821649525
6.4935234375 -1.0016509928087047 -0.010011913046079124
6.494671875 -1.0042943482558908 -0.01023337043299466
6.4958203125 -1.005174883450765 -0.01032612982047365
6.49696875 -1.0047374225166477 -0.01098830438338888
6.4981171875 -1.0039960998223245 -0.009516988877461913
6.499265625 -1.005661959034988 -0.009881989707825861
6.5004140625 -1.0055325942719755 -0.010299675828314259
6.5015625 -1.0034368415139907 -0.009150487465917595
6.5027109375 -1.0066910596312342 -0.00863424591374895
6.503859375 -1.0066257621065973 -0.009626441860748819
6.5050078125 -1.0046793570272288 -0.009657258776598648
6.50615625 -1.0075640815770532 -0.012559030139944818
6.5073046875 -1.0085070386892785 -0.011491411070859825
6.508453125 -1.0051250229920352 -0.011439534999466885
6.5096015625 -1.0084439145516444 -0.011478404433408917
6.51075 -1.0083984112088282 -0.010988694997269038
6.5118984375 -1.009704246510276 -0.013182212499460194
6.513046875 -1.0086828472531495 -0.011691488789523544
6.5141953125 -1.0112577816041601 -0.010399990930814243
6.51534375 -1.010887347910257 -0.009839770289090055
6.5164921875 -1.0093429293544909 -0.009635112255120759
6.517640625 -1.0117540978386348 -0.00902401496518744
6.5187890625 -1.0110278961554306 -0.008647270049268616
6.5199375 -1.0080606684200757 -0.008095476861883624
6.5210859375 -1.009082507402727 -0.008407018061130561
6.522234375 -1.0092289191180623 -0.008930442042220987
6.5233828125 -1.008320965331629 -0.007814611523523349
6.52453125 -1.0086676169495465 -0.008720709620042816
6.5256796875 -1.008358797209414 -0.008719929534222438
6.526828125 -1.0071015348153178 -0.007752980120649122
6.5279765625 -1.0073234429741587 -0.008469159523058628
6.529125 -1.0077909953774569 -0.009175135099468018
6.5302734375 -1.0096072839979708 -0.008277089137755086
6.531421875 -1.0042905726311473 -0.007189293396623914
6.5325703125 -1.0073435435740947 -0.009242339069162067
6.53371875 -1.008547761296575 -0.00849719121135907
6.5348671875 -1.0064278732067313 -0.007957724952201883
6.536015625 -1.0080397882146184 -0.00983946316384423
6.5371640625 -1.0079429310078503 -0.008197494870954149
6.5383125 -1.006488269227281 -0.0073970735543166105
6.5394609375 -1.0050984561722967 -0.008643937297145868
6.540609375 -1.0075761758520165 -0.007564434907844558
6.5417578125 -1.0083658861092308 -0.008202200464873494
6.54290625 -1.0056941633827055 -0.00792465362523298
6.5440546875 -1.006428749483271 -0.007870465196811498
6.545203125 -1.0072307908371378 -0.008281885035123473
6.5463515625 -1.0057094919903566 -0.008542055006139661
6.5475 -1.0078548516073107 -0.008255754180146735
6.5486484375 -1.0081111634448638 -0.006543846192374806
6.549796875 -1.0043730932841617 -0.0072599547217059995
6.5509453125 -1.0055865319051194 -0.007579482935009457
6.55209375 -1.0054834264584842 -0.006378967134301063
6.5532421875 -1.006208279138956 -0.007078796979036024
6.554390625 -1.0052342712836648 -0.008432464397984167
6.5555390625 -1.0072359758737972 -0.006913566260838543
6.5566875 -1.007538064373668 -0.005807148078500583
6.5578359375 -1.0035943247527743 -0.005020332672641341
6.558984375 -1.005326892664987 -0.006743548654031338
6.5601328125 -1.0057213282193855 -0.007093366361042797
6.56128125 -1.0027159711186138 -0.006808683643104607
6.5624296875 -1.0036076221440349 -0.007408309844762328
6.563578125 -1.0072067493991337 -0.008925634392022538
6.5647265625 -1.0054030880759448 -0.00788328133728499
6.565875 -1.0060065158074523 -0.008620369449664
6.5670234375 -1.0065270227067424 -0.008501813677528374
6.568171875 -1.0060908027981423 -0.007582890652057563
6.5693203125 -1.0058301882680016 -0.00808074165600333
6.57046875 -1.007572303216571 -0.008755264296710058
6.5716171875 -1.0089986290839605 -0.01002491516320609
6.572765625 -1.005534942021505 -0.007465107909024805
6.5739140625 -1.0084305539608491 -0.008383886412316355
6.5750625 -1.0100248672832246 -0.006910740846952396
6.5762109375 -1.0088143695031282 -0.0069284158819647446
6.577359375 -1.011482988594454 -0.008842390425332664
6.5785078125 -1.0127618676659844 -0.0074239331245127965
6.57965625 -1.010471142072414 -0.006817052976513263
6.5808046875 -1.0096065392257787 -0.006118650291846911
6.581953125 -1.0119519689745322 -0.005734608980605932
6.5831015625 -1.0133761210719852 -0.0065463810476582285
6.58425 -1.0101194979386023 -0.00589068944895392
6.5853984375 -1.0106025585027825 -0.005809659067455897
6.586546875 -1.012369583069979 -0.006380031175543671
6.5876953125 -1.008889690918081 -0.004441380497119757
6.58884375 -1.0115923037461887 -0.005575006808717031
6.5899921875 -1.0144015295555497 -0.005616357819372919
6.591140625 -1.0116830541653952 -0.003828755007308754
6.5922890625 -1.0124229861994245 -0.006824489045243909
6.5934375 -1.012359933040531 -0.005593428799093109
6.5945859375 -1.0104347873680781 -0.0045119532446139254
6.595734375 -1.011020792459349 -0.0050114749547885695
6.5968828125 -1.0123707238251511 -0.003379738449917291
6.59803125 -1.0114638226606745 -0.002592575632510863
6.5991796875 -1.0082107907293238 -0.001795633799997698
6.600328125 -1.0100193074030737 -0.0026628301589451675
6.6014765625 -1.01091656879285 -0.0028960780651605678
6.602625 -1.0079898945646488 -0.003167274753531235
6.6037734375 -1.00901920736055 -0.0015982225751984547
6.604921875 -1.0099325492753366 0.00017187886600175672
6.6060703125 -1.0071817547146025 -0.000719797248453391
6.60721875 -1.007536970294966 -0.0010300461655530502
6.6083671875 -1.0084400389167008 -0.001588860243188217
6.609515625 -1.0072788720584014 -0.0003042784384814923
6.6106640625 -1.0072498344559275 -0.0004159379054374246
6.6118125 -1.0087722714589757 -0.0006220717651160002
6.6129609375 -1.008684235521432 -0.002491981489689876
6.614109375 -1.0063515489681667 -0.0016819577372739203
6.6152578125 -1.0068996072214955 0.00011189279206524905
6.61640625 -1.0074430620118255 0.001876832189324107
6.6175546875 -1.005415825844152 0.0025439095013365387
6.618703125 -1.0053942929528479 0.0009428363425801334
6.6198515625 -1.0063089467276933 0.0019982253200158118
6.621 -1.006884601217652 0.002584356116834441
6.6221484375 -1.002894993922609 0.0029439516833106305
6.623296875 -1.0044486380221094 0.0030916258861936052
6.6244453125 -1.0058598896118693 0.001388488419872047
6.62559375 -1.0043262149867578 0.0010234131260957735
6.6267421875 -1.005143513599155 0.0007185918591518514
6.627890625 -1.0059636707896646 0.001285891827154051
6.6290390625 -1.0041194708038095 0.001284631388467683
6.6301875 -1.005152137753628 0.0015372626817256596
6.6313359375 -1.0050320117359128 0.0007625955959101316
6.632484375 -1.0065449058598461 0.002475896910735409
6.6336328125 -1.0044192901086801 0.001604129007824584
6.63478125 -1.0059389507848016 0.0015720599281177083
6.6359296875 -1.0049097270737084 -6.847529579645517e-05
6.637078125 -1.0037491911232475 7.187147895626467e-05
6.6382265625 -1.0048002379861987 0.00022152336285913288
6.639375 -1.004788663494856 -0.000618336251808016
6.6405234375 -1.0029700226511178 0.00034252593494515926
6.641671875 -1.0040760676658278 -0.0006234782350632573
6.6428203125 -1.0063476394550248 -0.0014322781200589163
6.64396875 -1.002608862141388 0.0005961961892143597
6.6451171875 -1.0031735961801176 0.0009883166884366856
6.646265625 -1.0044941823620963 -0.00015649801776113081
6.6474140625 -1.0047030690506094 0.00019747986921486715
6.6485625 -1.0019929356996422 -0.0009218606826678077
6.6497109375 -1.0052003803640783 -0.0022124183028223166
6.650859375 -1.0057992987932463 0.00028318486425277234
6.6520078125 -1.0042298582384022 0.00022038512421235223
6.65315625 -1.0047148820716019 -0.0001091844032603817
6.6543046875 -1.0061844627764256 -0.00030748863481125377
6.655453125 -1.0034836744314197 0.00014418720162343024
6.6566015625 -1.0053686936531725 -0.0008407856619057075
6.65775 -1.0056626929107537 -7.292176611997658e-05
6.6588984375 -1.004225269610441 3.131166479264369e-05
6.660046875 -1.0054953352934997 -0.0018497364908640623
6.6611953125 -1.005466099206987 -0.0022104655823278474
6.66234375 -1.0050314453428162 -0.0009117614622062287
6.6634921875 -1.0049359524369303 -1.773249636113916e-05
6.664640625 -1.003411946695811 0.0007352994343035046
6.6657890625 -1.0055739473197902 0.00047382484112187817
6.6669375 -1.0034791060948072 6.730535597501697e-05
6.6680859375 -1.0030356256462942 -0.0021702215704552663
6.669234375 -1.0031443240524043 -0.0011441356353378285
6.6703828125 -1.0033218137671596 0.0002547627346746739
6.67153125 -1.0026582983447272 -0.0016517826477975978
6.6726796875 -1.0055852196007042 -0.003582757710245049
6.673828125 -1.005452300587372 -0.004500453220603912
6.6749765625 -1.0026549097147537 -0.005145863986888682
6.676125 -1.0038923185631938 -0.0047064836527176135
6.6772734375 -1.0067957704278037 -0.0021712557436015384
6.678421875 -1.0023144020268446 -0.0019553027583020383
6.6795703125 -1.0045476616560205 -0.0026517216935314503
6.68071875 -1.0045858642822278 -0.005140582982154918
6.6818671875 -1.0018391497387704 -0.003214679931881348
6.683015625 -1.0038753347292404 -0.0023994005609392077
6.6841640625 -1.00503904961508 -0.0035929485285098595
6.6853125 -1.0047540988395383 -0.004517593280134513
6.6864609375 -1.0038216550970231 -0.0035894789144478717
6.687609375 -1.004598013739219 -0.0034501312858407837
6.6887578125 -1.0057820872137302 -0.0018674842524335766
6.68990625 -1.0057406147979067 -0.001993986659666401
6.6910546875 -1.0079536656020673 -0.002897805857069405
6.692203125 -1.0078695471362644 -0.001161351528047111
6.6933515625 -1.004955183863276 0.00017848192843974986
6.6945 -1.0079947865071393 -0.0008311959704342398
6.6956484375 -1.0089121715725367 -0.002319236480162218
6.696796875 -1.006883029332545 -0.00034906856666248876
6.6979453125 -1.0071620645984791 -0.0005945951965462548
6.69909375 -1.0071270374015104 -0.0007043395950188415
6.7002421875 -1.0078941094460667 0.0017752297061460788
6.701390625 -1.0061981577050982 0.0007951707317012391
6.7025390625 -1.008353694597354 -0.0006658426263354417
6.7036875 -1.0097887197886508 0.0028042408986317657
6.7048359375 -1.0062594472505326 0.004675106652137634
6.705984375 -1.0077700787885377 0.003319854082301371
6.7071328125 -1.0080270720359699 0.00415170091364786
6.70828125 -1.0045194142841072 0.004750978115338478
6.7094296875 -1.003755628409661 0.004565327477964343
6.710578125 -1.0048462155427185 0.004751496793256982
6.7117265625 -1.0035923302107386 0.005892362583646421
6.712875 -1.0039243133027747 0.00558754083077781
6.7140234375 -1.0047249504465958 0.004058299950156594
6.715171875 -1.0035192901486034 0.004153863666322019
6.7163203125 -1.0013886285146976 0.003890205288128834
6.71746875 -1.0032719532430865 0.00352310486123783
6.7186171875 -1.0028144599429996 0.003215118974127726
6.719765625 -1.0018165710388274 0.0038970131973510846
6.7209140625 -1.004745167865091 0.0036585142840228763
6.7220625 -1.0045698168589063 0.004360639480845863
6.7232109375 -1.0018221743707554 0.004990385041051454
6.724359375 -1.0016616949423762 0.003922337548821514
6.7255078125 -1.0017898867202875 0.0037630396268934635
6.72665625 -1.0015048732417111 0.0028962677656001884
6.7278046875 -0.9987284068426814 0.0039189676754440295
6.728953125 -0.9993884130034806 0.0041139482436051145
6.7301015625 -0.9993095465419835 0.0026566980139483
6.73125 -0.9979583440839155 0.0033779953514091188
6.7323984375 -0.9990543296160269 0.0005089432408702521
6.733546875 -1.0000566969860434 0.0019053586348672658
6.7346953125 -0.9964184525189079 0.003932469922311943
6.73584375 -0.9975462423192472 0.0010582987171234154
6.7369921875 -0.9979347025672726 0.0018999991427631202
6.738140625 -0.996390022720374 0.0019809174733520507
6.7392890625 -0.9962865889057035 0.0012882300952576642
6.7404375 -0.9969554086821129 0.0013925600739729607
6.7415859375 -0.9970248910436903 0.0019479468300548641
6.742734375 -0.994679878610179 0.00025219476277241193
6.7438828125 -0.996108110258533 -0.0016930516126080208
6.74503125 -0.9954498512872297 -0.000565691529705023
6.7461796875 -0.9927643399235134 0.0001398492725447828
6.747328125 -0.9938328859453804 -0.0021956778430634316
6.7484765625 -0.9956531283185538 -0.003925598127376674
6.749625 -0.9928893420982293 -0.002597626719251421
6.7507734375 -0.9930212984760289 -0.0017775191075092532
6.751921875 -0.9943047466049915 -0.0027706111401978074
6.7530703125 -0.9941612527147728 -0.0018548773094204177
6.75421875 -0.9916932395824527 -0.002042187094662945
6.7553671875 -0.9936740959041578 -0.003800990686817593
6.756515625 -0.9924256057853831 -0.0050503807373427495
6.7576640625 -0.9918024377536395 -0.0034448100071730117
6.7588125 -0.9923667813481063 -0.005429305187755501
6.7599609375 -0.9948903943160642 -0.005153685061276866
6.761109375 -0.9916625960463579 -0.005238779369685248
6.7622578125 -0.9939469989438323 -0.005568148348733048
6.76340625 -0.9949524914844609 -0.00587945319663824
6.7645546875 -0.9937128087726889 -0.0035979515344145424
6.765703125 -0.9943389145738595 -0.006077071690388791
6.7668515625 -0.9956236186389149 -0.008257563160239817
6.768 -0.9976293317891265 -0.006949432357497218
6.7691484375 -0.9935719639248337 -0.006734439364487969
6.770296875 -0.9961905762101975 -0.008776155295630195
6.7714453125 -0.9967155566394337 -0.009847097432776349
6.77259375 -0.9926579251641301 -0.009362839084774498
6.7737421875 -0.9973948747591702 -0.011867225493175926
6.774890625 -0.9988234738751074 -0.01145131301069749
6.7760390625 -0.9975782339068853 -0.009826290198761273
6.7771875 -0.9980292464578208 -0.010037389975065453
6.7783359375 -1.000030944013448 -0.009123439602456679
6.779484375 -0.9996165670590902 -0.009190301579866347
6.7806328125 -0.9992921761844349 -0.010377595984981947
6.78178125 -1.0007150158796632 -0.009395255949918968
6.7829296875 -1.0010057109923138 -0.007915696220151258
6.784078125 -0.9979536382461052 -0.007103082532266908
6.7852265625 -0.9992060121752131 -0.007822626714842879
6.786375 -1.0017464540321985 -0.0068384741100158825
6.7875234375 -0.9986408923904871 -0.005387808472485087
6.788671875 -0.9996083246409796 -0.006940367124322083
6.7898203125 -1.0005607964339283 -0.007696413227786469
6.79096875 -0.998938282345532 -0.007235554637837691
6.7921171875 -0.999903212834188 -0.007610294270945825
6.793265625 -1.0007266896865725 -0.0058281100980459855
6.7944140625 -1.0010459000787357 -0.004459606849111675
6.7955625 -0.9997176229276247 -0.0052236252435819
6.7967109375 -1.001644243086568 -0.005722277531361314
6.797859375 -1.0013225346024763 -0.00545577082357826
6.7990078125 -0.9979404526029003 -0.0046390371701734295
6.80015625 -0.9997881965557547 -0.005444278456842588
6.8013046875 -0.9990867156918002 -0.0060964569963577325
6.802453125 -0.9968406249635124 -0.005579178851844668
6.8036015625 -0.9990271865356015 -0.007298882881189128
6.80475 -0.9991677383667703 -0.00880460335211003
6.8058984375 -0.9990921925088573 -0.007659848055022733
6.807046875 -0.9980689158326106 -0.008650324340193472
6.8081953125 -0.9991253846364732 -0.00863190683570228
6.80934375 -1.0000021844328097 -0.009890926820020463
6.8104921875 -0.9978203328894142 -0.009743141987780035
6.811640625 -0.9988131779587305 -0.010281134366943293
6.8127890625 -1.0003403555757506 -0.009994589967351253
6.8139375 -0.9987595491422168 -0.009294100354465831
6.8150859375 -0.9998574666098475 -0.01091031477913501
6.816234375 -1.0014864825245051 -0.009677079358332966
6.8173828125 -1.0012663384810734 -0.008658910515710758
6.81853125 -0.9998573303585563 -0.008201265331420349
6.8196796875 -1.0005086752487202 -0.007861198308669243
6.820828125 -0.9999401189086286 -0.008617162991004249
6.8219765625 -0.9991540461715389 -0.007697228083291305
6.823125 -0.9985321044095952 -0.006741488487715552
6.8242734375 -0.9983636573425796 -0.008828427218652388
6.825421875 -0.9958173242709825 -0.008172060305697185
6.8265703125 -0.9976397417219067 -0.012153249679804246
6.82771875 -0.9987012233837 -0.011013154193658739
6.8288671875 -0.9958521690640794 -0.011521089082891733
6.830015625 -0.9987458761331249 -0.013197192478273834
6.8311640625 -0.9992928669258996 -0.013930651054359575
6.8323125 -1.00019357728083 -0.011855669523358328
6.8334609375 -1.0005807072466095 -0.01280302212095237
6.834609375 -1.0026882732061644 -0.011828963109059246
6.8357578125 -1.003800376298306 -0.011683628863937007
6.83690625 -1.0036919846182815 -0.01263038145223
6.8380546875 -1.005917490919416 -0.011994161594144098
6.839203125 -1.006113850974608 -0.011310031073553356
6.8403515625 -1.0030832474081275 -0.010913848491742241
6.8415 -1.005029011822472 -0.009195322992898027
6.8426484375 -1.0060415821027413 -0.00981531531425072
6.843796875 -1.002052185557186 -0.008162352645127977
6.8449453125 -1.0015253891475355 -0.00990427941537575
6.84609375 -1.0029151120694264 -0.010452286561529217
6.8472421875 -1.0015036051996236 -0.00984192175080617
6.848390625 -1.0010582041029714 -0.010468419674255824
6.8495390625 -1.000550560288315 -0.009687546290461674
6.8506875 -0.9994589399278087 -0.010233570874990938
6.8518359375 -0.9999108929479488 -0.012121620910729776
6.852984375 -1.00199168195214 -0.013059725369758881
6.8541328125 -1.003922841390033 -0.01271956914554924
6.85528125 -1.0012492780805757 -0.012965392741634163
6.8564296875 -1.0002532613608652 -0.018138472667947242
6.857578125 -1.0026194570669833 -0.017089387832637054
6.8587265625 -1.0018093469913427 -0.014590946384251569
6.859875 -1.0020042285761923 -0.017932538928596337
6.8610234375 -1.005226761772365 -0.01883688800056789
6.862171875 -1.0042168201220658 -0.01728115445986593
6.8633203125 -1.0061894117993098 -0.018672254229251888
6.86446875 -1.0065080380705151 -0.019181225176967853
6.8656171875 -1.0072105889822578 -0.018761965258890095
6.866765625 -1.0070246808110748 -0.016782636767255804
6.8679140625 -1.01248678914476 -0.018133623837697038
6.8690625 -1.014917007402607 -0.01608625842954811
6.8702109375 -1.01065473219248 -0.014831793018603018
6.871359375 -1.0126739000581513 -0.014975598330429607
6.8725078125 -1.013050932652151 -0.01483928842570692
6.87365625 -1.0126106432505841 -0.012944540907567206
6.8748046875 -1.0111308250361024 -0.01388170789046736
6.875953125 -1.0112280983331405 -0.013014086756781729
6.8771015625 -1.012965940556147 -0.012999349535757515
6.87825 -1.008955304227069 -0.012140844286707683
6.8793984375 -1.0112878418771418 -0.011818380011972301
6.880546875 -1.0127603071004732 -0.012322472799669637
6.8816953125 -1.0101254354980793 -0.01140112225189116
6.88284375 -1.0131359812255334 -0.014193256414696181
6.8839921875 -1.0143294698219674 -0.012344467169322582
6.885140625 -1.0124156057855176 -0.010797727315700917
6.8862890625 -1.0133460487354395 -0.011103417071459343
6.8874375 -1.0142812047966672 -0.010551421853615794
6.8885859375 -1.0147754241380342 -0.009284057601072815
6.889734375 -1.012641551489987 -0.00899232407654596
6.8908828125 -1.0148814001658752 -0.009280179117606063
6.89203125 -1.0148695659427593 -0.008878713426374252
6.8931796875 -1.0101351854900726 -0.009848898812681972
6.894328125 -1.0131842350939169 -0.009449978158591527
6.8954765625 -1.01308530415671 -0.0077706663549178545
6.896625 -1.0093472085651087 -0.007026447845863454
6.8977734375 -1.0112638806239145 -0.008936562548474525
6.898921875 -1.012095307879163 -0.007420157950194212
6.9000703125 -1.0113853508637343 -0.005724518346203189
6.90121875 -1.0109345166078247 -0.008820821858899153
6.9023671875 -1.0139011876247226 -0.009418062814400552
6.903515625 -1.0144351268101446 -0.008599894656988682
6.9046640625 -1.0116127509033805 -0.008114787551183361
6.9058125 -1.0142342322704776 -0.007056239815357357
6.9069609375 -1.0148006793625497 -0.006167323381298384
6.908109375 -1.010915938946626 -0.004629478283322053
6.9092578125 -1.0126542262566787 -0.006033934364733817
6.91040625 -1.0132413725666596 -0.004535994378866093
6.9115546875 -1.0110168111685875 -0.003932571488175773
6.912703125 -1.0121083320340847 -0.004770821073917547
6.9138515625 -1.0126977088376596 -0.004212340162550787
6.915 -1.0105790240631698 -0.0038897403068345604
6.9161484375 -1.0093558273252188 -0.005184495704443043
6.917296875 -1.0118372068152603 -0.004076410771272021
6.9184453125 -1.0129291470415365 -0.001861784937950972
6.91959375 -1.0095955706513033 -0.0037495881696900935
6.9207421875 -1.0112452413399209 -0.0028435967161614673
6.921890625 -1.0105250698674149 -0.0034401164784930716
6.9230390625 -1.005362229615827 -0.00239800152869285
6.9241875 -1.007942860352857 -0.0052327892852835345
6.9253359375 -1.0098712784090806 -0.005489520455729452
6.926484375 -1.008191149015349 -0.004795331691176796
6.9276328125 -1.0071466570008867 -0.005342549509447431
6.92878125 -1.008726269523173 -0.004360169556597071
6.9299296875 -1.0086189605790223 -0.003326632510537525
6.931078125 -1.0066842534557274 -0.005125293747184151
6.9322265625 -1.0085190082741047 -0.0056788005395814745
6.933375 -1.008935199779869 -0.004726508670373525
6.9345234375 -1.004763047010248 -0.00486402912682074
6.935671875 -1.0082425289657266 -0.005896440411826548
6.9368203125 -1.007626704338064 -0.00476051430928251
6.93796875 -1.0060100074309948 -0.004458203451762677
6.9391171875 -1.0069306678930419 -0.006324774434005781
6.940265625 -1.00773783929226 -0.005721327671994653
6.9414140625 -1.0081644195064323 -0.004539821277774664
6.9425625 -1.0072848500307794 -0.006901490953854117
6.9437109375 -1.0084865921039226 -0.006311422644378284
6.944859375 -1.0100279322538381 -0.006236306016432991
6.9460078125 -1.0046631743876635 -0.004397076717865933
6.94715625 -1.0066068590243822 -0.004870505498492217
6.9483046875 -1.007327501624213 -0.004964490062450033
6.949453125 -1.0035950908777216 -0.0038559531777887235
6.9506015625 -1.0062921801662799 -0.006180297550146208
6.95175 -1.0078989785684638 -0.004914509742241627
6.9528984375 -1.0051097986678859 -0.004279275170149505
6.954046875 -1.0042540013605832 -0.006444130426657341
6.9551953125 -1.0060562557909005 -0.006265127882791516
6.95634375 -1.0055779791130253 -0.0062322364798764185
6.9574921875 -1.0027454358532069 -0.007482242102413383
6.958640625 -1.0055650213818366 -0.0063233415279807526
6.9597890625 -1.0060026816846255 -0.006382522071371827
6.9609375 -1.0014736784191731 -0.007216755049309312
6.9620859375 -1.0060465528145954 -0.008201473697363598
6.963234375 -1.0064544937920832 -0.0073220429672266885
6.9643828125 -1.0037393213166008 -0.007215565705599489
6.96553125 -1.0058275345313556 -0.007751572988236921
6.9666796875 -1.0066453991654278 -0.0072757680154469165
6.967828125 -1.0058138592744323 -0.007001575593919708
6.9689765625 -1.0055003789530579 -0.00819795379018505
6.970125 -1.0083002237504295 -0.007924489702063199
6.9712734375 -1.0081783603583656 -0.006967379267307672
6.972421875 -1.0049475510607428 -0.008878470054796125
6.9735703125 -1.0076913779075418 -0.009108561048792957
6.97471875 -1.0093208146839696 -0.008999265308947192
6.9758671875 -1.004643050282849 -0.00792813158712108
6.977015625 -1.0073069863588744 -0.009279652324356812
6.9781640625 -1.008158652677716 -0.007170304271017239
6.9793125 -1.0064641569888355 -0.007093384521660501
6.9804609375 -1.0067445745948058 -0.010639479374423506
6.981609375 -1.0084594768624984 -0.008828269437481336
6.9827578125 -1.009085809094019 -0.008203384193471209
6.98390625 -1.0085853866315606 -0.01019862482910286
6.9850546875 -1.0105783782104483 -0.009393869072305279
6.986203125 -1.0102860897528583 -0.008716614804145859
6.9873515625 -1.0059252830194518 -0.0078020792709898035
6.9885 -1.009534194089446 -0.011083136552225668
6.9896484375 -1.0107131842186883 -0.00966386736453062
6.990796875 -1.0073243090486468 -0.009076153863427597
6.9919453125 -1.0094514256906706 -0.011910934318615354
6.99309375 -1.010648622671624 -0.009681340893104809
6.9942421875 -1.0091810375384016 -0.010008624197900357
6.995390625 -1.0093986822951413 -0.012005922698297214
6.9965390625 -1.0121570973953755 -0.011065956031846097
6.9976875 -1.0124276615356633 -0.009583862946678588
6.9988359375 -1.0088112679878152 -0.009883004849942867
6.999984375 -1.011131065017656 -0.01062529342337773
7.0011328125 -1.0124647141717003 -0.009506543349719454
7.00228125 -1.009261773760721 -0.008850729155841001
7.0034296875 -1.011483896706136 -0.008709366335654667
7.004578125 -1.0116828327860499 -0.007586651408152623
7.0057265625 -1.0081117932875467 -0.005751276088259573
7.006875 -1.0080301669667229 -0.007944435207850868
7.0080234375 -1.0123849372634763 -0.007201409428622213
7.009171875 -1.0104440461918707 -0.005604920898218763
7.0103203125 -1.0091556239322652 -0.009237966288740851
7.01146875 -1.0106672995972505 -0.006637105597418966
7.0126171875 -1.0118107831828083 -0.0059751679127161145
7.013765625 -1.006732430295434 -0.009032315117152738
7.0149140625 -1.0107022374164063 -0.00992629848425338
7.0160625 -1.0110296561380625 -0.0069118599198753905
7.0172109375 -1.0049655413876213 -0.007613953006053803
7.018359375 -1.0094090476557969 -0.008936297362326526
7.0195078125 -1.00907422500748 -0.009670243874429663
7.02065625 -1.00669153412758 -0.008668847043993538
7.0218046875 -1.0083018030518645 -0.010305947808217142
7.022953125 -1.0110571567916815 -0.008584519832796705
7.0241015625 -1.0104940449133974 -0.009438591459824522
7.02525 -1.0082329408656765 -0.011372400921509741
7.0263984375 -1.0116641276615992 -0.009652479641980752
7.027546875 -1.0112275926534373 -0.009306099208705731
7.0286953125 -1.004822816667594 -0.008976978453868703
7.02984375 -1.0089857579742745 -0.010192367991079837
7.0309921875 -1.0112793244405358 -0.011072302346478935
7.032140625 -1.0074143477835817 -0.01077440169174898
7.0332890625 -1.0099278750025558 -0.01121553175232326
7.0344375 -1.0093875098254892 -0.00938222252616179
7.0355859375 -1.008645456979982 -0.008683812782847397
7.036734375 -1.0080123255887172 -0.012017662428684905
7.0378828125 -1.0093864937381902 -0.01070005497706357
7.03903125 -1.0110818659449325 -0.010882997018694301
7.0401796875 -1.0084655528214856 -0.01124058225911348
7.041328125 -1.0096151075265203 -0.010517944777997307
7.0424765625 -1.0117656194338354 -0.010313131426418626
7.043625 -1.0069419496030811 -0.011843988679402395
7.0447734375 -1.0103737934910932 -0.011991252126597171
7.045921875 -1.012583495460512 -0.010419481960015561
7.0470703125 -1.0073917808516668 -0.008470417589641288
7.04821875 -1.0085922265161873 -0.01151962793309394
7.0493671875 -1.009772699787185 -0.009874906496761426
7.050515625 -1.010327384209293 -0.010743008279493704
7.0516640625 -1.0093766150556087 -0.012555117347623462
7.0528125 -1.0123224664763537 -0.01129063125598792
7.0539609375 -1.0148777409758665 -0.009320334175638434
7.055109375 -1.0097599429398352 -0.011658281966970385
7.0562578125 -1.01403417845977 -0.014788265856690214
7.05740625 -1.0138451803809336 -0.012481828822892782
7.0585546875 -1.008589092849821 -0.011171357510949526
7.059703125 -1.0122558781901692 -0.011606840097777321
7.0608515625 -1.013198579561647 -0.010467711603109525
7.062 -1.012236093373778 -0.010082256757892538
7.0631484375 -1.0126724263532723 -0.012166095341702238
7.064296875 -1.0136524498576196 -0.011343955650532561
7.0654453125 -1.013594951535905 -0.01074674462453995
7.06659375 -1.0114983248232408 -0.013140318106747484
7.0677421875 -1.0129973772178429 -0.012818551878168383
7.068890625 -1.0154144124719797 -0.010080366360586013
7.0700390625 -1.009811269543109 -0.011901630727259416
7.0711875 -1.0121822729180976 -0.012108098824505809
7.0723359375 -1.0158648966486972 -0.01018806547173634
7.073484375 -1.0121541545261825 -0.010983692508501064
7.0746328125 -1.0122729597919848 -0.014606902089745466
7.07578125 -1.0153750981942946 -0.011900244739261545
7.0769296875 -1.0138705471716514 -0.013458790187761027
7.078078125 -1.0139451635747534 -0.013229296082436226
7.0792265625 -1.01699540649105 -0.013377241541659979
7.080375 -1.0195650851108047 -0.011895179807851819
7.0815234375 -1.0157190144451322 -0.013983930505983067
7.082671875 -1.018895642475674 -0.012099752113015949
7.0838203125 -1.0207622779613454 -0.010870924731389286
7.08496875 -1.0166246757427675 -0.012877003902358353
7.0861171875 -1.0186944783074854 -0.014198899371515084
7.087265625 -1.021408760087592 -0.012699355099353937
7.0884140625 -1.0169702902545585 -0.00934148242907995
7.0895625 -1.0187859619162123 -0.011359598324009457
7.0907109375 -1.0219156864935712 -0.008459430707249027
7.091859375 -1.0210421419987954 -0.007578903653070346
7.0930078125 -1.0197404726890187 -0.01127150499073748
7.09415625 -1.0228162405263395 -0.00988755525516416
7.0953046875 -1.0225466845156301 -0.007561223910204806
7.096453125 -1.0174914899701044 -0.009936279890817523
7.0976015625 -1.0227171880583847 -0.009317513394991594
7.09875 -1.0243937138618708 -0.006930748314949442
7.0998984375 -1.0180806655944314 -0.007783365114816088
7.101046875 -1.0222836450949861 -0.008644693827114469
7.1021953125 -1.0244670548863901 -0.005231855606406766
7.10334375 -1.0233541687348722 -0.005277922155895842
7.1044921875 -1.0225818867834222 -0.00685264259656948
7.105640625 -1.0234594322642383 -0.0026457330137916735
7.1067890625 -1.024289119850272 -0.0014377209183691342
7.1079375 -1.0203931271833342 -0.004366346822727019
7.1090859375 -1.0248313176806136 -0.003500949652269214
7.110234375 -1.0262357668215563 -0.0003905756191447951
7.1113828125 -1.0186062993563239 -0.0011863093810168812
7.11253125 -1.0216300326213144 0.00034938122194033694
7.1136796875 -1.0234011277147126 0.0014328639848568692
7.114828125 -1.0178341736533765 0.0016156566036141795
7.1159765625 -1.0203662889395888 -0.00012928793458499843
7.117125 -1.02052810618084 0.002326162497261308
7.1182734375 -1.0196757824467158 0.0047150671193409155
7.119421875 -1.017046669058971 0.001222881806964199
7.1205703125 -1.0196589456178209 0.0020738988157624205
7.12171875 -1.0209678018168922 0.002962760910152018
7.1228671875 -1.012843578157496 0.00019537205952108172
7.124015625 -1.0171714366515727 0.0023518936803645363
7.1251640625 -1.0181389190486843 0.0037952118795515632
7.1263125 -1.0134488533145556 0.0024392475153605375
7.1274609375 -1.0175736379830134 0.0011400486747301097
7.128609375 -1.020425754102738 0.0027534244357610704
7.1297578125 -1.016186745712954 0.003598836598982441
7.13090625 -1.0162044317339776 0.0020903680647738343
7.1320546875 -1.0196325108552107 0.003962664744981581
7.133203125 -1.0194496881795316 0.006616620583024355
7.1343515625 -1.0133131925677143 0.003986636621793049
7.1355 -1.0161636886012548 0.006211279416047821
7.1366484375 -1.0167706532179999 0.008361894162047051
7.137796875 -1.0093505543286516 0.005510636438251476
7.1389453125 -1.0147986759272192 0.004127810364763285
7.14009375 -1.0169901073561853 0.005367029672661047
7.1412421875 -1.011774112212062 0.00399154393168695
7.142390625 -1.0144228839197518 0.003906286783348145
7.1435390625 -1.0157952533212684 0.003791169324530455
7.1446875 -1.0123591305458484 0.004547852082490311
7.1458359375 -1.012296452071093 0.0015336785460466143
7.146984375 -1.0151554011311565 0.0028446415648225084
7.1481328125 -1.0158229885597534 0.007199363597765903
7.14928125 -1.0096521858259178 0.003224619607958683
7.1504296875 -1.0139823793222236 0.004268686896182927
7.151578125 -1.0144332160864629 0.006805211902241336
7.1527265625 -1.008050168071156 0.005109223085929607
7.153875 -1.0101728910652128 0.005436387603287782
7.1550234375 -1.0124821715602634 0.006686799337973545
7.156171875 -1.0069255997276914 0.008289546287752123
7.1573203125 -1.0082316630553219 0.005966762080684862
7.15846875 -1.0090559176034135 0.007983538639916313
7.1596171875 -1.0066931018358827 0.008620756646504288
7.160765625 -1.002651733348087 0.0036518569983544774
7.1619140625 -1.0076206053052597 0.005354972951276585
7.1630625 -1.0081783735253693 0.005905047748770931
7.1642109375 -1.000797495444135 0.003935894678573665
7.165359375 -1.0068884405739 0.005236957193808275
7.1665078125 -1.0074380626761679 0.006242772757557052
7.16765625 -1.0011319348032683 0.006062882878154888
7.1688046875 -1.0024296673669917 0.0047861049014940454
7.169953125 -1.0053186167734771 0.006131895861735875
7.1711015625 -1.0015646315289477 0.00656888046810597
7.17225 -1.0014000955775728 0.0021273390770362444
7.1733984375 -1.0058959812468675 0.005162538938558114
7.174546875 -1.0065055939643754 0.006764143454386307
7.1756953125 -1.0007148084629773 0.003320896625626235
7.17684375 -1.0039132229293553 0.005259264976669009
7.1779921875 -1.0026569175781563 0.007779937626416489
7.179140625 -0.995595366583149 0.0018403276883548203
7.1802890625 -0.9982359794499585 0.0028043004226301488
7.1814375 -0.9995459507077762 0.004294436974393162
7.1825859375 -0.9944531588358051 0.0021774143387236072
7.183734375 -0.9941538686293383 0.0019283263959481711
7.1848828125 -0.996222295085762 0.003725097215971862
7.18603125 -0.9957232797312578 0.0022883196427015834
7.1871796875 -0.9932701771631508 -0.0029302496470982736
7.188328125 -0.9945863801267074 -0.002501834779776828
7.1894765625 -0.9957064461654908 0.000713320727821154
7.190625 -0.9888320531632143 -0.004917597489335804
7.1917734375 -0.9951091564957941 -0.004345420093650965
7.192921875 -0.9968602057891813 -0.002069203496452676
7.1940703125 -0.9912308619780014 -0.006105105261920568
7.19521875 -0.9929298074690749 -0.007059379964226037
7.1963671875 -0.9949001412460268 -0.00562420908711761
7.197515625 -0.9921306596966781 -0.008019346694077598
7.1986640625 -0.9943733247471455 -0.009989448020409603
7.1998125 -0.9975549177853924 -0.00919886835581446
7.2009609375 -0.9971115005007938 -0.006335355320047149
7.202109375 -0.9933946418912641 -0.011952691698411344
7.2032578125 -0.9985356866388232 -0.010424219561097153
7.20440625 -0.999512952911116 -0.008425273612897438
7.2055546875 -0.9927684373482826 -0.011423728103699848
7.206703125 -0.9992212294267055 -0.01237138181923672
7.2078515625 -1.000995761168466 -0.00918268503974401
7.209 -0.994750299677867 -0.011495060069401944
7.2101484375 -0.9977354118964907 -0.013964858579299022
7.211296875 -1.002900676424302 -0.013250737698209336
7.2124453125 -0.9991241315405752 -0.012883192282366729
7.21359375 -0.9981231842818792 -0.01691879679769165
7.2147421875 -1.0022551445322643 -0.015999929989657852
7.215890625 -1.002395283482227 -0.014504980083971802
7.2170390625 -0.9970827494228167 -0.022053767191086815
7.2181875 -1.0044269650891646 -0.018866103248733
7.2193359375 -1.0049527431445298 -0.013385123712540192
7.220484375 -1.0012834352237097 -0.017109919540678004
7.2216328125 -1.002915993084863 -0.017202378510042
7.22278125 -1.007869543603291 -0.013397967408612127
7.2239296875 -1.0031922609891173 -0.016456440792250837
7.225078125 -1.0028222604688477 -0.017345503420515884
7.2262265625 -1.007417923020396 -0.015605715625691241
7.227375 -1.0084340664083657 -0.012632076207011178
7.2285234375 -1.0039184478987053 -0.01948542740445297
7.229671875 -1.0080813673025615 -0.016938256768560422
7.2308203125 -1.0096776573694919 -0.015286866077086847
7.23196875 -1.003279342752648 -0.01693523750581616
7.2331171875 -1.0108587798815 -0.015098638321888513
7.234265625 -1.0102991888267217 -0.014111761639037546
7.2354140625 -1.0070561807434084 -0.017044163095569942
7.2365625 -1.0102718756677787 -0.016612296113901692
7.2377109375 -1.0110246363081663 -0.012145943826075478
7.238859375 -1.008570277750291 -0.015551755830913672
7.2400078125 -1.0099320928618398 -0.017022424770908484
7.24115625 -1.0142025722408028 -0.013455012621869822
7.2423046875 -1.014148264717127 -0.012766404124119335
7.243453125 -1.0049435745181192 -0.017292154986450647
7.2446015625 -1.0104795984374761 -0.014902016851461308
7.24575 -1.0114468532774632 -0.012442105587033736
7.2468984375 -1.0048882462477524 -0.015640837379184036
7.248046875 -1.0092925500265624 -0.014107558960299249
7.2491953125 -1.0114190995157557 -0.008897567976363152
7.25034375 -1.0065028608187334 -0.013474561731975476
7.2514921875 -1.0096109040680308 -0.015818464445051805
7.252640625 -1.0124655244458112 -0.013661212541711876
7.2537890625 -1.0128662623831624 -0.011640812260856892
7.2549375 -1.011100749971251 -0.01629479206819401
7.2560859375 -1.016994387804121 -0.015162954776748838
7.257234375 -1.0193224968946455 -0.012461389978920212
7.2583828125 -1.0107178841995847 -0.018191326926735918
7.25953125 -1.016678790039548 -0.014857782152957022
7.2606796875 -1.0167707974414464 -0.00986783421060522
7.261828125 -1.0130672925325632 -0.01381213521692648
7.2629765625 -1.0172835981488322 -0.015702421491957053
7.264125 -1.0181441433627578 -0.013565456620195815
7.2652734375 -1.0133797517994647 -0.012199548892843748
7.266421875 -1.0129368687657152 -0.014111731593792975
7.2675703125 -1.0174606253382206 -0.011529612925157251
7.26871875 -1.0191183565339077 -0.011335996833114814
7.2698671875 -1.0133056923869583 -0.014327021553291353
7.271015625 -1.018361887548159 -0.010897044303664616
7.2721640625 -1.017669087642412 -0.00784457680442141
7.2733125 -1.008868159836305 -0.011245014757164995
7.2744609375 -1.0155709781007436 -0.010439125232762081
7.275609375 -1.0177570430026235 -0.007450216481873662
7.2767578125 -1.0089545594848528 -0.009188639515983144
7.27790625 -1.0121201692930741 -0.010160910645612309
7.2790546875 -1.0140328159049798 -0.0047301897530896975
7.280203125 -1.0098455725231155 -0.0054384547610137335
7.2813515625 -1.0074640552303205 -0.010294140228610138
7.2825 -1.0109278554202845 -0.005722100303291455
7.2836484375 -1.012146872334731 -0.006282098628522859
7.284796875 -1.0023520004260273 -0.011008383228104324
7.2859453125 -1.0084712511263492 -0.008846792033040451
7.28709375 -1.0094574657650661 -0.006146090172574503
7.2882421875 -1.0018158469437006 -0.012617927275239416
7.289390625 -1.005769244650475 -0.012488564714593364
7.2905390625 -1.0055183931768388 -0.007910496967301645
7.2916875 -1.0021771243914948 -0.013921133011451536
7.2928359375 -1.004085240863638 -0.01738701708783741
7.293984375 -1.0063895130584253 -0.011474438894081174
7.2951328125 -1.0077050533298952 -0.010282431028216465
7.29628125 -1.0004750539820655 -0.016990307400856608
7.2974296875 -1.0073039560745378 -0.013961508187992383
7.298578125 -1.0075268209782535 -0.012139371765812923
7.2997265625 -0.9975166806713692 -0.01861935404261708
7.300875 -1.0042618347203063 -0.01640917786540516
7.3020234375 -1.006508974280331 -0.010646278409682075
7.303171875 -0.997658059737439 -0.018669807758045415
7.3043203125 -1.002624568562683 -0.021190769879021715
7.30546875 -1.0035884338753174 -0.01591145325577284
7.3066171875 -0.9992681982210958 -0.017970055412142333
7.307765625 -0.9987619150714535 -0.022416032385158324
7.3089140625 -1.0022107677152696 -0.019946108238703422
7.3100625 -1.0012650910636973 -0.019535582852355154
7.3112109375 -0.9971881714212157 -0.027684109355839162
7.312359375 -1.0043031084249812 -0.023265587097410903
7.3135078125 -1.0079141909307188 -0.02093140778882341
7.31465625 -0.9990190093522664 -0.02612072978716906
7.3158046875 -1.0085080481677313 -0.026426525485205958
7.316953125 -1.0114503630347689 -0.024188592062100098
7.3181015625 -1.0062754167508168 -0.02725560622265047
7.31925 -1.0100135481289043 -0.030183834262204653
7.3203984375 -1.0134433079923808 -0.023491827457734274
7.321546875 -1.0129053551965712 -0.028330324404297676
7.3226953125 -1.0095308713612767 -0.034442562410587844
7.32384375 -1.0149275581255932 -0.02993026913830458
7.3249921875 -1.0190816499388924 -0.027462529726234315
7.326140625 -1.011510388439797 -0.034130818976017094
7.3272890625 -1.020773104140479 -0.031540761873276035
7.3284375 -1.025110210775533 -0.028145094728694642
7.3295859375 -1.0183755226965825 -0.03137054596894054
7.330734375 -1.026167628443024 -0.03202799525761206
7.3318828125 -1.0299845201414528 -0.025493822588709646
7.33303125 -1.0266171569427618 -0.028027828407274264
7.3341796875 -1.027759240806146 -0.03323902128818867
7.335328125 -1.0322637415123448 -0.026584937276300402
7.3364765625 -1.0339643376443521 -0.023205249426573274
7.337625 -1.024743347458512 -0.027732383812351352
7.3387734375 -1.032138042901673 -0.02164176198844646
7.339921875 -1.0357926849726145 -0.017656401867527247
7.3410703125 -1.0254738276955253 -0.023136058317048395
7.34221875 -1.0358726337672541 -0.017732305063902342
7.3433671875 -1.0385437059230749 -0.0111357035253331
7.344515625 -1.030269639538402 -0.012425282252852152
7.3456640625 -1.033629364396957 -0.016157308562778375
7.3468125 -1.0349671525191484 -0.010686428421486982
7.3479609375 -1.0319573872493404 -0.012128598223514447
7.349109375 -1.0286237574032202 -0.016976369004550643
7.3502578125 -1.032601894633587 -0.009407386414147526
7.35140625 -1.0340485436970914 -0.008826346098249394
7.3525546875 -1.0238247976224768 -0.014909600360951444
7.353703125 -1.0304052456325674 -0.011311081638487985
7.3548515625 -1.0325833267315505 -0.0076860271354025345
7.356 -1.0184832431677708 -0.010691322259997846
7.3571484375 -1.026108727346361 -0.009714378010191788
7.358296875 -1.0264913015953088 -0.003583217689644702
7.3594453125 -1.0195033429093079 -0.009662127668853132
7.36059375 -1.0186814372294748 -0.015261892211757541
7.3617421875 -1.0218184636029362 -0.006186165276688554
7.362890625 -1.022182552874988 -0.008107145371242463
7.3640390625 -1.0178069007576371 -0.01679090111891221
7.3651875 -1.0234862435823033 -0.00986549993390573
7.3663359375 -1.0233563395010046 -0.008042370447497948
7.367484375 -1.012974155804079 -0.012689882493244986
7.3686328125 -1.0201425362791494 -0.007850105097003873
7.36978125 -1.022619545642114 -0.004682006413790268
7.3709296875 -1.0154915590005618 -0.008889585228222668
7.372078125 -1.0178008569789614 -0.010583796255499461
7.3732265625 -1.0191628505732044 -0.004112861378135851
7.374375 -1.014382938850574 -0.002848977971996819
7.3755234375 -1.0138591860608996 -0.010863507931330008
7.376671875 -1.0156826341154108 -0.0065339972795497026
7.3778203125 -1.0159424648804252 -0.0055046080961123345
7.37896875 -1.0083688355595903 -0.013497380539038595
7.3801171875 -1.014752885658389 -0.01015119512542606
7.381265625 -1.0158798759897798 -0.009551044778636608
7.3824140625 -1.005167999219278 -0.015566915106366264
7.3835625 -1.012275299467464 -0.01423148353693826
7.3847109375 -1.0159126763148065 -0.011617923208641634
7.385859375 -1.0086530719069842 -0.014929835296431826
7.3870078125 -1.0104428281906044 -0.02022374026239232
7.38815625 -1.0150681067979588 -0.01501126153908694
7.3893046875 -1.0128369008444573 -0.013705638907881235
7.390453125 -1.008397005811108 -0.021161775706760422
7.3916015625 -1.015839997726512 -0.014158305960109197
7.39275 -1.017615008468506 -0.010590714829245784
7.3938984375 -1.0076944956502496 -0.018470080547133116
7.395046875 -1.0159710218242857 -0.014192127111344155
7.3961953125 -1.0191393917144782 -0.008757665015076799
7.39734375 -1.0105863533440296 -0.012664282020214745
7.3984921875 -1.017321996258192 -0.013007198048296587
7.399640625 -1.0203674596207635 -0.010000157165927614
7.4007890625 -1.0185608626484286 -0.011594286310768698
7.4019375 -1.0172912125397362 -0.018140031812729274
7.4030859375 -1.0240208701441111 -0.011225895113240236
7.404234375 -1.0233753091106013 -0.01027230177563243
7.4053828125 -1.0157899159579653 -0.018976715515399423
7.40653125 -1.022827009717796 -0.012730543512956272
7.4076796875 -1.0250106113787296 -0.01148269731613405
7.408828125 -1.0165399960511285 -0.01807457484127062
7.4099765625 -1.0225329063184962 -0.013456224159959784
7.411125 -1.024564074112432 -0.010551057462494184
7.4122734375 -1.0198676537429536 -0.013119009477183363
7.413421875 -1.0241111092353126 -0.014530494486533485
7.4145703125 -1.0250197790643178 -0.011894542712132694
7.41571875 -1.0241045149242411 -0.005192241581145118
7.4168671875 -1.019841476845408 -0.01744721048134462
7.418015625 -1.026043255061849 -0.014118381127964263
7.4191640625 -1.0252067956506354 -0.010268528592304815
7.4203125 -1.016770841865865 -0.02302848310088229
7.4214609375 -1.0217346782163552 -0.013462804209352086
7.422609375 -1.0255600824725273 -0.011087403115070227
7.4237578125 -1.0159526027418142 -0.02046863243448621
7.42490625 -1.022894340707995 -0.019226039719410226
7.4260546875 -1.0266708385058019 -0.015561834587481727
7.427203125 -1.0200879758570216 -0.014672952328627475
7.4283515625 -1.0236436941721025 -0.02124378579257563
7.4295 -1.026173424609894 -0.016035130912266382
7.4306484375 -1.02808431098487 -0.012920127097400091
7.431796875 -1.020683425946319 -0.023877316482069255
7.4329453125 -1.0260562196497998 -0.015353384665747816
7.43409375 -1.0282094066266512 -0.01397181245433271
7.4352421875 -1.0140897615695021 -0.024424213647497306
7.436390625 -1.0248079637043386 -0.021059399291327274
7.4375390625 -1.0261522742500095 -0.014644549083825398
7.4386875 -1.0168864924443486 -0.013428164861925107
7.4398359375 -1.0234497900312451 -0.01425750533053266
7.440984375 -1.0274211440413235 -0.010267178433066015
7.4421328125 -1.026842088315087 -0.011642438053053594
7.44328125 -1.0213422459992156 -0.019253946076386808
7.4444296875 -1.0287638525080602 -0.012072465683994726
7.445578125 -1.0296003800297717 -0.010088137980242273
7.4467265625 -1.0188165849051622 -0.0214995506508584
7.447875 -1.0291519321062226 -0.0153347240465046
7.4490234375 -1.0322167032102427 -0.01146889717095545
7.450171875 -1.0212994515139358 -0.01912138582073364
7.4513203125 -1.027775492363804 -0.014742214328619385
7.45246875 -1.0309411620479245 -0.01055581343205747
7.4536171875 -1.024114682351851 -0.01340100820298401
7.454765625 -1.0256066457282058 -0.017839798524658057
7.4559140625 -1.030494848233797 -0.010397121505368923
7.4570625 -1.0326209002413762 -0.004605667098092514
7.4582109375 -1.0214196405336426 -0.01726059898264143
7.459359375 -1.028043564370439 -0.008761524865068038
7.4605078125 -1.0293156365421852 -0.005791516571450828
7.46165625 -1.0183870298305584 -0.013964337301029417
7.4628046875 -1.0262569090725304 -0.004322017720496174
7.463953125 -1.0294684018683151 -0.0002724412502413953
7.4651015625 -1.0197268757348683 -0.0061399823233248
7.46625 -1.0241540079431912 -0.005023214982292801
7.4673984375 -1.0274852286724665 -0.0017943629460804855
7.468546875 -1.0235324863501762 -0.00043712087198782834
7.4696953125 -1.0233696022071022 -0.006570469245412824
7.47084375 -1.0291567415992 0.0010359885688896453
7.4719921875 -1.0294244750560537 0.0042467646357818856
7.473140625 -1.0192205330646813 -0.005960319376733636
7.4742890625 -1.0269311193848194 0.004778678813931236
7.4754375 -1.0263149707280275 0.008296458454538858
7.4765859375 -1.0164443711695663 -0.0053916132226259905
7.477734375 -1.0240899660369127 -0.0012742485147970162
7.4788828125 -1.0263014494685418 0.004484720129096675
7.48003125 -1.0175114276659765 0.0009121654279213853
7.4811796875 -1.0220000041192627 0.0007802216976050547
7.482328125 -1.024537280427225 0.004395341098744621
7.4834765625 -1.0230050680158798 0.00350987720674506
7.484625 -1.020149555726738 -0.0009848720784536025
7.4857734375 -1.0234992627889263 0.003156682216441553
7.486921875 -1.0258396204832296 0.006651095070027702
7.4880703125 -1.011869602726414 -0.007029501647942249
7.48921875 -1.0228272382813572 -0.0016372128361774596
7.4903671875 -1.024446735680105 0.005181810012910237
7.491515625 -1.0148904011266193 -0.0017538809885437878
7.4926640625 -1.0198931753967786 0.0029364229994682245
7.4938125 -1.0217530258585161 0.00934343319414499
7.4949609375 -1.0134434706003628 0.005053464679463215
7.496109375 -1.0169120303248194 -0.00030637714616249534
7.4972578125 -1.0204588715171208 0.007154328080816341
7.49840625 -1.0192249296716558 0.013195226741595956
7.4995546875 -1.0086250847481115 7.317006692003636e-05
7.500703125 -1.0137945694583954 0.007035898711272803
7.5018515625 -1.0155202144022037 0.010839223096496653
7.503 -1.001802212761152 -0.0016835210003210421
7.5041484375 -1.011809642393356 0.004388776678249384
7.505296875 -1.012228862658441 0.00844630283528125
7.5064453125 -1.0061215950085474 0.004192663653098061
7.50759375 -1.0095741865939873 0.0014033375452302543
7.5087421875 -1.0126744538274688 0.008533310110791559
7.509890625 -1.0076597035475383 0.011205106416195654
7.5110390625 -0.9977883241213654 0.001922856117059002
7.5121875 -1.0031416185804654 0.0062355299253242236
7.5133359375 -1.0020512974095848 0.010045317969777257
7.514484375 -0.9878219339084379 -0.004664645576645865
7.5156328125 -0.995860113624045 0.005145146353870533
7.51678125 -0.9971693817249951 0.010225259565199152
7.5179296875 -0.9838736071472152 0.000596266875167506
7.519078125 -0.9896776432244405 0.001665100172108247
7.5202265625 -0.9929244697672323 0.004041926329663215
7.521375 -0.9880953154026684 -0.0010342883918172951
7.5225234375 -0.9869769079607483 -0.003817743173383792
7.523671875 -0.993690022127287 0.0007649065501383334
7.5248203125 -0.9905532053432018 0.0009663964444546758
7.52596875 -0.9813949565099337 -0.011271107317213813
7.5271171875 -0.9871281979580757 -0.006373008105890643
7.528265625 -0.9898211663168919 -0.00125059346302131
7.5294140625 -0.9762916908839276 -0.015214165697132076
7.5305625 -0.9888961119965292 -0.012315605225503012
7.5317109375 -0.9912473165736038 -0.011702652565808103
7.532859375 -0.9805505479013482 -0.019912604764128927
7.5340078125 -0.9876453749291236 -0.017538823540396875
7.53515625 -0.9925273603022269 -0.01433847124373705
7.5363046875 -0.9879294189478918 -0.014483608255058011
7.537453125 -0.9843447367606208 -0.021860792974309318
7.5386015625 -0.9869893162942762 -0.015925346579627075
7.53975 -0.9875594204287921 -0.01327486293912089
7.5408984375 -0.9755206379131771 -0.025422448757338012
7.542046875 -0.9849072934324615 -0.017239458714056133
7.5431953125 -0.9840547661438257 -0.018224317757865705
7.54434375 -0.9737818122336002 -0.02681106299855318
7.5454921875 -0.9799884390623805 -0.02619812663884591
7.546640625 -0.9871900326194445 -0.019006641798070656
7.5477890625 -0.9788397412213724 -0.026232112029695054
7.5489375 -0.9830812304159102 -0.03696795388882018
7.5500859375 -0.9878221430924545 -0.030380193969469615
7.551234375 -0.9889400555511703 -0.03236937516948507
7.5523828125 -0.9824962246766751 -0.04597793143839951
7.55353125 -0.9938337186395935 -0.04018670638933053
7.5546796875 -0.99992882683838 -0.039028942218878926
7.555828125 -0.9857890714925419 -0.05027032890969296
7.5569765625 -1.0012084792583629 -0.046906052763674044
7.558125 -1.006089344246857 -0.03871839922535858
7.5592734375 -0.9971891246841985 -0.05173236642802087
7.560421875 -1.0103949035909787 -0.05228813498754031
7.5615703125 -1.0161376700863898 -0.04561693949486095
7.56271875 -1.0146987100934193 -0.050130365932790466
7.5638671875 -1.0154297815764561 -0.053851569515254716
7.565015625 -1.0218708081802916 -0.049795180560429086
7.5661640625 -1.02743352073984 -0.04226097215197194
7.5673125 -1.0177221708896487 -0.05585628502739681
7.5684609375 -1.0305546764697429 -0.04594981367022444
7.569609375 -1.0337558849598283 -0.03808149498950003
7.5707578125 -1.0242087115829581 -0.04641350598909372
7.57190625 -1.0334375283938395 -0.04524653969177045
7.5730546875 -1.0399465701942439 -0.037566441695552455
7.574203125 -1.029007292955313 -0.03714551982712688
7.5753515625 -1.0234261845260768 -0.04536174940130239
7.5765 -1.0395882054613987 -0.035859306534532676
7.5776484375 -1.0418769913039156 -0.02959534610283343
7.578796875 -1.0413454280975916 -0.025113341286942148
7.5799453125 -1.0418541858793677 -0.02262679046817212
7.58109375 -1.0415495730259992 -0.019712329801904127
7.5822421875 -1.0281207463842827 -0.028492199663611162
7.583390625 -1.03562427858954 -0.027111439822137706
7.5845390625 -1.0351732733876362 -0.021993617756279005
7.5856875 -1.0294523048851427 -0.022383449201891337
7.5868359375 -1.028550959072905 -0.02737728641121534
7.587984375 -1.0309302844955175 -0.01984290403079808
7.5891328125 -1.0323663534318173 -0.01882932025082651
7.59028125 -1.0210797571490349 -0.033582266106131575
7.5914296875 -1.02990778052811 -0.021042961078164613
7.592578125 -1.0304651831223868 -0.016684631097074742
7.5937265625 -1.016255536524514 -0.022190632452874226
7.594875 -1.0267361645015423 -0.017915877797867408
7.5960234375 -1.0291984726863193 -0.012240808019267746
7.597171875 -1.0217999105100233 -0.02033906334339808
7.5983203125 -1.0244135676239305 -0.023934469256287616
7.59946875 -1.0274083902091091 -0.014613702050639277
7.6006171875 -1.0185462289227065 -0.022655446908430465
7.601765625 -1.023102893618598 -0.021486979805768414
7.6029140625 -1.0268025814310966 -0.01710308681678785
7.6040625 -1.020003687796403 -0.021610476463696182
7.6052109375 -1.0202783664382316 -0.025059315563000784
7.606359375 -1.0265048053872132 -0.019357593889694713
7.6075078125 -1.0258464855375187 -0.014362414346948404
7.60865625 -1.0186011170240086 -0.028805911280449625
7.6098046875 -1.0240840969889236 -0.019881403334193082
7.610953125 -1.0237405269179898 -0.016092999345415526
7.6121015625 -1.0095815697638362 -0.025409485916313534
7.61325 -1.0178064964118474 -0.01843620589810424
7.6143984375 -1.0218751337505427 -0.012429914564303868
7.615546875 -1.012797092324805 -0.021577009429431304
7.6166953125 -1.0163314768286726 -0.023500359949576666
7.61784375 -1.021993138961893 -0.017537911137685436
7.6189921875 -1.0160106796317778 -0.01645376013207034
7.620140625 -1.01562471495412 -0.0267502566860236
7.6212890625 -1.0216423602847762 -0.01802955965608788
7.6224375 -1.0222218330411188 -0.01759093195781103
7.6235859375 -1.0082943207049495 -0.029062632181537817
7.624734375 -1.0197581845355836 -0.020708175147584718
7.6258828125 -1.0239856493461552 -0.015458951091745554
7.62703125 -1.0089467461270567 -0.02049483386866835
7.6281796875 -1.0126142733287358 -0.02831781461830296
7.629328125 -1.0221585966032944 -0.020455412953320984
7.6304765625 -1.0257877613637358 -0.015004705174687105
7.631625 -1.0289686518570575 -0.013271762615205795
7.6327734375 -1.0340583450105654 -0.013838791819973939
7.633921875 -1.0321918491433142 -0.012855957964858278
7.6350703125 -1.0164643566642888 -0.02842885880037238
7.63621875 -1.0281688268626552 -0.020944481238944546
7.6373671875 -1.0292452608298868 -0.015290047760200154
7.638515625 -1.0224633763046733 -0.024324812562419362
7.6396640625 -1.029992370445596 -0.025255624918807507
7.6408125 -1.0315012223639608 -0.018399515466168026
7.6419609375 -1.029516604022241 -0.018207127047171534
7.643109375 -1.0221256239746725 -0.023958230522022173
7.6442578125 -1.0288351752219125 -0.01606234314934596
7.64540625 -1.0301420103454233 -0.012128749887601709
7.6465546875 -1.0179753899841293 -0.028853458819033007
7.647703125 -1.028246756152151 -0.01789136459722085
7.6488515625 -1.028022354986726 -0.01034973258190608
7.65 -1.0169663313391328 -0.022318050709180914
7.6511484375 -1.0240441918873966 -0.02156483425865008
7.652296875 -1.025430028972294 -0.014375896742171768
7.6534453125 -1.0208038006898463 -0.017775044576205268
7.65459375 -1.0218631562842653 -0.01994491016948996
7.6557421875 -1.0263988488495845 -0.012472763434406842
7.656890625 -1.0283276159601527 -0.011008754435435253
7.6580390625 -1.0172414845635207 -0.02569402891768846
7.6591875 -1.0258592198142624 -0.015747106278992895
7.6603359375 -1.0260442122809366 -0.011349591866677167
7.661484375 -1.0103577608662593 -0.02668407414333107
7.6626328125 -1.0205404730838057 -0.018659606338717327
7.66378125 -1.0233195042450052 -0.013390629560717682
7.6649296875 -1.01344336144172 -0.021610089929159804
7.666078125 -1.0193224843847282 -0.01976407037825645
7.6672265625 -1.0231514336713272 -0.010695455391572906
7.668375 -1.0192987435017256 -0.01372973128869781
7.6695234375 -1.0186018723667967 -0.024109068190006577
7.670671875 -1.0243929646449825 -0.01674445311066375
7.6718203125 -1.0253494820902265 -0.013917956301192524
7.67296875 -1.0151921265300974 -0.02583457158568525
7.6741171875 -1.025477338818833 -0.019050735577851863
7.675265625 -1.0289667136494478 -0.013053167101728325
7.6764140625 -1.0143470598885906 -0.024029136524108263
7.6775625 -1.0229874742882197 -0.0186947269691638
7.6787109375 -1.0232025345033215 -0.01019201601658637
7.679859375 -1.0139270564779055 -0.015903187301518018
7.6810078125 -1.0205262826996182 -0.022475955280041926
7.68215625 -1.0231044330813381 -0.012021276828073801
7.6833046875 -1.0217465669014625 -0.01299528094681146
7.684453125 -1.0125223337194713 -0.021073555629149254
7.6856015625 -1.018626868162209 -0.012237054281262427
7.68675 -1.0198419409295862 -0.009162300858811478
7.6878984375 -1.0081327734319288 -0.026041413474296615
7.689046875 -1.0191877855837457 -0.01727731579429631
7.6901953125 -1.0166812690135432 -0.011208339822797286
7.69134375 -1.005029314909476 -0.022352757027686354
7.6924921875 -1.014632562166707 -0.01994852811685044
7.693640625 -1.021231053998318 -0.013639129006692396
7.6947890625 -1.011303497022793 -0.018495247586127084
7.6959375 -1.0126872830546856 -0.02166752812132461
7.6970859375 -1.0188782944690415 -0.014055315617945763
7.698234375 -1.0201521953494501 -0.009745108448409534
7.6993828125 -1.0083015037397693 -0.024311275064322457
7.70053125 -1.0175776400195893 -0.013385356409549187
7.7016796875 -1.0195018783505703 -0.007259116873809701
7.702828125 -1.0089928778235813 -0.01745482290548439
7.7039765625 -1.0218071871452572 -0.016999527391237224
7.705125 -1.0233737409822343 -0.009925469216487015
7.7062734375 -1.0169241584020212 -0.017592601500666216
7.707421875 -1.0200358836482029 -0.02221508352026591
7.7085703125 -1.0229031985780361 -0.01262076466556633
7.70971875 -1.0216865733161202 -0.0126893245457389
7.7108671875 -1.0149310288904558 -0.02605437305532038
7.712015625 -1.020783593440037 -0.015779632776669716
7.7131640625 -1.0241040019390764 -0.01249010541629908
7.7143125 -1.0111981195140123 -0.02427274094580678
7.7154609375 -1.0216974314097604 -0.014601576952081363
7.716609375 -1.0257206284584475 -0.009367830874842664
7.7177578125 -1.013508109072358 -0.020085924169041425
7.71890625 -1.021629998479263 -0.017626270656340537
7.7200546875 -1.0243912639627695 -0.010855115588978226
7.721203125 -1.0156802171425523 -0.016055219693169365
7.7223515625 -1.0173294068911847 -0.02166316969151444
7.7235 -1.0210680169968303 -0.01435176940021432
7.7246484375 -1.024767029355577 -0.010886638887508182
7.725796875 -1.0128447285349682 -0.025301792755427543
7.7269453125 -1.0216308916350982 -0.01853583224381322
7.72809375 -1.0220025474622536 -0.015599059143786675
7.7292421875 -1.0067923628094688 -0.027464812686185835
7.730390625 -1.0206281504683994 -0.020314162060444174
7.7315390625 -1.0211014725396494 -0.015265446803525262
7.7326875 -1.0110052519297583 -0.022812757886929824
7.7338359375 -1.0161502674993907 -0.024334227033282807
7.734984375 -1.0191380159559014 -0.016131445803823252
7.7361328125 -1.0143054702939576 -0.019661254656889282
7.73728125 -1.0153750606410996 -0.025905869480492116
7.7384296875 -1.019434304455387 -0.017434227317570827
7.739578125 -1.02206760088038 -0.014260223387168702
7.7407265625 -1.00751480940885 -0.03222965482119622
7.741875 -1.0187273725729673 -0.02119843485134909
7.7430234375 -1.0200893267933635 -0.015398712660959712
7.744171875 -1.0083961122583203 -0.02337873522461631
7.7453203125 -1.018436579024251 -0.020416225003854316
7.74646875 -1.021459427672458 -0.013981096394007242
7.7476171875 -1.0118599333396272 -0.019595434197501205
7.748765625 -1.0142937853493443 -0.025275572504157795
7.7499140625 -1.0189731684793943 -0.01370254345494415
7.7510625 -1.0214593288325553 -0.01282299902579509
7.7522109375 -0.9955635530587746 -0.03134728143590271
7.753359375 -1.015228824326147 -0.024819860287674134
7.7545078125 -1.0213382383921865 -0.018466257830804467
7.75565625 -1.02177509880968 -0.014176617175184147
7.7568046875 -1.0236634630895283 -0.012673325393330215
7.757953125 -1.023105093072557 -0.013417826858832305
7.7591015625 -1.0146629899325983 -0.01943969069820295
7.76025 -1.0124798762307372 -0.027718388193336607
7.7613984375 -1.018600120604342 -0.018534437705832407
7.762546875 -1.0210513514550734 -0.01621035473855592
7.7636953125 -1.0085603298473385 -0.029637447209361012
7.76484375 -1.020241053722735 -0.019949576248648904
7.7659921875 -1.022284009312457 -0.017558778983164602
7.767140625 -1.007875908837137 -0.03179325203285488
7.7682890625 -1.0191489605444615 -0.022771019735297493
7.7694375 -1.0222687707610452 -0.01775254537559845
7.7705859375 -1.0139886036782106 -0.024220565551530515
7.771734375 -1.018166955225991 -0.027202216131461232
7.7728828125 -1.0223597703117273 -0.018404125472175736
7.77403125 -1.017322907351974 -0.016456586813300533
7.7751796875 -1.013475262525103 -0.030889514154721187
7.776328125 -1.019439844431099 -0.01985142428111797
7.7774765625 -1.0241937629555413 -0.017716976415561247
7.778625 -1.0065397922324404 -0.034499322288986556
7.7797734375 -1.0193520690710527 -0.022463679084351207
7.780921875 -1.0236213926496602 -0.01871260139262787
7.7820703125 -1.012308688614807 -0.028907286521697162
7.78321875 -1.018926023323348 -0.025631291266619116
7.7843671875 -1.0225572580635789 -0.019712001758251718
7.785515625 -1.0170201421796454 -0.01879712992932081
7.7866640625 -1.0170696370944166 -0.026890988894144097
7.7878125 -1.023694262147174 -0.019466416410703458
7.7889609375 -1.0252257856601417 -0.016915433843873506
7.790109375 -1.0143881053445827 -0.031173408861161378
7.7912578125 -1.0220212784410125 -0.020816029803837455
7.79240625 -1.026435128564441 -0.014524986747460389
7.7935546875 -1.0119195803605214 -0.029124041335267803
7.794703125 -1.0222912454265298 -0.020634207058029874
7.7958515625 -1.0288038449583068 -0.016021276629153647
7.797 -1.0161811717480513 -0.024493255287095783
7.7981484375 -1.02166356979534 -0.02418985309488031
7.799296875 -1.02608440883415 -0.0161535286951765
7.8004453125 -1.0226803950457983 -0.01700939512529276
7.80159375 -1.0186170617784216 -0.028672935615621342
7.8027421875 -1.024867758515561 -0.01934901248588694
7.803890625 -1.0269424486794292 -0.01331792321689873
7.8050390625 -1.0150249491822239 -0.030926624113542744
7.8061875 -1.0259721971015072 -0.020322811016382558
7.8073359375 -1.028576875891552 -0.014683697751251001
7.808484375 -1.015934626839232 -0.027636069293693444
7.8096328125 -1.0228110455051633 -0.019625950229363087
7.81078125 -1.0274607599631613 -0.01627656878532968
7.8119296875 -1.0166268952970277 -0.02098953726297559
7.813078125 -1.0203401858121504 -0.023985183909953633
7.8142265625 -1.023837256727654 -0.016731818108202567
7.815375 -1.0260859230057267 -0.011046892041833178
7.8165234375 -1.0157960515261852 -0.027849364677758892
7.817671875 -1.023289802210442 -0.01754805808850146
7.8188203125 -1.0239516831013646 -0.015814250495548188
7.81996875 -1.0097283777306107 -0.029405804689283777
7.8211171875 -1.0208921395870354 -0.01936923246159894
7.822265625 -1.0251064347731602 -0.015529131628602366
7.8234140625 -1.0131289049034704 -0.02592887361598284
7.8245625 -1.0208178449896677 -0.022761877950080334
7.8257109375 -1.0239469248652249 -0.01630529194560637
7.826859375 -1.0189955600924003 -0.015931821556289916
7.8280078125 -1.0167196408810875 -0.024689770402282263
7.82915625 -1.0226758143444306 -0.01818172208919644
7.8303046875 -1.0252447291344995 -0.013213130528857309
7.831453125 -1.0098070711049323 -0.030015107627891502
7.8326015625 -1.02009887237884 -0.018998946355709645
7.83375 -1.0237569714999033 -0.01332144939752189
7.8348984375 -1.0091328697332707 -0.028607413368060386
7.836046875 -1.0185761621144587 -0.02342123900046733
7.8371953125 -1.0231733664670937 -0.01690726967869982
7.83834375 -1.0164278822720187 -0.021984811788049785
7.8394921875 -1.0188635886306447 -0.023108137755216696
7.840640625 -1.0239751893412137 -0.018173635122764153
7.8417890625 -1.0245520507469181 -0.015036529302649315
7.8429375 -1.0155396842303737 -0.02747488172904
7.8440859375 -1.0222394841181837 -0.017324475143617346
7.845234375 -1.0255045258404687 -0.011242880873565064
7.8463828125 -1.0102413316573047 -0.030872512583980383
7.84753125 -1.0229160596281561 -0.020106848694413704
7.8486796875 -1.0275534397820172 -0.013542233335155807
7.849828125 -1.0154823891879055 -0.0254550333414727
7.8509765625 -1.0219740770405095 -0.0216916106684375
7.852125 -1.025015049214677 -0.014171273384526506
7.8532734375 -1.0174781511052378 -0.01935356480187922
7.854421875 -1.0167643392017034 -0.025516539171299035
7.8555703125 -1.0219886676228822 -0.016120109252040438
7.85671875 -1.0242410590209219 -0.012628667483868261
7.8578671875 -1.0148217019744628 -0.02861754195877353
7.859015625 -1.0250146721628113 -0.018663532929265148
7.8601640625 -1.0275840233449796 -0.013873286175610455
7.8613125 -1.0123507990297227 -0.02965722333645171
7.8624609375 -1.0212248204306977 -0.021651439296938746
7.863609375 -1.024400243028712 -0.017005456259746088
7.8647578125 -1.0138364529769528 -0.02435379504418328
7.86590625 -1.0192338716751395 -0.025720979837012714
7.8670546875 -1.0216114944868817 -0.0192594307639693
7.868203125 -1.021832267451043 -0.019847358939415194
7.8693515625 -1.0154962550315556 -0.030416565154403274
7.8705 -1.0236257364328594 -0.020437712433121258
7.8716484375 -1.0252631669369567 -0.016157706915497838
7.872796875 -1.0092749802288297 -0.0326324925216912
7.8739453125 -1.0221232492328522 -0.022345098083913384
7.87509375 -1.0251317338781043 -0.0155273372049623
7.8762421875 -1.0118695254823409 -0.028841287553349026
7.877390625 -1.02036971699476 -0.02516662657679214
7.8785390625 -1.02273379812996 -0.019590918700734594
7.8796875 -1.0171826327997628 -0.022262232321940578
7.8808359375 -1.0165984308658498 -0.02727449612012156
7.881984375 -1.022415589023439 -0.017982911579963623
7.8831328125 -1.023868520876151 -0.016246091405298313
7.88428125 -1.0119098185797886 -0.031373657472488825
7.8854296875 -1.0210339603556644 -0.020791519167985273
7.886578125 -1.0243587128092178 -0.01509586833444293
7.8877265625 -1.0097791494677268 -0.030421971968520034
7.888875 -1.0212395422522746 -0.023148997074651567
7.8900234375 -1.0241302311572587 -0.019474424669292167
7.891171875 -1.0136803095474307 -0.027768311938475843
7.8923203125 -1.0186373977577872 -0.026696787780771225
7.89346875 -1.0240768550082555 -0.018521716779720032
7.8946171875 -1.0211339710194036 -0.01988731272321942
7.895765625 -1.0171959341265828 -0.031568734956447186
7.8969140625 -1.022833674510604 -0.021629157089580686
7.8980625 -1.0259511665660042 -0.018606478626075895
7.8992109375 -1.0104817435888036 -0.036002206889818256
7.900359375 -1.0215152666429717 -0.0240642220490348
7.9015078125 -1.0253228730221497 -0.018818842623028798
7.90265625 -1.0119038368429552 -0.03063197458288547
7.9038046875 -1.0225421802664085 -0.025060946783245996
7.904953125 -1.0260126808263188 -0.019310929915231756
7.9061015625 -1.018603833472816 -0.024174488479659195
7.90725 -1.0198231098183208 -0.029074672361936615
7.9083984375 -1.0251082451784317 -0.020400525873998876
7.909546875 -1.0252396359271367 -0.01959015211999071
7.9106953125 -1.0156631483756475 -0.031915041923481824
7.91184375 -1.0237019349230054 -0.02362703073210093
7.9129921875 -1.025699085519753 -0.020302229271191075
7.914140625 -1.0112925766071392 -0.03460163836760033
7.9152890625 -1.0241127877514389 -0.02463693314289206
7.9164375 -1.027050059148034 -0.01598798754554509
7.9175859375 -1.0152433290293292 -0.028190725969458486
7.918734375 -1.0228405462889523 -0.0271314006623401
7.9198828125 -1.0256951303283735 -0.018136125819818716
7.92103125 -1.021651416644857 -0.01916657208760464
7.9221796875 -1.020813400382198 -0.02694204699475955
7.923328125 -1.0261280894474172 -0.018853735849406972
7.9244765625 -1.0265474778976478 -0.016352237420573124
7.925625 -1.0153685571854483 -0.031078813679319306
7.9267734375 -1.0265000328993963 -0.019656731911553815
7.927921875 -1.0281550690455745 -0.014297299157232102
7.9290703125 -1.014506616484096 -0.02865625686429929
7.93021875 -1.02431970660199 -0.02258845632042017
7.9313671875 -1.0268252388840973 -0.016342607691953615
7.932515625 -1.0175755349510167 -0.023893635643360445
7.9336640625 -1.0201121975819025 -0.025217889358861156
7.9348125 -1.0267585840257298 -0.014043927436877324
7.9359609375 -1.0293638979826736 -0.012797531583862432
7.937109375 -1.0198778171722247 -0.02703809703738802
7.9382578125 -1.0272174284444509 -0.017204376443551106
7.93940625 -1.028615026024403 -0.013857989846677632
7.9405546875 -1.0131535756086392 -0.027952689371522732
7.941703125 -1.0244811764818516 -0.01969676541927945
7.9428515625 -1.0283061941421825 -0.014062322709192832
7.944 -1.0157317586336552 -0.02502305215797951
7.9451484375 -1.021303840906056 -0.02276402818006229
7.946296875 -1.025976739960948 -0.014940555937924427
7.9474453125 -1.0184592612546886 -0.019508354488379176
7.94859375 -1.0193917861553305 -0.02542753792028052
7.9497421875 -1.0240454489418511 -0.017777145454986765
7.950890625 -1.0265688699638185 -0.015023328884872234
7.9520390625 -1.0151117227159596 -0.028520161848643144
7.9531875 -1.023250674969211 -0.018291069484068
7.9543359375 -1.0257158011038916 -0.013310027085441156
7.955484375 -1.0116831063973268 -0.028262027320094307
7.9566328125 -1.0226989938090965 -0.02168832657223907
7.95778125 -1.0252583671040894 -0.014345155107716612
7.9589296875 -1.0150008546494673 -0.023312217421573078
7.960078125 -1.0203470474260703 -0.023262591104648123
7.9612265625 -1.0227437615334043 -0.016083993347121628
7.962375 -1.020445092600969 -0.01640765785579923
7.9635234375 -1.017258468157704 -0.025760358647309967
7.964671875 -1.0230079479221263 -0.016315722554920642
7.9658203125 -1.025246074857617 -0.014263259287520591
7.96696875 -1.0090497530561635 -0.030641899163764363
7.9681171875 -1.0225283677270727 -0.019137414520117635
7.969265625 -1.0244343484180802 -0.014193361223503453
7.9704140625 -1.011245235348673 -0.025613762553530317
7.9715625 -1.0197307046634414 -0.02238669470461463
7.9727109375 -1.0228514911850382 -0.016282362731528277
7.973859375 -1.014844552702436 -0.021466688121035582
7.9750078125 -1.0176865155338957 -0.02403806333901848
7.97615625 -1.0235417967410927 -0.01481114460424926
7.9773046875 -1.0261769157579705 -0.013850999110111895
7.978453125 -1.015704370827749 -0.03005494959236077
7.9796015625 -1.0232968511907328 -0.01970626569326145
7.98075 -1.0268866042668299 -0.014201893762485818
7.9818984375 -1.0108590876084387 -0.029723510067334646
7.983046875 -1.0209750949799072 -0.021974812982682723
7.9841953125 -1.024507890979431 -0.01698473769617742
7.98534375 -1.0126205344401709 -0.027676992562579328
7.9864921875 -1.020511308039624 -0.02605631701089256
7.987640625 -1.0256185664865374 -0.01742693820034369
7.9887890625 -1.0208870738574087 -0.020101520966070263
7.9899375 -1.0174860017738527 -0.028360246378772602
7.9910859375 -1.0234325185943858 -0.019514961783311302
7.992234375 -1.0254832847239204 -0.016070925627248545
7.9933828125 -1.0116607451219017 -0.03182647590552645
7.99453125 -1.0224072472585921 -0.020912080322866067
7.9956796875 -1.0239958332307477 -0.01667051974037731
7.996828125 -1.0115202643413526 -0.02822187265736953
7.9979765625 -1.0214265373002502 -0.023356320166105227
7.999125 -1.0252794345970837 -0.01671185033327427
8.0002734375 -1.0178923482588085 -0.022520283493884963
8.001421875 -1.0193899383476075 -0.02785340631352129
8.0025703125 -1.0241611986469517 -0.021013371034205253
8.00371875 -1.025470616800328 -0.01747922677953062
8.0048671875 -1.01567057639547 -0.030802186059388392
8.006015625 -1.0234045689161544 -0.021017258767167812
8.0071640625 -1.0257131333035046 -0.0179538598819996
8.0083125 -1.0099507945864439 -0.03372971263310742
8.0094609375 -1.0220920862816973 -0.024244615166118366
8.010609375 -1.027107420087604 -0.019924384178641785
8.0117578125 -1.0146957126739176 -0.028538191411024316
8.01290625 -1.0212154167389005 -0.02711357516237395
8.0140546875 -1.0245448487584876 -0.01929196181713394
8.015203125 -1.0179244966593937 -0.023051620224369462
8.0163515625 -1.0190796114770033 -0.02849235810339079
8.0175 -1.0232779927052542 -0.020040116027902788
8.0186484375 -1.0268098491620323 -0.01722834139498286
8.019796875 -1.0148458835682475 -0.033343103003467156
8.0209453125 -1.0231376683465174 -0.02250004616140938
8.02209375 -1.0260047916209367 -0.018360857566780797
8.0232421875 -1.01262683715162 -0.031744843810930234
8.024390625 -1.0210222660329749 -0.02557842579447195
8.0255390625 -1.0245484070794615 -0.021106158415033438
8.0266875 -1.0149613257440853 -0.02903846757278228
8.0278359375 -1.019849006321986 -0.028704625560675046
8.028984375 -1.0233840213521699 -0.02081860238364136
8.0301328125 -1.0257805830271858 -0.01832092517004863
8.03128125 -1.0149654259127128 -0.034193180585302574
8.0324296875 -1.0231367084308103 -0.024126020395148995
8.033578125 -1.0260341093745264 -0.02106391454209211
8.0347265625 -1.0108467524924472 -0.0374657204714558
8.035875 -1.0236091771289964 -0.026554342059109393
8.0370234375 -1.026682242874112 -0.021798949959935532
8.038171875 -1.015386979306502 -0.03309336984710942
8.0393203125 -1.0220741021290627 -0.0299996946247984
8.04046875 -1.0256775836300664 -0.022799304963860234
8.0416171875 -1.0215155626953534 -0.024324353753812256
8.042765625 -1.020430837753895 -0.03329996480557562
8.0439140625 -1.0264056315910854 -0.023952728060082085
8.0450625 -1.029839677345337 -0.02160219503828964
8.0462109375 -1.017949927888807 -0.036028412165410695
8.047359375 -1.0265429100612729 -0.025405180098510782
8.0485078125 -1.0293297701806632 -0.020770550324622827
8.04965625 -1.014983397241009 -0.03515287245931098
8.0508046875 -1.026621251907269 -0.026551758801234004
8.051953125 -1.0299420176578762 -0.02079444345161474
8.0531015625 -1.0209759059527053 -0.027107963528257784
8.05425 -1.0240728968722634 -0.02769599077452195
8.0553984375 -1.0287177450215124 -0.02023019642850965
8.056546875 -1.0274138437384566 -0.018879193379019388
8.0576953125 -1.0206685870075696 -0.029347757973120003
8.05884375 -1.0270874532054277 -0.018838590532065935
8.0599921875 -1.0288824859302945 -0.01568289109077231
8.061140625 -1.0131582738649394 -0.031933258809222376
8.0622890625 -1.0244999266270336 -0.021646896037900987
8.0634375 -1.0277092427152392 -0.017132233994514467
8.0645859375 -1.017251200501668 -0.026868085428508492
8.065734375 -1.023669287398422 -0.024172543747495445
8.0668828125 -1.0279633835690576 -0.017664357218633964
8.06803125 -1.0204077151947997 -0.021360939986370564
8.0691796875 -1.0220155478492485 -0.025246310353207346
8.070328125 -1.0268728392019413 -0.017516506175800972
8.0714765625 -1.0283048129075296 -0.013111683201761037
8.072625 -1.016893355303844 -0.027158738037518393
8.0737734375 -1.0236365740944138 -0.01759403256060965
8.074921875 -1.0256503777650643 -0.014222979097593291
8.0760703125 -1.011632333747935 -0.02940913852219129
8.07721875 -1.0214322655526626 -0.020056132208317756
8.0783671875 -1.0249190377515545 -0.015934055800591984
8.079515625 -1.01540739202375 -0.02361179439477945
8.0806640625 -1.019723700041598 -0.02451733315732557
8.0818125 -1.0235206332452491 -0.017107122104772166
8.0829609375 -1.0209369772814352 -0.017041340761523305
8.084109375 -1.0174163357903878 -0.027049892014120558
8.0852578125 -1.0229549556487894 -0.017165127341007058
8.08640625 -1.0254805874258963 -0.015482050124958957
8.0875546875 -1.0099061855409266 -0.03219336532878175
8.088703125 -1.0210557366781599 -0.022084246102870964
8.0898515625 -1.023430353397158 -0.017189637323226148
8.091 -1.0114412300906435 -0.028761393142477276
8.0921484375 -1.0195770406944267 -0.023574855069969092
8.093296875 -1.0222634326726792 -0.017809449092034135
8.0944453125 -1.0166336534484537 -0.022078883207589606
8.09559375 -1.0167342245311781 -0.026583592930497224
8.0967421875 -1.0209860062281033 -0.019118040909599565
8.097890625 -1.0221422972119398 -0.01915330410181465
8.0990390625 -1.015394631004563 -0.030454767269705918
8.1001875 -1.0209716616219293 -0.021867105189240843
8.1013359375 -1.0227667935058147 -0.019371261042662513
8.102484375 -1.0086434700005908 -0.03425922511425472
8.1036328125 -1.020190460094339 -0.024994076612779192
8.10478125 -1.0224859906978838 -0.019729055261230755
8.1059296875 -1.012765662224002 -0.029238601974564016
8.107078125 -1.0186678264655669 -0.026771908558402946
8.1082265625 -1.0211731803897635 -0.021638060961459538
8.109375 -1.018523353707831 -0.0235603965602999
8.1105234375 -1.014860163125937 -0.03293121664976062
8.111671875 -1.0211461992902948 -0.024013153315102176
8.1128203125 -1.0238216654061087 -0.02138122420586802
8.11396875 -1.0106960273261492 -0.03781868647942671
8.1151171875 -1.021457848210696 -0.026736545546533708
8.116265625 -1.024496890740461 -0.022731827500211688
8.1174140625 -1.0119476820605364 -0.03525270293792726
8.1185625 -1.0207992481524295 -0.02889106536657643
8.1197109375 -1.0243266788028202 -0.023555962874533765
8.120859375 -1.0175671331640843 -0.02928918055237867
8.1220078125 -1.019408648726003 -0.03204729315846527
8.12315625 -1.0244657886400352 -0.025265955578268995
8.1243046875 -1.026265707224724 -0.02212392532508578
8.125453125 -1.0166690321085985 -0.03547178304965967
8.1266015625 -1.0240270887667253 -0.0267664530715149
8.12775 -1.0257207847225596 -0.023013506817798485
8.1288984375 -1.0120440702820281 -0.037428542823983585
8.130046875 -1.0236398200573202 -0.027436463686715373
8.1311953125 -1.0264991051630146 -0.023137918090159026
8.13234375 -1.016279900695464 -0.03231304158382434
8.1334921875 -1.0223171367304997 -0.031708023995470486
8.134640625 -1.0262824687545973 -0.024920616153060265
8.1357890625 -1.02110118516848 -0.027423763718528366
8.1369375 -1.0218701766567773 -0.03226753881681996
8.1380859375 -1.0273411244962238 -0.024658413175413035
8.139234375 -1.0291494841499462 -0.02182634655338861
8.1403828125 -1.01673804558407 -0.036745768418958186
8.14153125 -1.0264100686997135 -0.025776750889750427
8.1426796875 -1.0288708174437722 -0.021645836874523178
8.143828125 -1.0156414110579952 -0.033608152481472336
8.1449765625 -1.0250222574196788 -0.02711150227252035
8.146125 -1.0277350141422792 -0.021471232134692098
8.1472734375 -1.0191159534207619 -0.029164115717801975
8.148421875 -1.0233750271374187 -0.029454832523973073
8.1495703125 -1.0271630727133523 -0.023141426423478745
8.15071875 -1.0265034838826832 -0.022293804971621062
8.1518671875 -1.020423647214876 -0.03342438439865675
8.153015625 -1.0269193260567695 -0.024336702042586617
8.1541640625 -1.0289977250420845 -0.021947857491544542
8.1553125 -1.015566959125004 -0.03599815108364282
8.1564609375 -1.0258885997465752 -0.025259880132905893
8.157609375 -1.0287536457803763 -0.021626839465119924
8.1587578125 -1.0167657205625147 -0.030877049907321957
8.15990625 -1.0246872640223785 -0.027291538251412423
8.1610546875 -1.0280392965665188 -0.0218758732728489
8.162203125 -1.022309217329579 -0.02661768023943048
8.1633515625 -1.0230215648695538 -0.030459198971167778
8.1645 -1.0279943690569753 -0.02183030778014139
8.1656484375 -1.0300346230335014 -0.019893994827242273
8.166796875 -1.0196945227274792 -0.03235494625811283
8.1679453125 -1.0268103947036378 -0.02329523915280729
8.16909375 -1.0283440587274404 -0.019641020911850604
8.1702421875 -1.0165485720797185 -0.03124290669192875
8.171390625 -1.025873671613123 -0.024129250257395318
8.1725390625 -1.0284091804189597 -0.019990797933899712
8.1736875 -1.018577149372775 -0.026846891121756394
8.1748359375 -1.0233900383933459 -0.02608715396031014
8.175984375 -1.0268185702711619 -0.02002160868099445
8.1771328125 -1.0232166715156659 -0.021188860567941337
8.17828125 -1.020496646246388 -0.02848932349161759
8.1794296875 -1.0252827938150053 -0.021415617091901734
8.180578125 -1.0277703880585976 -0.01887879662000458
8.1817265625 -1.0142026090175338 -0.03407321024075691
8.182875 -1.0244068913765614 -0.024627110126847984
8.1840234375 -1.0275943541101937 -0.01998507849142933
8.185171875 -1.0156000694806182 -0.031431400662846665
8.1863203125 -1.0234638843327004 -0.025714384135492485
8.18746875 -1.0260925368720242 -0.021272263501469074
8.1886171875 -1.0202778617734183 -0.025852669487309576
8.189765625 -1.0218819718552332 -0.028750573696481485
8.1909140625 -1.0261094788896874 -0.021553378259459244
8.1920625 -1.0276703054181544 -0.019719930821940124
8.1932109375 -1.0180881801611184 -0.0319113042105299
8.194359375 -1.0248276252575614 -0.022734083425844487
8.1955078125 -1.0269736079766396 -0.020033873514239187
8.19665625 -1.0146681339229304 -0.033059606408011755
8.1978046875 -1.0243960420361606 -0.02524974070109054
8.198953125 -1.0268552664444532 -0.021111620019844846
8.2001015625 -1.01781021914551 -0.02837344524246732
8.20125 -1.0227708662814177 -0.027671138935733253
8.2023984375 -1.0267259443585783 -0.02161327295438009
8.203546875 -1.021139499028619 -0.02505250415917948
8.2046953125 -1.0212951521807458 -0.029529594853390517
8.20584375 -1.0263466844716083 -0.022030653867354144
8.2069921875 -1.0273703477662257 -0.019988275458768467
8.208140625 -1.0164913824682773 -0.03337719672237821
8.2092890625 -1.0253857760611973 -0.023659681234647068
8.2104375 -1.0276502361436648 -0.02024242546951449
8.2115859375 -1.0160300069915003 -0.031190289922034375
8.212734375 -1.0243519087390411 -0.02557932463089324
8.2138828125 -1.0281116328287558 -0.020489811910470834
8.21503125 -1.0194763196017274 -0.027262618386122206
8.2161796875 -1.0227452929483547 -0.027475821531614236
8.217328125 -1.0263386936689238 -0.02119365060319367
8.2184765625 -1.026454337919159 -0.020064196140528318
8.219625 -1.0196994126009813 -0.030829645180497633
8.2207734375 -1.025566978335653 -0.022290519448679547
8.221921875 -1.0277882374813205 -0.01938496838668513
8.2230703125 -1.0147935867866424 -0.03229305947081579
8.22421875 -1.0244724328409007 -0.023705645325905605
8.2253671875 -1.0267127508939642 -0.02050184882388653
8.226515625 -1.0163858871607445 -0.028704092137391862
8.2276640625 -1.0226966937257131 -0.02621908100195597
8.2288125 -1.026192537146985 -0.021189662101633533
8.2299609375 -1.0212572157350344 -0.02446774557427428
8.231109375 -1.0210637847193138 -0.029234643118716208
8.2322578125 -1.0253559133088224 -0.022381284189379264
8.23340625 -1.027227145256291 -0.020206910792713445
8.2345546875 -1.0172295357440788 -0.03176375118151831
8.235703125 -1.0247226685342916 -0.023560670458540017
8.2368515625 -1.0275150214803919 -0.02052755500988765
8.238 -1.0145206904373356 -0.03248657722173742
8.2391484375 -1.0241729839870672 -0.024864784905577197
8.240296875 -1.0263879483982776 -0.021650857474118435
8.2414453125 -1.0180008957099773 -0.027764549468740324
8.24259375 -1.022455228103393 -0.027202483143330763
8.2437421875 -1.0262674230008006 -0.022451314944997747
8.244890625 -1.0237474540348381 -0.021652402123475523
8.2460390625 -1.0194300959816913 -0.02978287655737541
8.2471875 -1.0245398351534836 -0.022668207908302318
8.2483359375 -1.0266010669894918 -0.020292947115242377
8.249484375 -1.014139119320062 -0.033769852049512716
8.2506328125 -1.0241242100734889 -0.024508128119804448
8.25178125 -1.026276047555252 -0.020637428321140433
8.2529296875 -1.015698880822829 -0.030665924100222897
8.254078125 -1.0221344382762259 -0.02623763631991656
8.2552265625 -1.025631908310521 -0.02163969941297475
8.256375 -1.0191574670182262 -0.02583417117366127
8.2575234375 -1.0204491732723375 -0.029003849187332786
8.258671875 -1.0251090424234646 -0.022669640122982337
8.2598203125 -1.0268083458784987 -0.02050977503029723
8.26096875 -1.01855298881354 -0.031167096633607748
8.2621171875 -1.0246284894624154 -0.023481643739546816
8.263265625 -1.0271361325597403 -0.021041692501281836
8.2644140625 -1.014493394877411 -0.032784805967822434
8.2655625 -1.023658097166844 -0.02551846773220018
8.2667109375 -1.0265487604982566 -0.021651972437681438
8.267859375 -1.0184422571731409 -0.02830505438595443
8.2690078125 -1.0226886754907754 -0.027365009459470124
8.27015625 -1.0255339461842263 -0.022140746122466498
8.2713046875 -1.020921525229167 -0.024424467749634134
8.272453125 -1.0203079847454597 -0.029282300902432022
8.2736015625 -1.0252371034630743 -0.02289059994877604
8.27475 -1.026920288490717 -0.02085438595564046
8.2758984375 -1.015533037079851 -0.03341203565313067
8.277046875 -1.0243094923170823 -0.024681861394480864
8.2781953125 -1.026779776453892 -0.02149378720674966
8.27934375 -1.0164412495306232 -0.03043555663266631
8.2804921875 -1.0233633634368595 -0.025837013715114265
8.281640625 -1.0257717724009385 -0.021624165237339853
8.2827890625 -1.0184623758689146 -0.027166830703482622
8.2839375 -1.021335662118105 -0.028190371903875383
8.2850859375 -1.0256041959254358 -0.02299390339957888
8.286234375 -1.0273343146934926 -0.020271206715074513
8.2873828125 -1.0191406799613771 -0.030631632857552743
8.28853125 -1.0255442136180524 -0.02352018045401924
8.2896796875 -1.027047967587188 -0.020934943990373267
8.290828125 -1.01488122033885 -0.032967746473958975
8.2919765625 -1.0236873834348874 -0.024936210022611906
8.293125 -1.0259454865348165 -0.021219621039902603
8.2942734375 -1.017916491528723 -0.027781238771670574
8.295421875 -1.0224423860020915 -0.02650502826174067
8.2965703125 -1.026328222509973 -0.022211270570315467
8.29771875 -1.0217744899683403 -0.0240617316770661
8.2988671875 -1.020689681571606 -0.029023000127908066
8.300015625 -1.0258715720281273 -0.022096288467533642
8.3011640625 -1.0280757117702333 -0.020347472162316957
8.3023125 -1.0175943070227667 -0.03211717050571743
8.3034609375 -1.0252450362425893 -0.024186915969632905
8.304609375 -1.0269467854234027 -0.021117742722675845
8.3057578125 -1.0159213535334113 -0.03106268606332971
8.30690625 -1.0246981658698835 -0.0252989761054411
8.3080546875 -1.027191018845564 -0.02164238623099418
8.309203125 -1.0196763961216402 -0.02690486776431736
8.3103515625 -1.0232655722951924 -0.02659114153393942
8.3115 -1.0265685708012566 -0.021271752452396736
8.3126484375 -1.0269589448535166 -0.019957504444018982
8.313796875 -1.0214510339781664 -0.029093184893049406
8.3149453125 -1.0267906049944853 -0.02291780272955407
8.31609375 -1.0283621617310743 -0.021366119326100497
8.3172421875 -1.0155133596745107 -0.03265639345670912
8.318390625 -1.0257906310941995 -0.024309662881563276
8.3195390625 -1.0280905001187257 -0.021577509956908353
8.3206875 -1.018682669096881 -0.03055389478312713
8.3218359375 -1.0248688365089558 -0.02561547876788097
8.322984375 -1.027889849339155 -0.02167628057123861
8.3241328125 -1.0209948827280595 -0.025702370551523135
8.32528125 -1.0235724457101074 -0.026730960545787052
8.3264296875 -1.0278715584184488 -0.022089746166024493
8.327578125 -1.0288712162282592 -0.019481299462190238
8.3287265625 -1.0205728917868038 -0.029904250339536226
8.329875 -1.0264225744955138 -0.022385129876225845
8.3310234375 -1.028279473988156 -0.019955250969290433
8.332171875 -1.0179635175155515 -0.030145338928252337
8.3333203125 -1.0248997710131746 -0.024158319812486118
8.33446875 -1.028050644273902 -0.020758964451020795
8.3356171875 -1.019627044794253 -0.02649581389387526
8.336765625 -1.0243194278427024 -0.0254605665469681
8.3379140625 -1.0270417497410953 -0.020296282638256752
8.3390625 -1.0245551045061423 -0.02148403408745031
8.3402109375 -1.02123977232977 -0.027897193852590235
8.341359375 -1.0263249574073343 -0.021860978097414052
8.3425078125 -1.027164466310893 -0.01921619034203896
8.34365625 -1.01697096477925 -0.030402652473080327
8.3448046875 -1.0245468979779815 -0.02285106881353871
8.345953125 -1.0263274810294036 -0.02002494065704344
8.3471015625 -1.0160425067712595 -0.028061385746776885
8.34825 -1.0234579705220543 -0.023433487759907112
8.3493984375 -1.026064783520349 -0.019686015145596036
8.350546875 -1.0205833277508674 -0.02409885952287348
8.3516953125 -1.022245475718936 -0.025559661971654143
8.35284375 -1.0253510171967402 -0.020178438944336144
8.3539921875 -1.026886061985473 -0.017978600997644645
8.355140625 -1.0190214796549129 -0.027503589680220236
8.3562890625 -1.0253734893148874 -0.0209093324889727
8.3574375 -1.0268010544169275 -0.018705494703789877
8.3585859375 -1.0150737410106219 -0.029098473381929807
8.359734375 -1.023964906175157 -0.02257626604822313
8.3608828125 -1.0259343975226818 -0.019008310202770592
8.36203125 -1.0162800345498817 -0.027129518050201126
8.3631796875 -1.023055768994491 -0.0236066470676448
8.364328125 -1.026097810930517 -0.019574818126848526
8.3654765625 -1.021016871893662 -0.02244119981636393
8.366625 -1.0215652789220584 -0.02466516971489474
8.3677734375 -1.0258208015246004 -0.019569715138447324
8.368921875 -1.0268552380810547 -0.017948038183746767
8.3700703125 -1.0156226605129977 -0.028746077147259547
8.37121875 -1.0239505855312556 -0.021175608706493862
8.3723671875 -1.0258058290207714 -0.01751822672588557
8.373515625 -1.0156801263026012 -0.027051671924447677
8.3746640625 -1.0237737400193299 -0.022882261849831942
8.3758125 -1.0258867662557993 -0.01842878402152301
8.3769609375 -1.0186792051501525 -0.024148904807086397
8.378109375 -1.0218175337894966 -0.02341097822956273
8.3792578125 -1.0254078255584496 -0.01835604716305686
8.38040625 -1.0247960073857287 -0.01848848091331254
8.3815546875 -1.0194999638390487 -0.02597750468429061
8.382703125 -1.024494732167071 -0.02031445178775762
8.3838515625 -1.026000841079904 -0.018553412707365397
8.385 -1.014817521034792 -0.02904961526795928
8.3861484375 -1.024428038751627 -0.021602256543129028
8.387296875 -1.025675952937206 -0.018241024813435397
8.3884453125 -1.0173833624666464 -0.02512463586240185
8.38959375 -1.022510130631599 -0.022902261603123752
8.3907421875 -1.0255394850238226 -0.019131290967377118
8.391890625 -1.0204934459645894 -0.022614415817438713
8.3930390625 -1.0210387103402148 -0.02427366505042254
8.3941875 -1.0250133908247778 -0.019078833863137426
8.3953359375 -1.0255887856272832 -0.016701157539246544
8.396484375 -1.0172881331199857 -0.02602220264283725
8.3976328125 -1.0236318977015495 -0.019951915020524014
8.39878125 -1.0251191029495756 -0.017785628438656276
8.3999296875 -1.014655004349952 -0.02593589910546301
8.401078125 -1.0219964807098398 -0.02085082790177592
8.4022265625 -1.0244598298670098 -0.01796884407711949
8.403375 -1.018663305016345 -0.022669952224451173
8.4045234375 -1.0205915278319753 -0.023519648858466566
8.405671875 -1.0245963637125788 -0.018783543382900697
8.4068203125 -1.0228726388909617 -0.017804306561780447
8.40796875 -1.0190223528435987 -0.02488010512584174
8.4091171875 -1.0241433213773348 -0.01953096176500385
8.410265625 -1.0254008847190148 -0.0176227418054537
8.4114140625 -1.0159738738621957 -0.02619458958626851
8.4125625 -1.0222613459113095 -0.019712649953801065
8.4137109375 -1.0250511059235112 -0.0172337948609185
8.414859375 -1.0154777291481845 -0.025229456282754692
8.4160078125 -1.0222498178837922 -0.021728021672932613
8.41715625 -1.0239211605430438 -0.017559639629198043
8.4183046875 -1.0183690644369756 -0.020859248664565844
8.419453125 -1.0202686375222807 -0.022040426995117546
8.4206015625 -1.023451707102419 -0.01793311684183113
8.42175 -1.024664526433317 -0.016890387418157987
8.4228984375 -1.016834200731792 -0.024805059923238837
8.424046875 -1.0222317951982047 -0.01847780555457601
8.4251953125 -1.0238928145688169 -0.016732434459313522
8.42634375 -1.0132536274141888 -0.02497685227282473
8.4274921875 -1.021219861723346 -0.019899836248812114
8.428640625 -1.0234118309121696 -0.016633142284930763
8.4297890625 -1.015734875496907 -0.021188937164968835
8.4309375 -1.0191607470774695 -0.02054478903537249
8.4320859375 -1.021901103567379 -0.01679502406043898
8.433234375 -1.017923092661706 -0.018731542663912387
8.4343828125 -1.0170156930655472 -0.02183719756855021
8.43553125 -1.020793639158535 -0.017762380606849176
8.4366796875 -1.0218139607786774 -0.016089201976733886
8.437828125 -1.0135575061339346 -0.024420829415696482
8.4389765625 -1.0200008650286658 -0.018623944643684165
8.440125 -1.0212381908519221 -0.015379519630773969
8.4412734375 -1.011662915110243 -0.022256790021020628
8.442421875 -1.0176976754598175 -0.019188626958583477
8.4435703125 -1.0199925286153366 -0.016893409445569302
8.44471875 -1.0145360315204965 -0.01975043391772513
8.4458671875 -1.016633655262059 -0.02110701988928887
8.447015625 -1.0190474256185822 -0.01685042898443026
8.4481640625 -1.0176737950164703 -0.015933727300894263
8.4493125 -1.0136285680128063 -0.022652814673568195
8.4504609375 -1.0174346889983974 -0.01821815071255678
8.451609375 -1.0190435144198868 -0.016270160236668774
8.4527578125 -1.0085480971472274 -0.02476121525235958
8.45390625 -1.0161687330918834 -0.018966504200990775
8.4550546875 -1.0178331033277774 -0.017418928347521928
8.456203125 -1.010939922773119 -0.021784551344170372
8.4573515625 -1.0144520039578504 -0.02160969656255976
8.4585 -1.0170377097148222 -0.018020052688417443
8.4596484375 -1.0126838053542355 -0.019963810484894207
8.460796875 -1.0128221602842156 -0.022601284456949117
8.4619453125 -1.0158619263167457 -0.01851496844081496
8.46309375 -1.0170515524464776 -0.017746331958675005
8.4642421875 -1.00991902290662 -0.02502673192557911
8.465390625 -1.0148082575926054 -0.019612689829091673
8.4665390625 -1.0161373098825406 -0.01801352850521995
8.4676875 -1.0069602024051603 -0.0261798091797385
8.4688359375 -1.01405270855079 -0.02170556692145903
8.469984375 -1.0165265554368066 -0.01948746110825128
8.4711328125 -1.0101407101073523 -0.023478865583077324
8.47228125 -1.0119341745681947 -0.023806835943319213
8.4734296875 -1.0145964352697403 -0.021214073497648228
8.474578125 -1.014633902702955 -0.020979059166123026
8.4757265625 -1.010055828508751 -0.02648189445091459
8.476875 -1.0145458403618455 -0.02304626131181038
8.4780234375 -1.0167592578607318 -0.02180126470006749
8.479171875 -1.0071092220135014 -0.030172450713043433
8.4803203125 -1.0141545443296502 -0.024451465949072257
8.48146875 -1.016295110590312 -0.022838500544230075
8.4826171875 -1.008019731757455 -0.028631758698153986
8.483765625 -1.0133659497749112 -0.026896281642168146
8.4849140625 -1.0151078591341187 -0.024785787397559614
8.4860625 -1.0114314803999018 -0.02735631328978079
8.4872109375 -1.011957028680028 -0.030180075587991934
8.488359375 -1.0147643442008776 -0.026765012182402292
8.4895078125 -1.0157475966320066 -0.025147275666513397
8.49065625 -1.0097470656160654 -0.032078383627068
8.4918046875 -1.014323690160267 -0.027548760284721807
8.492953125 -1.0170750093144396 -0.026685887658764937
8.4941015625 -1.0081295230070608 -0.03339140678692727
8.49525 -1.0151268336465342 -0.029862270054988087
8.4963984375 -1.0174670512916244 -0.027518421507466195
8.497546875 -1.011882243451236 -0.03203060150639611
8.4986953125 -1.0150757273441835 -0.031849953904387426
8.49984375 -1.0174478437011585 -0.028811514753400463
8.5009921875 -1.0149495600899359 -0.029699711867393785
8.502140625 -1.0133639071971146 -0.03362516979470365
8.5032890625 -1.0180645333896023 -0.029782965648883955
8.5044375 -1.0197402862134382 -0.02864766788635001
8.5055859375 -1.0112616072028726 -0.034772932595688054
8.506734375 -1.0183403294851034 -0.029402461549469253
8.5078828125 -1.0203328330021875 -0.027551493086378526
8.50903125 -1.0132389183731767 -0.033410152346049354
8.5101796875 -1.0184073282638821 -0.03073126474160312
8.511328125 -1.0219420885622472 -0.027810825534865052
8.5124765625 -1.0171873098594588 -0.030001640232001803
8.513625 -1.0182416857490972 -0.03178777689175234
8.5147734375 -1.0218348497916838 -0.02751708220275164
8.515921875 -1.0229091730180557 -0.02679544208503938
8.5170703125 -1.0168728042965602 -0.034158737743434545
8.51821875 -1.021324188539687 -0.02785540032234614
8.5193671875 -1.022948206296057 -0.026101211752860204
8.520515625 -1.013943988452931 -0.03312267482216555
8.5216640625 -1.0220158447220093 -0.027814799113747124
8.5228125 -1.02433696424866 -0.026674398740036603
8.5239609375 -1.0180657632187637 -0.02840675720687179
8.525109375 -1.0211793675488603 -0.02769841969567262
8.5262578125 -1.023668212223889 -0.025000969804056167
8.52740625 -1.021204913699811 -0.02630842194698063
8.5285546875 -1.0205693184267537 -0.02973864219797595
8.529703125 -1.0238432095033643 -0.025065086236875367
8.5308515625 -1.0238795445245974 -0.022771614427850445
8.532 -1.018145068954023 -0.02990532906085036
8.5331484375 -1.0227805997674877 -0.024781717543885085
8.534296875 -1.024471589984916 -0.022668960701841906
8.5354453125 -1.016779475651371 -0.028107164545492558
8.53659375 -1.0222423655592956 -0.024508029764336026
8.5377421875 -1.0231006997898437 -0.022259821263958923
8.538890625 -1.0190043385358667 -0.025426459774256255
8.5400390625 -1.0207163159533819 -0.02626728555825153
8.5411875 -1.0238034657681903 -0.022828310753917003
8.5423359375 -1.023826698961686 -0.021892013313038583
8.543484375 -1.0195925008598934 -0.027115818869404257
8.5446328125 -1.0242916029876925 -0.024273756446319655
8.54578125 -1.0247630000644752 -0.02165128083083509
8.5469296875 -1.0157738505290665 -0.029152187450382422
8.548078125 -1.022446665374724 -0.024315286976131112
8.5492265625 -1.0249484183901105 -0.022661445473377784
8.550375 -1.0183242167096433 -0.026370003748922843
8.5515234375 -1.021971508409663 -0.02496420777527686
8.552671875 -1.0246081564644092 -0.02284737068416387
8.5538203125 -1.0207003283652307 -0.023682797399041083
8.55496875 -1.0206962239490207 -0.025564118273097625
8.5561171875 -1.0245196570151205 -0.022301530072426856
8.557265625 -1.024859378329769 -0.020940841850771247
8.5584140625 -1.0200377619918015 -0.027122354939270704
8.5595625 -1.0235544977638467 -0.022068835069636278
8.5607109375 -1.0248410583325032 -0.020324218257990162
8.561859375 -1.0168649512572303 -0.02660269051200137
8.5630078125 -1.0228112000083374 -0.023022564421945002
8.56415625 -1.0243118492563428 -0.0208892944733855
8.5653046875 -1.0179534894924709 -0.023691539441292847
8.566453125 -1.0209761403110282 -0.023263901906851958
8.5676015625 -1.0229944141109022 -0.021114735602366097
8.56875 -1.0213671743076544 -0.02097758615457307
8.5698984375 -1.0188158832380756 -0.025286649550226498
8.571046875 -1.0222557402901729 -0.02129453082662519
8.5721953125 -1.0238797873527836 -0.020201313054602432
8.57334375 -1.0157886415615902 -0.026848656746053468
8.5744921875 -1.0226445365558194 -0.021475589476106532
8.575640625 -1.023670960751648 -0.020589478034494457
8.5767890625 -1.0171415542880808 -0.024925588026351864
8.5779375 -1.0210843330099615 -0.02289483714787957
8.5790859375 -1.0229306379174095 -0.019811681449534463
8.580234375 -1.0190916434090262 -0.022374895011994023
8.5813828125 -1.02000269497215 -0.024347470681567562
8.58253125 -1.0223821747188835 -0.02097087495362676
8.5836796875 -1.0232814759471762 -0.0195469685618134
8.584828125 -1.0168990630915973 -0.025405458879729004
8.5859765625 -1.0214949436101244 -0.02145263218168167
8.587125 -1.0228442809665095 -0.02001456474515373
8.5882734375 -1.0147369533593988 -0.026345680625801754
8.589421875 -1.0205534803939011 -0.022690959228170438
8.5905703125 -1.0223118746714102 -0.020806093259464253
8.59171875 -1.0164162774341656 -0.024366719829352873
8.5928671875 -1.0195532843524453 -0.023708524724555424
8.594015625 -1.021857639637187 -0.02173288219404368
8.5951640625 -1.0194440447354634 -0.021571406958326683
8.5963125 -1.0175060520897357 -0.024431444313282036
8.5974609375 -1.0203800076252223 -0.02157673118057485
8.598609375 -1.0219470467513712 -0.02094870457165765
8.5997578125 -1.0158748786924565 -0.025933506194558475
8.60090625 -1.0207377905901864 -0.022522134588830872
8.6020546875 -1.0222574704911294 -0.020065341265913583
8.603203125 -1.0152491957686074 -0.024940240243019884
8.6043515625 -1.0194457942471304 -0.022777641674252863
8.6055 -1.0211337194905994 -0.021210771021089453
8.6066484375 -1.0168605282752723 -0.023473870624823118
8.607796875 -1.0190911679936674 -0.02301682372279129
8.6089453125 -1.021681691548909 -0.020321016632267846
8.61009375 -1.0225647389674384 -0.018816200729045357
8.6112421875 -1.0167252401213518 -0.02324415988555162
8.612390625 -1.0210039930950463 -0.02076160756390877
8.6135390625 -1.0222180090562012 -0.019826559431059793
8.6146875 -1.0143871827920852 -0.02455490328989307
8.6158359375 -1.0196990563177406 -0.02133642370364114
8.616984375 -1.0221271341416491 -0.019739135945593317
8.6181328125 -1.0153916101598397 -0.022827137414367246
8.61928125 -1.019555486920043 -0.022524482959444828
8.6204296875 -1.0223803783739303 -0.02001310250327548
8.621578125 -1.0190893164308141 -0.01932818025011851
8.6227265625 -1.0185033481788301 -0.021717032561896138
8.623875 -1.0222561540912083 -0.01944529794928264
8.6250234375 -1.023378192998012 -0.01800739810857467
8.626171875 -1.016815204788057 -0.023400738401019
8.6273203125 -1.0208359737807644 -0.019760330331117085
8.62846875 -1.0214038098846523 -0.018750001051313525
8.6296171875 -1.0150687719143412 -0.023469226777133423
8.630765625 -1.0204292188460755 -0.020226661012299252
8.6319140625 -1.0215651119055609 -0.017774037849546648
8.6330625 -1.017158318550502 -0.020601073910345297
8.6342109375 -1.018181176338293 -0.020514146691653704
8.635359375 -1.0211268430933422 -0.018376609499480057
8.6365078125 -1.0192596275847705 -0.017512666991818207
8.63765625 -1.017187224588247 -0.021491751301274717
8.6388046875 -1.020150315645292 -0.019188276008797994
8.639953125 -1.02087735789727 -0.017569173389259507
8.6411015625 -1.0134473006439344 -0.022543937861016633
8.64225 -1.0193719927082556 -0.01986259485575874
8.6433984375 -1.0209034525919258 -0.017568522943557763
8.644546875 -1.0147617517916134 -0.020924635079692944
8.6456953125 -1.0183923606450154 -0.019604847258166552
8.64684375 -1.02043875127531 -0.017678297348396627
8.6479921875 -1.0162697905613955 -0.017600395978638245
8.649140625 -1.012372132324481 -0.02331215488575626
8.6502890625 -1.018447398315645 -0.020089072697066612
8.6514375 -1.0195938742111001 -0.01807126825819788
8.6525859375 -1.0203851561498842 -0.017020453620418874
8.653734375 -1.0212330808395997 -0.01678436740605674
8.6548828125 -1.0211288484171317 -0.01669859897689943
8.65603125 -1.015554696023608 -0.019357974220710478
8.6571796875 -1.017532169165 -0.019652821758814276
8.658328125 -1.0198491173359103 -0.01799157330680015
8.6594765625 -1.0183155040942726 -0.018663345179313257
8.660625 -1.016660795818764 -0.02109054799133228
8.6617734375 -1.0187369644128226 -0.017549926224377538
8.662921875 -1.0202614383093371 -0.016548531866473176
8.6640703125 -1.0133551434220482 -0.02103431333196515
8.66521875 -1.0184038495700838 -0.01785037488261454
8.6663671875 -1.0192406317046863 -0.016862948860611182
8.667515625 -1.0130722749907761 -0.02116347142366004
8.6686640625 -1.0180449725897442 -0.018168588544449776
8.6698125 -1.0195074839505134 -0.01709420394405914
8.6709609375 -1.014763090780303 -0.01894649369144008
8.672109375 -1.0166559393597103 -0.01939720793131053
8.6732578125 -1.0187520343411447 -0.017066124397733307
8.67440625 -1.0186443917101013 -0.016852736158239567
8.6755546875 -1.0138774435093514 -0.020491012609500397
8.676703125 -1.0180058009992798 -0.018051768021815406
8.6778515625 -1.0190467160926149 -0.01661987676319654
8.679 -1.0110678632366696 -0.0207411488551984
8.6801484375 -1.0173262262829506 -0.01829868481474259
8.681296875 -1.0187531046376508 -0.016854969770426553
8.6824453125 -1.0134629505646104 -0.01956177571556672
8.68359375 -1.0164540837119853 -0.01930993127370942
8.6847421875 -1.0179368508614541 -0.017921475257361708
8.685890625 -1.0156724774834192 -0.018508677246911687
8.6870390625 -1.0152797933472597 -0.020093446025830575
8.6881875 -1.0177459821637498 -0.017841925050221863
8.6893359375 -1.0191765560572523 -0.01666818907163098
8.690484375 -1.0137547452224527 -0.020535686396662145
8.6916328125 -1.0172591155929571 -0.018087909939206503
8.69278125 -1.0184933558700526 -0.016826272718555968
8.6939296875 -1.0119603276703946 -0.019701527706368294
8.695078125 -1.016278343150896 -0.01854732086305938
8.6962265625 -1.0180177800569914 -0.01740404411986296
8.697375 -1.0139128430365523 -0.018883038217519743
8.6985234375 -1.0151314540675809 -0.01909012513747166
8.699671875 -1.017964498108628 -0.016477907320438856
8.7008203125 -1.0177290089907185 -0.016399089508287723
8.70196875 -1.0147279593633112 -0.0196802110390647
8.7031171875 -1.0175163764589434 -0.017916702520980765
8.704265625 -1.0187136926401845 -0.016116214415865304
8.7054140625 -1.0054313381327071 -0.020873959791805285
8.7065625 -1.0140129772447108 -0.01981300917632467
8.7077109375 -1.0170809249796124 -0.01660855203330497
8.708859375 -1.0180926358037403 -0.015803236280185262
8.7100078125 -1.0183509325157063 -0.015814006606178543
8.71115625 -1.0184521334045822 -0.015608178418826057
8.7123046875 -1.0177817478669193 -0.015529600736424953
8.713453125 -1.0135417129788657 -0.01909880317931628
8.7146015625 -1.0166720167156673 -0.017524723023919497
8.71575 -1.0178467533343838 -0.01583931851921433
8.7168984375 -1.012321350902869 -0.019843741090888933
8.718046875 -1.0164049148471557 -0.017805108209275722
8.7191953125 -1.0177466432747024 -0.016316242524419988
8.72034375 -1.0132630917164267 -0.018174196624146155
8.7214921875 -1.0149668001291672 -0.01813334148693385
8.722640625 -1.0164816367029448 -0.016173817609329566
8.7237890625 -1.0146703077752202 -0.01647964140175512
8.7249375 -1.0143994463885755 -0.01844879136851668
8.7260859375 -1.0172036534152644 -0.01656656977515364
8.727234375 -1.0176387137523204 -0.015166135119951046
8.7283828125 -1.0100327082998453 -0.018963534750421396
8.72953125 -1.015714696741768 -0.016117733666135392
8.7306796875 -1.0158208412239542 -0.01591280945837184
8.731828125 -1.0108827321138807 -0.01816148916330318
8.7329765625 -1.0140923304814093 -0.016202522614705284
8.734125 -1.0163620407347869 -0.015973526652780373
8.7352734375 -1.0116110260822464 -0.01718268701908804
8.736421875 -1.0125164131318036 -0.01639996699393298
8.7375703125 -1.014960332485111 -0.015365927029572207
8.73871875 -1.0149272712886268 -0.014539208094756284
8.7398671875 -1.0114033667536855 -0.017644043451490343
8.741015625 -1.014669573138287 -0.015514821285591618
8.7421640625 -1.0159921253969644 -0.014836967049997596
8.7433125 -1.0094504913913882 -0.01781312196204332
8.7444609375 -1.0139801519282685 -0.015651008743774675
8.745609375 -1.0147559417813647 -0.014239921036801745
8.7467578125 -1.0112178731879449 -0.0159048527051045
8.74790625 -1.0130003960454672 -0.015885148273278554
8.7490546875 -1.0147697538866374 -0.015285866670500692
8.750203125 -1.011853823457573 -0.014873246173139454
8.7513515625 -1.012266754778694 -0.01706521291925789
8.7525 -1.014756459302257 -0.015779775933434326
8.7536484375 -1.015243200092229 -0.013522123211097359
8.754796875 -1.0111251904528202 -0.01718835733970772
8.7559453125 -1.0138732686406589 -0.014262224569636661
8.75709375 -1.015168851391028 -0.013288753436736356
8.7582421875 -1.0101400210851932 -0.0163412175173549
8.759390625 -1.0127268935748492 -0.015116227294244708
8.7605390625 -1.014497256124364 -0.013964498239417839
8.7616875 -1.0106602106690297 -0.01537092546862183
8.7628359375 -1.011639264983489 -0.014994306732492246
8.763984375 -1.0131269859557015 -0.014120726595642258
8.7651328125 -1.0133785419802666 -0.01337608143650064
8.76628125 -1.0092138384852132 -0.016320199153839393
8.7674296875 -1.012305065090515 -0.014312201473137387
8.768578125 -1.0130849439449088 -0.0131231476057663
8.7697265625 -1.0073209910204275 -0.017098426133384775
8.770875 -1.0113982444764031 -0.014600330455014687
8.7720234375 -1.0130615977605797 -0.013253421356188344
8.773171875 -1.0083362504670266 -0.01527019946680297
8.7743203125 -1.01119638189725 -0.014846247729993045
8.77546875 -1.0122506805702176 -0.013548922721716719
8.7766171875 -1.0096189050828035 -0.014427445992674232
8.777765625 -1.0095123769931944 -0.01579879825158033
8.7789140625 -1.0113754049785888 -0.01340597868968968
8.7800625 -1.0121843024650237 -0.012909908237268064
8.7812109375 -1.0081292238059893 -0.01586345905418758
8.782359375 -1.0107457623368075 -0.014255104195786295
8.7835078125 -1.0116112494237275 -0.013030911286695035
8.78465625 -1.0062098393731467 -0.015685480093720963
8.7858046875 -1.010114982615432 -0.014515345069540816
8.786953125 -1.0115256712198932 -0.01325921700523748
8.7881015625 -1.0076308036490493 -0.01474155855183057
8.78925 -1.0102864411233847 -0.01426498939703455
8.7903984375 -1.0114343796812895 -0.01342302466600219
8.791546875 -1.009287365741022 -0.01296071308554067
8.7926953125 -1.0079970070292215 -0.014559567422923747
8.79384375 -1.0106823922729342 -0.013726385549585829
8.7949921875 -1.0112369581785479 -0.012194087187319097
8.796140625 -1.0059719802495979 -0.015336901870530273
8.7972890625 -1.0089077032762148 -0.013340298112504256
8.7984375 -1.0102819422085756 -0.012433887177309588
8.7995859375 -1.0054060317342235 -0.01474412954874818
8.800734375 -1.008959524644902 -0.013332595484003257
8.8018828125 -1.0100563603405213 -0.013156387725486773
8.80303125 -1.007096032450398 -0.012757539832660564
8.8041796875 -1.007687740690099 -0.013827813143583861
8.805328125 -1.0087456689249412 -0.011919138650444555
8.8064765625 -1.0084793618335042 -0.012454837646514838
8.807625 -1.006474826751509 -0.014674004013669167
8.8087734375 -1.0090054953335388 -0.01314551912462808
8.809921875 -1.0099144501601072 -0.012663264809926938
8.8110703125 -1.0042928386023868 -0.014887790000247814
8.81221875 -1.0081371627692755 -0.013302737194918673
8.8133671875 -1.0087583163195628 -0.011580223298396614
8.814515625 -1.0052410073207034 -0.013020032622719419
8.8156640625 -1.0071337784510483 -0.013183109999423182
8.8168125 -1.0081091844437182 -0.011781245475166902
8.8179609375 -1.006519516366314 -0.011921143856769012
8.819109375 -1.004824197206946 -0.013580456983830286
8.8202578125 -1.006958509219291 -0.01230344163571842
8.82140625 -1.0074621067353828 -0.01104958852954016
8.8225546875 -1.003373800805763 -0.01373895827510005
8.823703125 -1.0060795498820085 -0.0124134080650605
8.8248515625 -1.0077826365087372 -0.012153874390328723
8.826 -1.0026846692434588 -0.01384629789327102
8.8271484375 -1.0057753517453643 -0.013546879787296184
8.828296875 -1.005875346768422 -0.012372682740516061
8.8294453125 -1.002882749262262 -0.01257629179907499
8.83059375 -1.0032868432315656 -0.013598462161151459
8.8317421875 -1.0044118745978543 -0.011674385755547967
8.832890625 -1.0039469114632475 -0.012023397460373508
8.8340390625 -1.0016066658285325 -0.014563648075640312
8.8351875 -1.003627110949768 -0.012869202125309676
8.8363359375 -1.00359571473094 -0.01202594088425285
8.837484375 -0.9981679490739555 -0.015530531465963948
8.8386328125 -1.002135218287924 -0.014054815894208095
8.83978125 -1.0026351850904283 -0.013385743595341226
8.8409296875 -0.9993073622373692 -0.015778206756208724
8.842078125 -1.001176861311656 -0.01579097034244381
8.8432265625 -1.0021165414687632 -0.014331385705536714
8.844375 -0.999947115833203 -0.015110822216691244
8.8455234375 -0.9995080043925924 -0.016471873418543892
8.846671875 -1.00067598490568 -0.016353373836599516
8.8478203125 -1.0018968331835547 -0.015840091472630102
8.84896875 -0.9980925872838073 -0.018843686879086607
8.8501171875 -1.001436114310993 -0.01799616719423025
8.851265625 -1.003453431247697 -0.01672002082824331
8.8524140625 -0.9991458417982002 -0.01897450131294981
8.8535625 -1.002867679589973 -0.018616572637424555
8.8547109375 -1.003473354330942 -0.01809723060557955
8.855859375 -1.001476440416617 -0.01794138287178415
8.8570078125 -1.002270125012252 -0.018504923847251276
8.85815625 -1.0045470152053464 -0.017182762108631233
8.8593046875 -1.0037338757817165 -0.017629529351374573
8.860453125 -1.0019058413757498 -0.019212835682076768
8.8616015625 -1.0037282500060518 -0.01737180612998529
8.86275 -1.004457544107423 -0.017390021848888604
8.8638984375 -1.0003157445292838 -0.02050145590570246
8.865046875 -1.0027599061443515 -0.018468700356287115
8.8661953125 -1.0043541737605142 -0.016649481972877578
8.86734375 -1.0011121189062382 -0.01912324681148614
8.8684921875 -1.003655944871338 -0.01827377555188675
8.869640625 -1.004438785575514 -0.01685415200452023
8.8707890625 -1.0033967161009156 -0.018032142553676966
8.8719375 -1.0033708420460383 -0.01952249379436749
8.8730859375 -1.0051919563539298 -0.01812483433740525
8.874234375 -1.0059302958616492 -0.017712108172651397
8.8753828125 -1.0017025837000295 -0.019235957224541578
8.87653125 -1.0050061444985645 -0.01780853807501942
8.8776796875 -1.0048638384286366 -0.017215252030875594
8.878828125 -1.0013862675103866 -0.01908837185880341
8.8799765625 -1.0046877457658592 -0.018040111138532405
8.881125 -1.0052668878065953 -0.01779774383404875
8.8822734375 -1.002937984196341 -0.01852606597036338
8.883421875 -1.0057831825371266 -0.018521673839602848
8.8845703125 -1.0062585976017306 -0.016766031590112723
8.88571875 -1.004918646871666 -0.01730601096325743
8.8868671875 -1.0048370300898284 -0.01883257217325726
8.888015625 -1.0058018363763965 -0.016811778530847338
8.8891640625 -1.0053413978188812 -0.015545803580155504
8.8903125 -1.0025584582040277 -0.01861786342873012
8.8914609375 -1.0047103722566186 -0.016308121157841138
8.892609375 -1.006186969750928 -0.01608427289885575
8.8937578125 -1.003144295898639 -0.017245382073780874
8.89490625 -1.0053312994260875 -0.01747324154817373
8.8960546875 -1.0056511695077708 -0.016027968194148146
8.897203125 -1.0025013906695028 -0.01673003811353868
8.8983515625 -1.0036332804759094 -0.01732323260650348
8.8995 -1.0043102368322259 -0.016234211100120438
8.9006484375 -1.0045073018515462 -0.015000209597824304
8.901796875 -1.0028755894344272 -0.017094924564614505
8.9029453125 -1.0039909956675295 -0.016229884472445055
8.90409375 -1.0053283698295024 -0.015663783916394836
8.9052421875 -1.0020253719828978 -0.017819400396171997
8.906390625 -1.0044505496331035 -0.015572286936961333
8.9075390625 -1.0057932289361942 -0.014662571951822578
8.9086875 -1.002380133559759 -0.015814096738286598
8.9098359375 -1.0040552041776007 -0.016357340420333155
8.910984375 -1.004301395617723 -0.015836427540740605
8.9121328125 -1.0024186265972745 -0.016080183011832783
8.91328125 -1.0018079901092298 -0.016797065520866072
8.9144296875 -1.0030187287588443 -0.01451312041252062
8.915578125 -1.003161008522022 -0.014227281615533549
8.9167265625 -1.0012389680941394 -0.016290249231713738
8.917875 -1.0038039502611942 -0.015410355713006196
8.9190234375 -1.0039682267939642 -0.013804252440407339
8.920171875 -0.9975442444830971 -0.016725025821247796
8.9213203125 -1.0012971576993464 -0.017335566540026437
8.92246875 -1.0034420179095305 -0.016047751301988405
8.9236171875 -1.0040072378747182 -0.014897771563910589
8.924765625 -1.0034335639848024 -0.013700948336431096
8.9259140625 -1.0042323719651975 -0.013825978415836826
8.9270625 -1.0030957738084083 -0.013901895355664051
8.9282109375 -1.0009662083008315 -0.017388938138091115
8.929359375 -1.0022305830773255 -0.015450959612099413
8.9305078125 -1.003444303351774 -0.015479479471475738
8.93165625 -1.0008488041231232 -0.01693231586525512
8.9328046875 -1.001726205358573 -0.016356519327862973
8.933953125 -1.0038481839733404 -0.015778589539076154
8.9351015625 -1.0010255967605892 -0.016487295909366734
8.93625 -1.001042231574075 -0.01814159845925789
8.9373984375 -1.0021984166248812 -0.015647685948339873
8.938546875 -1.001788955374975 -0.014507631707214336
8.9396953125 -1.000004498565369 -0.018304499027159887
8.94084375 -1.0023805409209434 -0.016996584101375417
8.9419921875 -1.002999138797038 -0.015613595717234169
8.943140625 -0.995852635870089 -0.017666422741365123
8.9442890625 -1.0000943486774967 -0.017729054188518056
8.9454375 -1.002991799301816 -0.015893694169708594
8.9465859375 -1.00280496698846 -0.015612651951528833
8.947734375 -1.0038491817429167 -0.015744938827578825
8.9488828125 -1.003573335899988 -0.014923337142999565
8.95003125 -1.0029701667635362 -0.014683404181350335
8.9511796875 -0.9999816254310521 -0.019326076451801955
8.952328125 -1.0023319535259951 -0.0173885271084169
8.9534765625 -1.0034594918265578 -0.015784684237809876
8.954625 -1.0003930598241653 -0.017162304146582125
8.9557734375 -1.0021545316780935 -0.015900957094876156
8.956921875 -1.0038223631303436 -0.014738474011984304
8.9580703125 -1.001692178691441 -0.016411586808580736
8.95921875 -1.0023264845282984 -0.016564758975961547
8.9603671875 -1.0030190156061618 -0.015266203915794252
8.961515625 -1.0015879790215072 -0.015041573339651448
8.9626640625 -1.0004387153300311 -0.016096112338088053
8.9638125 -1.0016233749311159 -0.015115900615456035
8.9649609375 -1.002393694908218 -0.014194291928561087
8.966109375 -0.998935498589466 -0.017392793667798223
8.9672578125 -1.001374771784487 -0.0160140828934886
8.96840625 -1.0014899745435248 -0.01466056127167692
8.9695546875 -0.998817684900626 -0.01718922274416207
8.970703125 -1.0009105655620327 -0.017616479140148467
8.9718515625 -1.0013348094816126 -0.015534411452768071
8.973 -1.0004040227271078 -0.01572206525743397
8.9741484375 -1.000069230612459 -0.016652446952273747
8.975296875 -1.0009392193276747 -0.016053841171309202
8.9764453125 -1.0014891372556298 -0.015492837838084306
8.97759375 -0.9988488601960249 -0.018647987193793014
8.9787421875 -1.0014608425347884 -0.01797471127308803
8.979890625 -1.0013498599515767 -0.015832564454140163
8.9810390625 -0.9990508695478253 -0.018399403692974214
8.9821875 -1.0015972359698389 -0.01630345896143731
8.9833359375 -1.0032160535380883 -0.015794143416741124
8.984484375 -1.0008849423177835 -0.018175080040571556
8.9856328125 -1.0021532672186824 -0.018654189760497986
8.98678125 -1.0008595754183254 -0.018014202243512245
8.9879296875 -1.0027082295414909 -0.0175445712134768
8.989078125 -1.0022096639473212 -0.019343934680028985
8.9902265625 -1.003694671662063 -0.017440223115483933
8.991375 -1.0037940378036865 -0.01900677564646519
8.9925234375 -1.0019633298901534 -0.02123987364124058
8.993671875 -1.0037886859815714 -0.018003957940643744
8.9948203125 -1.0046645960094143 -0.017804492460009702
8.99596875 -1.0038469791884097 -0.019037310283911035
8.9971171875 -1.0035245746871506 -0.018270980311227702
8.998265625 -1.0056068029552228 -0.01764865044035968
8.9994140625 -1.003551095876689 -0.01834419733571513
9.0005625 -1.0062520615866133 -0.019968340974732712
9.0017109375 -1.0076862853016069 -0.016788927168777945
9.002859375 -1.0089483876967595 -0.017618035906661722
9.0040078125 -1.0075321074936925 -0.018406550411288858
9.00515625 -1.0086342945241211 -0.01756249352846001
9.0063046875 -1.0104900515640303 -0.015038528991113576
9.007453125 -1.00639889494545 -0.015964858214761346
9.0086015625 -1.0091017421171502 -0.015727376061456355
9.00975 -1.0109963058792584 -0.011519172481120221
9.0108984375 -1.0088397581949051 -0.014172866881483448
9.012046875 -1.0087605759872864 -0.013502996304631643
9.0131953125 -1.00962908045054 -0.01142671966064146
9.01434375 -1.008099591439953 -0.01032253076286982
9.0154921875 -1.0087915598641284 -0.013083293405068974
9.016640625 -1.0102776682158197 -0.011936851432071682
9.0177890625 -1.0094193324771203 -0.009336054442993569
9.0189375 -1.0069166124806583 -0.01066716370537163
9.0200859375 -1.007676005097954 -0.008957004443482852
9.021234375 -1.008534064309267 -0.009169801654842047
9.0223828125 -1.0054775362556556 -0.009414084944594558
9.02353125 -1.0061817889881068 -0.008437059269882141
9.0246796875 -1.0070383464366626 -0.008213026677648838
9.025828125 -1.0064377405951999 -0.008475968767257397
9.0269765625 -1.0062825628087315 -0.0089067651100736
9.028125 -1.0076021586619297 -0.008587881766181915
9.0292734375 -1.0074265747911229 -0.00727222838782543
9.030421875 -1.005016976050955 -0.009637252792351308
9.0315703125 -1.0072686242171438 -0.007501161554987756
9.03271875 -1.0078241370736083 -0.0059456930406571185
9.0338671875 -1.0042204448881513 -0.007671395360231731
9.035015625 -1.0057854650840625 -0.005565055413528058
9.0361640625 -1.006048470247943 -0.0048916903438893655
9.0373125 -1.0040052073495347 -0.007282995095840072
9.0384609375 -1.0049011356511643 -0.005966686410057126
9.039609375 -1.0057166920307927 -0.004773843549159162
9.0407578125 -1.0056858987396806 -0.005725703565039181
9.04190625 -1.0057782070248817 -0.006728535354872861
9.0430546875 -1.0057666589091216 -0.004928147469527661
9.044203125 -1.005977117139342 -0.004539036746985248
9.0453515625 -1.0037507945856736 -0.0060038264180427015
9.0465 -1.0045920192223494 -0.0048532700420547414
9.0476484375 -1.0042876255633888 -0.002750737515061469
9.048796875 -1.0017988228554546 -0.004508708216107715
9.0499453125 -1.0035471958138853 -0.00320524015394813
9.05109375 -1.0042004819422734 -0.0018044335977421555
9.0522421875 -1.0024054368720015 -0.003075352838048273
9.053390625 -1.0028620219190791 -0.0027255613436016346
9.0545390625 -1.0021722475860717 -0.0012847156594791298
9.0556875 -1.001886149079382 -0.001219071394498561
9.0568359375 -1.000275376877533 -0.0035162893067823553
9.057984375 -1.000201460239337 -0.0014614185289952286
9.0591328125 -1.0009143446517526 -0.0013872844480954105
9.06028125 -0.9986454742657026 -0.004218694019577862
9.0614296875 -1.0000974657950972 -0.0023854239803929866
9.062578125 -1.0014258458177536 -0.0012490199000010915
9.0637265625 -0.9975402208953583 -0.002934022720939594
9.064875 -0.9993190679260451 -0.002710656385379373
9.0660234375 -0.9996114464264302 -0.0002979705362861629
9.067171875 -0.9985368913023867 -0.0030862084955900204
9.0683203125 -0.9973789821543595 -0.0028573984172711453
9.06946875 -0.9970895473761829 -0.0023635706896290576
9.0706171875 -0.9979849347758368 -0.0006224744855802544
9.071765625 -0.9950350650314347 -0.0032492915352959895
9.0729140625 -0.9960197319959437 -0.0047118551374094875
9.0740625 -0.9953281317248404 -0.0026033835650416948
9.0752109375 -0.9943625429737905 -0.005364292379226698
9.076359375 -0.9952641102803522 -0.004528486661237507
9.0775078125 -0.9942197100315071 -0.0042341669514723845
9.07865625 -0.9946634158593325 -0.006508251250200686
9.0798046875 -0.9961891937631224 -0.006617266432076857
9.080953125 -0.9955680249254613 -0.0031618480900792167
9.0821015625 -0.9959113949636919 -0.0057587612522711495
9.08325 -0.995022410398481 -0.00791294889338151
9.0843984375 -0.9953269909714483 -0.006981001221717992
9.085546875 -0.993869515713297 -0.006015348375015023
9.0866953125 -0.9931509884414603 -0.008964817937829328
9.08784375 -0.9951184970764926 -0.004734593209408
9.0889921875 -0.9958941393700368 -0.004454050259863868
9.090140625 -0.9928690622375429 -0.006432363883580705
9.0912890625 -0.9950073530313502 -0.006090714841389289
9.0924375 -0.9952322710312052 -0.0062149827127189194
9.0935859375 -0.9946399076443853 -0.006105973186342595
9.094734375 -0.9940303020818394 -0.007525685352509026
9.0958828125 -0.9951726287029896 -0.007292058457994466
9.09703125 -0.9962867991908094 -0.006081334966732965
9.0981796875 -0.9951994091673543 -0.009002698812138166
9.099328125 -0.9951334519937548 -0.006974589594036962
9.1004765625 -0.9963375713367929 -0.005923191779302617
9.101625 -0.9930461629449758 -0.009302478423402594
9.1027734375 -0.9952852015095016 -0.007942656682837335
9.103921875 -0.9956680495527156 -0.0068304444503247685
9.1050703125 -0.9930041153068703 -0.008140438480675694
9.10621875 -0.9941673692306426 -0.007555894984274891
9.1073671875 -0.9960251676848215 -0.006399823735203369
9.108515625 -0.9947159350398019 -0.006648770640171331
9.1096640625 -0.9957635303675229 -0.007975729729518821
9.1108125 -0.9966169431062385 -0.006481781137193832
9.1119609375 -0.9965527490214156 -0.006697222018038018
9.113109375 -0.9956179655621945 -0.008484013148737979
9.1142578125 -0.9966573031901146 -0.005621667868691671
9.11540625 -0.9969432396483559 -0.0041764100769468016
9.1165546875 -0.9958785296964214 -0.006218749444848182
9.117703125 -0.9978642478542118 -0.0045163120792011124
9.1188515625 -0.9977862273527088 -0.0042646411773301085
9.12 -0.9971727828102745 -0.005584971840963071
9.1211484375 -0.997485813704724 -0.004727859014774349
9.122296875 -0.997257857471778 -0.0032360265324403725
9.1234453125 -0.9969809806129105 -0.003558667113192804
9.12459375 -0.9968495198561768 -0.004509167941017578
9.1257421875 -0.9981740063615477 -0.0023346864677048773
9.126890625 -0.9985266307998234 -0.0009338275757817815
9.1280390625 -0.996042940735348 -0.00535931690726868
9.1291875 -0.9967690254104766 -0.0020220836838908685
9.1303359375 -0.997949665016292 0.00027831827439467327
9.131484375 -0.9958789115349668 -0.0013406880892600226
9.1326328125 -0.9956089502254375 -0.00048565187465185455
9.13378125 -0.9966682413423781 3.6310809068518246e-05
9.1349296875 -0.9956177318169593 -0.0007589433518223609
9.136078125 -0.9953351340625689 -0.002943657541215755
9.1372265625 -0.9974377990060526 -0.000290572832675251
9.138375 -0.9981039063410341 0.0006032338413924088
9.1395234375 -0.9962616666575572 -0.002616441646649287
9.140671875 -0.9957435449270726 -0.0003422684111478447
9.1418203125 -0.9951319008264039 -0.00114960053417415
9.14296875 -0.994579008067508 -0.004691362114413317
9.1441171875 -0.9950479722573181 -0.0023503473637612737
9.145265625 -0.9939210753768266 -0.0008037490894234889
9.1464140625 -0.9944416643892802 -0.002017827799797256
9.1475625 -0.9965949166952657 -0.00108846191864731
9.1487109375 -0.9954580508353577 -0.0011415009292401468
9.149859375 -0.9964455115761374 0.00013531095808033688
9.1510078125 -0.9947145721106141 -0.0024323009569568177
9.15215625 -0.9939121511796651 7.73075123009781e-05
9.1533046875 -0.9960891753798296 0.0011273857575610224
9.154453125 -0.9963854262775305 -0.002791316823441345
9.1556015625 -0.9954034140471021 -0.0019622212990076937
9.15675 -0.9933258438504788 -0.0006430306340949599
9.1578984375 -0.9924332017798407 -0.004594275125557046
9.159046875 -0.9940895684842969 -0.0033254047856753344
9.1601953125 -0.994142965081023 -0.0021360340028347136
9.16134375 -0.9936095340439519 -0.0032341694939134885
9.1624921875 -0.9947448496228377 -0.0038367449335757198
9.163640625 -0.995161639834983 -0.002053000165528354
9.1647890625 -0.995179450799544 -0.0011314451082435409
9.1659375 -0.9952384085790205 -0.0022614384878301905
9.1670859375 -0.994850455790103 -0.0020197558820701997
9.168234375 -0.9948924309096375 -0.0017383351279057976
9.1693828125 -0.9939909169653424 -0.005466848237554833
9.17053125 -0.9945391409118176 -0.002472826784455366
9.1716796875 -0.9944598476185822 -0.0026139232889971636
9.172828125 -0.9931860155398079 -0.004512468188929669
9.1739765625 -0.993912420732468 -0.003447942661938694
9.175125 -0.9945894729730655 -0.002422424816124716
9.1762734375 -0.9942291364530308 -0.002487069481769355
9.177421875 -0.9951072575351252 -0.0024337231710151105
9.1785703125 -0.9947499708678247 -0.0014712511890197441
9.17971875 -0.9943790733594917 -0.0009221952167286461
9.1808671875 -0.9944216907798042 -0.0040770893827760946
9.182015625 -0.9961823107811925 -0.0019647867332610452
9.1831640625 -0.9955228387074585 -0.0017066587765014463
9.1843125 -0.9932488125764767 -0.00551473461580082
9.1854609375 -0.9947361249234722 -0.0034163498215406957
9.186609375 -0.9948799216059828 -0.0029506148179909847
9.1877578125 -0.9940493175888355 -0.002887781257253988
9.18890625 -0.9960015699243717 -0.0015921858316807532
9.1900546875 -0.996107056768292 -0.001827050325634131
9.191203125 -0.9952651944630506 -0.0013916062660613814
9.1923515625 -0.9951958512554702 -0.004473795441111317
9.1935 -0.9953883215128068 -0.002271404385339501
9.1946484375 -0.9945179557897619 -0.0005846892210832691
9.195796875 -0.9937623875624543 -0.00445332508810066
9.1969453125 -0.9959749994885561 -0.0014214346726899585
9.19809375 -0.9972078280357387 -0.0010899368990657191
9.1992421875 -0.9953566658892968 -0.002966771923069123
9.200390625 -0.9963645432494984 0.0002220332264582358
9.2015390625 -0.995515357860876 0.0012335791655866228
9.2026875 -0.9937856160238754 -0.0014461077795677492
9.2038359375 -0.9930559941555792 0.00011959001591809598
9.204984375 -0.9939894050205348 0.00249233543793621
9.2061328125 -0.995733669639908 0.0033558626005088556
9.20728125 -0.9937049437890544 0.0008059206405986591
9.2084296875 -0.9940840751144996 0.0007374943348013047
9.209578125 -0.9932041312284617 0.0028010268188233024
9.2107265625 -0.9920113456387967 -0.0020824584909142005
9.211875 -0.9934036777188087 0.003478411782389102
9.2130234375 -0.9942696798929851 0.004542460181905766
9.214171875 -0.9927197415703902 0.0014014215244674624
9.2153203125 -0.9920525551393655 0.001152270117742757
9.21646875 -0.9928758058178111 0.002925457650014965
9.2176171875 -0.9929497503277389 0.002646087285715179
9.218765625 -0.9928374633627428 0.0011921308083384166
9.2199140625 -0.992716731465011 0.002776142757086819
9.2210625 -0.9934067488961734 0.002802906520887473
9.2222109375 -0.9915380758612984 0.00045665322469157915
9.223359375 -0.9932784918182388 0.004546443336364281
9.2245078125 -0.9918492647346133 0.005319473644507258
9.22565625 -0.9921150719084165 0.0018522039314624594
9.2268046875 -0.9921081448076017 0.0028110116252787615
9.227953125 -0.9937178207968395 0.005032005707248238
9.2291015625 -0.993007543817448 0.0034366498611857893
9.23025 -0.9927583144766832 0.003490454230191578
9.2313984375 -0.9931681858819333 0.004346257137101614
9.232546875 -0.9933189560172988 0.00495262886239918
9.2336953125 -0.9931366714929624 0.001787933878733397
9.23484375 -0.9938799692315846 0.003582968612658055
9.2359921875 -0.9947525743993847 0.005950850260969601
9.237140625 -0.9932283174340385 0.0011302253619258074
9.2382890625 -0.9947019085561465 0.004305840065953415
9.2394375 -0.9945420940342081 0.004428564858697498
9.2405859375 -0.992899487436895 0.002630645248086469
9.241734375 -0.9932110639073193 0.004303189644381575
9.2428828125 -0.9939959248152601 0.005129819957743531
9.24403125 -0.9940025478388291 0.003508481317439721
9.2451796875 -0.9937956231300317 0.0035374192880061883
9.246328125 -0.9944570695449937 0.006316311189712154
9.2474765625 -0.993769895748174 0.008007716719562352
9.248625 -0.9940297357873252 0.0028190678028402333
9.2497734375 -0.994221181260349 0.005802230929738333
9.250921875 -0.9938284083544129 0.008149792781517451
9.2520703125 -0.993093692332003 0.0037977757162714343
9.25321875 -0.9922008726660015 0.006457813863423728
9.2543671875 -0.9924638119377739 0.008411210604713282
9.255515625 -0.9909220255102019 0.00588306155064687
9.2566640625 -0.9921271546453406 0.007232145978409196
9.2578125 -0.9927916498070191 0.00923484380041567
9.2589609375 -0.9925348102043884 0.009578388002660004
9.260109375 -0.9912005373704692 0.005913705449675663
9.2612578125 -0.9906115097600678 0.009154565067416714
9.26240625 -0.9913548219629315 0.009015113389928345
9.2635546875 -0.9905559998875593 0.004485486093858945
9.264703125 -0.9922131556201343 0.008394599831787947
9.2658515625 -0.9915479895257062 0.00879793708336657
9.267 -0.9905104996077454 0.006556717221931518
9.2681484375 -0.9905050164778921 0.008138190343840876
9.269296875 -0.9895687497557331 0.008220621502412206
9.2704453125 -0.9884128520006963 0.007566244007169182
9.27159375 -0.990222310649898 0.006628389717742683
9.2727421875 -0.9907166527715834 0.009380726779625495
9.273890625 -0.9893356723259791 0.010073607900904863
9.2750390625 -0.9892029272211481 0.008803217296401142
9.2761875 -0.9899299047368807 0.008546805981625938
9.2773359375 -0.9897980700170015 0.011160384912588
9.278484375 -0.9897020337654301 0.00814831991761713
9.2796328125 -0.9887410490344213 0.00962814138366782
9.28078125 -0.9883153664005422 0.011663826323539898
9.2819296875 -0.9863521455868952 0.008189585029441941
9.283078125 -0.9870053719496709 0.007160810023148986
9.2842265625 -0.9870813449533583 0.008298360603004803
9.285375 -0.9881891910950139 0.013077945273736402
9.2865234375 -0.989373870180362 0.012400965166796785
9.287671875 -0.9859314900299723 0.015328139417824085
9.2888203125 -0.9861343968693002 0.014728046060584685
9.28996875 -0.9839066804125878 0.009050115367026601
9.2911171875 -0.9836005197110012 0.011600559025404904
9.292265625 -0.9830722037160395 0.013311692439035072
9.2934140625 -0.9829394314353472 0.00902300270360825
9.2945625 -0.9855232497778005 0.01041082639343871
9.2957109375 -0.9839815606188369 0.012744285073331113
9.296859375 -0.9837079923644249 0.014109065220405781
9.2980078125 -0.9811518911501242 0.009256327488977825
9.29915625 -0.9815257508770073 0.012723413285646953
9.3003046875 -0.9794613239322496 0.01375353063995749
9.301453125 -0.9759785428234854 0.009350274837663361
9.3026015625 -0.9778128981031848 0.013938760012189466
9.30375 -0.976727335624523 0.013261602069197381
9.3048984375 -0.9743682376039797 0.007392899666650521
9.306046875 -0.9753045666120704 0.009880039837352472
9.3071953125 -0.976145905629622 0.010447154865058567
9.30834375 -0.9736742743633917 0.008789135701104067
9.3094921875 -0.9744502210090736 0.0056347245438680416
9.310640625 -0.974774711597161 0.0060832799415269645
9.3117890625 -0.9732284416912564 0.006524639819500133
9.3129375 -0.971574541572841 0.0002263562856328616
9.3140859375 -0.9721062708541665 0.00045147232881112553
9.315234375 -0.9729053603294704 0.0010490294817866175
9.3163828125 -0.9697588619256066 -0.008191904641950215
9.31753125 -0.9720710806006906 -0.0057835272991459685
9.3186796875 -0.9733830528557543 -0.004200603906457351
9.319828125 -0.9763377314899426 -0.004189033889194199
9.3209765625 -0.9765253957569476 -0.0033780591873866506
9.322125 -0.9777465525508343 -0.0050933421334550255
9.3232734375 -0.9782722263264122 -0.007034371262140016
9.324421875 -0.9784437462272345 -0.014142825394914349
9.3255703125 -0.9792179020998211 -0.01131791230018614
9.32671875 -0.9801654172931002 -0.009621355697810252
9.3278671875 -0.9805562234717763 -0.013760367584061295
9.329015625 -0.9832580776143982 -0.011877225667356495
9.3301640625 -0.9840319083888285 -0.012266802002499688
9.3313125 -0.9851701346546621 -0.011751797582085777
9.3324609375 -0.9857256530817275 -0.012106272519687045
9.333609375 -0.9869014327131288 -0.009116581110501953
9.3347578125 -0.9887474122266009 -0.008848013296057888
9.33590625 -0.9867923262308756 -0.012007623608248696
9.3370546875 -0.9876006717559085 -0.008300474931622115
9.338203125 -0.989585037685996 -0.008619292515638144
9.3393515625 -0.9881393626262757 -0.011438568518577386
9.3405 -0.99071435456869 -0.009743256171317272
9.3416484375 -0.9901735462177909 -0.00790112414224775
9.342796875 -0.9901339249218475 -0.010393458384939602
9.3439453125 -0.9913347801894942 -0.007782511128663128
9.34509375 -0.9914819602916781 -0.006347680599244343
9.3462421875 -0.9897082951751879 -0.009131934810987008
9.347390625 -0.9899311100358136 -0.00875586945282869
9.3485390625 -0.9927788688601011 -0.005034595096058803
9.3496875 -0.9930029746456179 -0.003444604548646202
9.3508359375 -0.989647218520187 -0.008282925747536585
9.351984375 -0.9923746508956498 -0.0035147389406125495
9.3531328125 -0.9938928418301581 -0.002105106709650084
9.35428125 -0.9915886088888524 -0.007279586327262777
9.3554296875 -0.9938977446489673 -0.003462375505252413
9.356578125 -0.99323821655507 -0.0017451152682452786
9.3577265625 -0.9930163849474039 -0.0015202555774610493
9.358875 -0.991183340660247 -0.0032872328313670596
9.3600234375 -0.9918732013158637 -0.0008782723436054352
9.361171875 -0.991026501813999 0.00041286848441079993
9.3623203125 -0.9916194922412173 -0.0034061508824274056
9.36346875 -0.9916986853186667 -4.7510556722141217e-07
9.3646171875 -0.9919128054897912 0.0027509743149127797
9.365765625 -0.9909124359640549 -0.0034422729058807833
9.3669140625 -0.9916897698300521 0.0031099634255496444
9.3680625 -0.9908243493321003 0.003976732027951291
9.3692109375 -0.9903636131700642 -0.0003777044611202318
9.370359375 -0.9912611477076582 0.0018760760533644283
9.3715078125 -0.9907791074300922 0.0035357499600092157
9.37265625 -0.9897092593023912 0.003242974552104372
9.3738046875 -0.9915023503818993 0.0024702588839620176
9.374953125 -0.9919364547319925 0.0050805675889912805
9.3761015625 -0.9913804319609106 0.006151278127830007
9.37725 -0.9916839945230213 0.0018994587304401178
9.3783984375 -0.9922155166112541 0.007276302370796128
9.379546875 -0.9929930917864114 0.00709049833562439
9.3806953125 -0.9919873791908453 0.000884040518610435
9.38184375 -0.9924416202863189 0.005538839786887573
9.3829921875 -0.9921532376562118 0.006724430108332846
9.384140625 -0.9919341198380618 0.0034616920044780175
9.3852890625 -0.992841388501556 0.004535973239435387
9.3864375 -0.9920030490193477 0.007514203658213259
9.3875859375 -0.9922324113201747 0.007269401625515454
9.388734375 -0.9925277057006662 0.0032958831214356943
9.3898828125 -0.9933693371523249 0.005586868287931646
9.39103125 -0.9929835337670132 0.007630610771308888
9.3921796875 -0.992182096852961 0.0010383330462475082
9.393328125 -0.992344442283594 0.006657929501237059
9.3944765625 -0.9932038310687885 0.007301194356621937
9.395625 -0.9926117872302912 0.001685592903255373
9.3967734375 -0.9926157391240213 0.006385112258433329
9.397921875 -0.9935562437362623 0.007993339836365632
9.3990703125 -0.9929837026616903 0.004517900712871392
9.40021875 -0.9926733950216357 0.0034890140605314812
9.4013671875 -0.9930053203064502 0.007445034673654316
9.402515625 -0.9926964655559857 0.007208985562889819
9.4036640625 -0.9922831259344732 0.0025175216613745888
9.4048125 -0.9939524523368569 0.005938660419158387
9.4059609375 -0.991617473244301 0.006538973179965851
9.407109375 -0.9934959693081158 0.0006238512178548816
9.4082578125 -0.9938073614442303 0.0067212421275544
9.40940625 -0.9942687305848863 0.006294196217846021
9.4105546875 -0.9925754402838837 0.0024851716231463206
9.411703125 -0.9946500073789639 0.003539512861681998
9.4128515625 -0.9935510719946761 0.00543966719977898
9.414 -0.9944759072993293 0.0067601987144653986
9.4151484375 -0.994507152275999 0.003018874383954928
9.416296875 -0.9943976785614597 0.00501614394749289
9.4174453125 -0.9939647589588616 0.007118826305437087
9.41859375 -0.9951354817699813 0.000886127970584849
9.4197421875 -0.9949478512595177 0.005610723937868101
9.420890625 -0.9942102666199046 0.007910972917909515
9.4220390625 -0.992564243304491 0.0008809076875212207
9.4231875 -0.9937394342945497 0.005361885119127691
9.4243359375 -0.9950597258573077 0.0075885951551242226
9.425484375 -0.9948008479411009 0.0036863137828060666
9.4266328125 -0.994102536183562 0.0034029351164256982
9.42778125 -0.9940582612265881 0.006205658598634478
9.4289296875 -0.99436605971392 0.006301690320612396
9.430078125 -0.9944519719400583 0.0022418603568940543
9.4312265625 -0.9942887310549139 0.003906487617822835
9.432375 -0.9936605636912325 0.006104563613156672
9.4335234375 -0.9936226060869677 -0.0007890710530663314
9.434671875 -0.9943828652183384 0.0041062112504779424
9.4358203125 -0.9946900846513657 0.005594146669632372
9.43696875 -0.9929363589793297 0.0021792796571438178
9.4381171875 -0.993620086718094 0.005501033373779385
9.439265625 -0.9924043950705906 0.007037681868769574
9.4404140625 -0.9930013757980296 0.0044570317143960425
9.4415625 -0.9930569048745764 0.003131061602279883
9.4427109375 -0.9931225211946866 0.005543963874110963
9.443859375 -0.9921420354395315 0.006086910239428145
9.4450078125 -0.9922805672974564 0.001754813561417351
9.44615625 -0.9925489969774612 0.0055206472132020845
9.4473046875 -0.9929894937529221 0.005809036849138749
9.448453125 -0.9928624066013149 0.0009512223326005875
9.4496015625 -0.9934271468180753 0.005171577445722664
9.45075 -0.9929038516089707 0.006503636651305267
9.4518984375 -0.9924333279172523 0.003771723632297941
9.453046875 -0.9927723380421497 0.005501720288272949
9.4541953125 -0.9940698060544209 0.006704505599153032
9.45534375 -0.992581975931695 0.0065439363092928415
9.4564921875 -0.9935935063596454 0.00432236582879697
9.457640625 -0.9941546773029577 0.008392796769881417
9.4587890625 -0.993656057067993 0.009669638313103246
9.4599375 -0.993478003911277 0.0030813456461452615
9.4610859375 -0.99442806974278 0.008611044064143258
9.462234375 -0.9940431518647138 0.01045998141299187
9.4633828125 -0.9920137271600875 0.004950202298026285
9.46453125 -0.9926103278012158 0.00588606061966207
9.4656796875 -0.9933589965648271 0.010526064639083177
9.466828125 -0.9935781140946582 0.008124891755370733
9.4679765625 -0.9934963391635161 0.008263942691616344
9.469125 -0.9938708694703031 0.009757806724783491
9.4702734375 -0.9950930680228353 0.011058714816392368
9.471421875 -0.9950295765619785 0.005673382759247614
9.4725703125 -0.9962237928827509 0.00825441763632978
9.47371875 -0.9965259890283991 0.010648977264536952
9.4748671875 -0.9947585405299363 0.004111482694416191
9.476015625 -0.9955321526447741 0.007382646952465988
9.4771640625 -0.996316794842113 0.00999716431122799
9.4783125 -0.994957626511255 0.004152467360694467
9.4794609375 -0.9944682274011216 0.00808371401935054
9.480609375 -0.9954269462226374 0.009211114776479068
9.4817578125 -0.9943721079556009 0.007844540851402515
9.48290625 -0.9942111444009711 0.00447206619739654
9.4840546875 -0.9942843549395197 0.009652189777912157
9.485203125 -0.9973742348983725 0.012295553803089998
9.4863515625 -0.9945942037300524 0.003798954942532129
9.4875 -0.9965881349009309 0.012030583847432608
9.4886484375 -0.9956433081090033 0.011326270023851559
9.489796875 -0.9920336799091304 0.007095518038793602
9.4909453125 -0.9953791374228373 0.009447646674956567
9.49209375 -0.9946484811403755 0.011959135446933944
9.4932421875 -0.994969842133082 0.008102562961519622
9.494390625 -0.9955078213816481 0.008131491647010602
9.4955390625 -0.9952213742586615 0.011898031002069986
9.4966875 -0.9950081243410202 0.009589519803053448
9.4978359375 -0.9945123671237506 0.0076402373923373235
9.498984375 -0.9960873775860755 0.010163395429476363
9.5001328125 -0.9958213978488206 0.011349464390262853
9.50128125 -0.9952809120801949 0.004723247424624155
9.5024296875 -0.994838693312606 0.009839098066229512
9.503578125 -0.9951592856554086 0.011937628556212332
9.5047265625 -0.9957733247349292 0.005928732412114723
9.505875 -0.9951051834231255 0.008950549176665545
9.5070234375 -0.995482500309013 0.011870572874439433
9.508171875 -0.9928691202130964 0.011056229941028617
9.5093203125 -0.9945376262970091 0.008560045512990722
9.51046875 -0.9957170165809579 0.011544026203209157
9.5116171875 -0.9956017454008641 0.012351556161752597
9.512765625 -0.9939821944247897 0.004288858950899088
9.5139140625 -0.993855756032134 0.009174696395114701
9.5150625 -0.9953419428466588 0.010504456059271639
9.5162109375 -0.9937339325992061 0.005287825474275809
9.517359375 -0.9941179079505655 0.009966147971793127
9.5185078125 -0.9947263732095691 0.011646431513222755
9.51965625 -0.9946099115485163 0.008780457853884982
9.5208046875 -0.9943473072587332 0.009554478650804
9.521953125 -0.9944079089193172 0.012775985449998695
9.5231015625 -0.9942693822774279 0.012206303300487331
9.52425 -0.99529824700106 0.008580281581583138
9.5253984375 -0.9945000116938252 0.01255507038951581
9.526546875 -0.9955476968550416 0.014692138858441062
9.5276953125 -0.9945805813967555 0.006206475376460907
9.52884375 -0.9942831430655362 0.012859253439029383
9.5299921875 -0.9947437014239622 0.014769791468001947
9.531140625 -0.993237691139739 0.007589086925850863
9.5322890625 -0.9944215969517574 0.011455397565495185
9.5334375 -0.9951368763926501 0.012581975376866561
9.5345859375 -0.9949260003706121 0.01074293564547274
9.535734375 -0.9954022312488375 0.010334585809766594
9.5368828125 -0.9953633918400387 0.013088100797271629
9.53803125 -0.9952390089492038 0.013135911597443761
9.5391796875 -0.9950725192085497 0.009153917602360173
9.540328125 -0.996407420492443 0.013171231271493389
9.5414765625 -0.9964362129361753 0.014338346651766976
9.542625 -0.9960158738048308 0.007952927553852795
9.5437734375 -0.9965126163102024 0.013013196063958177
9.544921875 -0.9953978341015358 0.013808598376941206
9.5460703125 -0.9950138961866465 0.010239743906688858
9.54721875 -0.9951593220967706 0.011343083015179278
9.5483671875 -0.9967217113455025 0.012726594035538275
9.549515625 -0.9966085545150696 0.012548100975749987
9.5506640625 -0.9968359414833916 0.009492264532382444
9.5518125 -0.9968774356291301 0.013548301754908176
9.5529609375 -0.9960108488259805 0.015246723685904517
9.554109375 -0.9964358704186546 0.00684093006542269
9.5552578125 -0.9959227556829491 0.011616287354484223
9.55640625 -0.9961123360094319 0.013995795122764054
9.5575546875 -0.9956703175056117 0.00910161304511492
9.558703125 -0.9959484041620428 0.012199953052771995
9.5598515625 -0.9969774628872565 0.013923893049510971
9.561 -0.9968406548998714 0.010691045918971964
9.5621484375 -0.9972739521642033 0.011648847277551
9.563296875 -0.9971189307818321 0.015595514943305133
9.5644453125 -0.9971767566988525 0.01558481312277199
9.56559375 -0.9968173182838581 0.011368817938571307
9.5667421875 -0.9964315225053606 0.01398057419849219
9.567890625 -0.9971535647695464 0.016187792756107988
9.5690390625 -0.9956277486521197 0.008429467954068737
9.5701875 -0.9972158735837507 0.013512738654300027
9.5713359375 -0.9971643048434666 0.015937211938162277
9.572484375 -0.9958743894591323 0.010034001609022292
9.5736328125 -0.9961206405992341 0.011240210411894769
9.57478125 -0.9962144592432804 0.015641796556344456
9.5759296875 -0.9959604018540992 0.013262064257940187
9.577078125 -0.9969920173057154 0.011182523841588687
9.5782265625 -0.9974886261937019 0.014062376683469269
9.579375 -0.9972165568658585 0.015492990551941421
9.5805234375 -0.9965736957555553 0.007710606290615263
9.581671875 -0.9976716751809933 0.014090752379599586
9.5828203125 -0.9966884205726092 0.014221150666344134
9.58396875 -0.9954371544212212 0.007873718957115722
9.5851171875 -0.9966095286506043 0.012336692399882637
9.586265625 -0.9959981623036542 0.014179929512724287
9.5874140625 -0.9960358645105346 0.011100040874919226
9.5885625 -0.9962549923949242 0.010809721155891766
9.5897109375 -0.9970723891536417 0.013690778240047802
9.590859375 -0.996084316508873 0.014026685148388451
9.5920078125 -0.9954852542061778 0.00871828709015135
9.59315625 -0.9951939276699255 0.013790468838805081
9.5943046875 -0.9963866110351696 0.01405495397897033
9.595453125 -0.9945116462576 0.005967251286970343
9.5966015625 -0.9949408570459187 0.013222853138124019
9.59775 -0.9955699232850048 0.013655340874013211
9.5988984375 -0.9950207736667318 0.00888762252083325
9.600046875 -0.9951109574042295 0.011454495086034328
9.6011953125 -0.9956494317241011 0.013521301286365917
9.60234375 -0.994434738864155 0.01078024841516892
9.6034921875 -0.993742813179461 0.010260333349978973
9.604640625 -0.9939098735795171 0.01333207138583914
9.6057890625 -0.9940189545864642 0.015662813243273455
9.6069375 -0.9929535423281617 0.0075330129547567515
9.6080859375 -0.9938850564289288 0.014249408354501752
9.609234375 -0.9947385040171453 0.015318562623313603
9.6103828125 -0.9930002953408854 0.00822865439774259
9.61153125 -0.9937494291678056 0.012783916003779289
9.6126796875 -0.9938746801187318 0.015224516416916828
9.613828125 -0.9935161797879966 0.009122056330427758
9.6149765625 -0.9954596787002022 0.011738212373856804
9.616125 -0.9940430449447824 0.014662474674779533
9.6172734375 -0.9944025416258467 0.014679769486968655
9.618421875 -0.9940678583390739 0.010850483672535965
9.6195703125 -0.9937476436164714 0.013992779930679627
9.62071875 -0.9935637774838441 0.017095061267048184
9.6218671875 -0.9924345787521427 0.007168571095686166
9.623015625 -0.9931810939431128 0.015461724439193483
9.6241640625 -0.9941224954031657 0.015917125816018493
9.6253125 -0.9927157278333918 0.009531634706042388
9.6264609375 -0.9929598476173797 0.014379486752640933
9.627609375 -0.9943778202481417 0.016597537141209567
9.6287578125 -0.9933226762446762 0.013942075971145357
9.62990625 -0.9936059393164576 0.014159312038818456
9.6310546875 -0.9945953064867793 0.016083254243642042
9.632203125 -0.9946788052018942 0.016571784944939966
9.6333515625 -0.9948795270458857 0.010275617490087291
9.6345 -0.9956713329848911 0.01625886864516629
9.6356484375 -0.9956039077964938 0.016400281015648457
9.636796875 -0.9938941928141272 0.008027828882888763
9.6379453125 -0.9956364503688858 0.014500537631662702
9.63909375 -0.9965103774798403 0.016956781470120655
9.6402421875 -0.994421559894969 0.01164697074391477
9.641390625 -0.9949622212641197 0.013816521155040534
9.6425390625 -0.995923742695405 0.017576959977150558
9.6436875 -0.996227868466351 0.014811217992778472
9.6448359375 -0.9957702910587258 0.012973202426953961
9.645984375 -0.9963845422520078 0.016451939368020335
9.6471328125 -0.996906053276253 0.017434022862191534
9.64828125 -0.9964765130331452 0.010087828796378817
9.6494296875 -0.9975758909496357 0.015034714377821279
9.650578125 -0.9972796490780255 0.016774211362807517
9.6517265625 -0.9961440117512013 0.008883906124742852
9.652875 -0.996883031764195 0.015365980515126651
9.6540234375 -0.9980600591844342 0.017093431154025188
9.655171875 -0.995728284510141 0.011798628093996955
9.6563203125 -0.9974874626763042 0.013227157671915568
9.65746875 -0.9970941762985668 0.016757144475768898
9.6586171875 -0.9978898605425002 0.017724305300183305
9.659765625 -0.9959784002539191 0.01121999774390714
9.6609140625 -0.9968429873183019 0.0163478114354966
9.6620625 -0.9973079509794407 0.017039195752168168
9.6632109375 -0.9954548612469725 0.00759677782296872
9.664359375 -0.9964003604808661 0.014694571063951778
9.6655078125 -0.9983568344284339 0.01649979137515925
9.66665625 -0.9969426502292602 0.010008293833852822
9.6678046875 -0.997724909261646 0.013313552757472216
9.668953125 -0.9975695798368254 0.016305317226960797
9.6701015625 -0.9971876986882837 0.013252019556918015
9.67125 -0.9976713652950275 0.011480848558500845
9.6723984375 -0.9978274327755958 0.014480027312376131
9.673546875 -0.9972561355284103 0.01676809366549703
9.6746953125 -0.9962314474587852 0.00931909903457448
9.67584375 -0.9972117076613763 0.014404658076080296
9.6769921875 -0.9978465021213317 0.01651040113070637
9.678140625 -0.9954731681683185 0.007164409181210696
9.6792890625 -0.9974727750884045 0.01297926429337462
9.6804375 -0.9976705612215016 0.015453079335676356
9.6815859375 -0.9952009167571082 0.010063003917862162
9.682734375 -0.9961191159317422 0.012548506647092145
9.6838828125 -0.9965866645437709 0.014947604894183036
9.68503125 -0.9963215083672015 0.013973903423328188
9.6861796875 -0.9960942288461232 0.0093755638696362
9.687328125 -0.9957325171235702 0.013946889090513753
9.6884765625 -0.9967479336902298 0.015617308600363144
9.689625 -0.9949427458707949 0.005521045986302736
9.6907734375 -0.9966706748155945 0.013088205479218712
9.691921875 -0.9966483747678183 0.014390097808518743
9.6930703125 -0.9952893150557243 0.006883893293654381
9.69421875 -0.9956337820137042 0.01214001377788726
9.6953671875 -0.9970632313845136 0.014054437044697554
9.696515625 -0.9961817468083518 0.010175323612667903
9.6976640625 -0.9962155827282184 0.010548180480633024
9.6988125 -0.9963581858853582 0.014998029438587968
9.6999609375 -0.9964667108384575 0.015188334392702146
9.701109375 -0.9950537576934179 0.008285224863294832
9.7022578125 -0.9955146976891347 0.013856501326039689
9.70340625 -0.9971657562176359 0.015029008986481268
9.7045546875 -0.9946127936159253 0.005101412765268293
9.705703125 -0.9961962216952926 0.013228606158887185
9.7068515625 -0.9976664375256277 0.014177807521395358
9.708 -0.9960302916835687 0.008096297761477939
9.7091484375 -0.9966417096724977 0.011746756891781035
9.710296875 -0.9979014347446713 0.01344504780480879
9.7114453125 -0.9966201537389083 0.011041380766598191
9.71259375 -0.9971308708396378 0.010517892431216286
9.7137421875 -0.9984286402394459 0.014087653134216421
9.714890625 -0.9989757460145803 0.014921522361817208
9.7160390625 -0.9971876637271172 0.005994248369372457
9.7171875 -0.9980296491042917 0.013554403252521136
9.7183359375 -0.9988087768279634 0.01470918081131839
9.719484375 -0.9967767938637365 0.006919068171623938
9.7206328125 -0.998402260270115 0.013200443971842668
9.72178125 -0.9990710517876608 0.015704437753438993
9.7229296875 -0.9985713712309807 0.010448147631026278
9.724078125 -0.998746624407421 0.011925171785451577
9.7252265625 -0.9987165172198621 0.014734503667991644
9.726375 -0.9987432583211356 0.012180104581662715
9.7275234375 -0.997517769533433 0.009206500638601955
9.728671875 -0.9983495133903977 0.013884449269443405
9.7298203125 -0.9995697195775279 0.01480827589589015
9.73096875 -0.9969329152275699 0.004874368831799314
9.7321171875 -0.9994425068240719 0.012514872070691407
9.733265625 -1.000100919607484 0.01461427489407191
9.7344140625 -0.9981684990284931 0.0070224149017101
9.7355625 -0.9991169936857736 0.011506831571019366
9.7367109375 -0.9998675919932449 0.014855100557424394
9.737859375 -0.9993632974048684 0.011502300037957325
9.7390078125 -0.9984574284605491 0.009188569672088268
9.74015625 -0.9999557824929015 0.012709850768162362
9.7413046875 -1.0006031535630804 0.014569220734458724
9.742453125 -0.9984273898954601 0.006810315025960342
9.7436015625 -1.0007822944952096 0.012921745469128748
9.74475 -1.0015462957517562 0.014062827070454254
9.7458984375 -1.0001105487414168 0.005624231174325381
9.747046875 -1.0008340806458242 0.01207376674374698
9.7481953125 -1.0019542258770384 0.014067628784012895
9.74934375 -1.001109670727839 0.008406468627818822
9.7504921875 -1.0011219697224953 0.011489199785436582
9.751640625 -1.0011838943254996 0.014173054062107449
9.7527890625 -1.0017842491258764 0.013513192228128912
9.7539375 -1.000420968598399 0.009580646280528127
9.7550859375 -1.0013475221670274 0.01448310439274346
9.756234375 -1.0014176240857648 0.015538550811976845
9.7573828125 -0.9998092570426471 0.005711166530718612
9.75853125 -1.0012133349292347 0.01309177493234516
9.7596796875 -1.0022004104719586 0.015848915172087072
9.760828125 -1.0000580010340965 0.008649633517381586
9.7619765625 -1.001241148857079 0.012592966964281568
9.763125 -1.0021204919486375 0.014736787127565043
9.7642734375 -1.0010585016240179 0.011650553085161233
9.765421875 -1.0016361144382013 0.01050614795086137
9.7665703125 -1.0024136002005948 0.015566093998604674
9.76771875 -1.002871007567273 0.01666622853580635
9.7688671875 -1.0006083960416265 0.008620281273025152
9.770015625 -1.0018975084903992 0.014370611941705719
9.7711640625 -1.0033528672323513 0.016323517370055746
9.7723125 -1.0007401281444013 0.0059942641466546875
9.7734609375 -1.0027291182827527 0.013787306338419653
9.774609375 -1.003003348376885 0.01597082680310946
9.7757578125 -1.0013643373401588 0.009366827342652984
9.77690625 -1.001883704514201 0.013025692023802965
9.7780546875 -1.0024457781296137 0.0153648569837323
9.779203125 -1.00248407293359 0.015229550019546317
9.7803515625 -1.0012649478998985 0.010742927748687986
9.7815 -1.0022050414338248 0.015844222117385537
9.7826484375 -1.0022199771017248 0.016898821262772423
9.783796875 -1.0011422554888454 0.006692791855945623
9.7849453125 -1.0024640735150976 0.015300801317680413
9.78609375 -1.0020036286543126 0.01693937286336686
9.7872421875 -1.000403408621497 0.008430483812248146
9.788390625 -1.0019596848037997 0.014027669688158967
9.7895390625 -1.0023759993858077 0.016206207632078806
9.7906875 -1.001990432077592 0.011122635165793343
9.7918359375 -1.00126919357943 0.012374039394899172
9.792984375 -1.002258159591496 0.015172041054028362
9.7941328125 -1.0039386351098833 0.01723549969347743
9.79528125 -1.002212533356976 0.009507268200404817
9.7964296875 -1.0034906596355515 0.01487432920247328
9.797578125 -1.0031531314844806 0.016649121519571763
9.7987265625 -1.0015731312502494 0.0069788680832850725
9.799875 -1.0022137443479102 0.014787842268273288
9.8010234375 -1.0033309248950584 0.016948137095469717
9.802171875 -1.0017576222623477 0.010236707535851597
9.8033203125 -1.0020019236077242 0.013934598834212886
9.80446875 -1.0027979362396502 0.01633980011058067
9.8056171875 -1.0026975197072596 0.01351031857842927
9.806765625 -1.0015062916625566 0.011803596462166999
9.8079140625 -1.0024585924129645 0.016143778632972117
9.8090625 -1.0031823459951068 0.016840381507384317
9.8102109375 -1.0012040538964564 0.00759604529758906
9.811359375 -1.0025421971156492 0.0147539235306815
9.8125078125 -1.0034294272179687 0.01611837416395867
9.81365625 -1.001961518445482 0.006718370958963993
9.8148046875 -1.0029340741913524 0.01350213318918242
9.815953125 -1.003940124321114 0.015658574657537228
9.8171015625 -1.0027434464760168 0.010187947497800165
9.81825 -1.0020574097097135 0.012206482704150201
9.8193984375 -1.0034420475710837 0.01566662048059758
9.820546875 -1.003896583836218 0.015886187121404438
9.8216953125 -1.0026387588775787 0.00972101140194731
9.82284375 -1.0028375794043756 0.014364042327500381
9.8239921875 -1.0040318053612043 0.015766615738547318
9.825140625 -1.0022556649209848 0.005477738758036366
9.8262890625 -1.0034818467885325 0.014041971250093821
9.8274375 -1.0043466966312995 0.015714876987572735
9.8285859375 -1.0024756870243121 0.008269789213982748
9.829734375 -1.002583983318825 0.013077314860610423
9.8308828125 -1.0029292366707043 0.015272216547781436
9.83203125 -1.0024283828801857 0.01020432677606009
9.8331796875 -1.0021094960291914 0.0107280400047578
9.834328125 -1.0025599040414237 0.01416063932416145
9.8354765625 -1.0033140719306042 0.014973879568481674
9.836625 -1.0015298084408237 0.005255152720146317
9.8377734375 -1.002325245271418 0.012825453478496396
9.838921875 -1.0033710537966072 0.014155996772035384
9.8400703125 -1.0015210641121999 0.005599503921084437
9.84121875 -1.0030746947930917 0.012179906387679185
9.8423671875 -1.0041809567939635 0.013282611980478587
9.843515625 -1.0016837341393465 0.006774012911837435
9.8446640625 -1.0024621570523218 0.010638549373254425
9.8458125 -1.0032430038976339 0.013201244591441952
9.8469609375 -1.0035305433332058 0.011367576959240733
9.848109375 -1.0027240034343639 0.00822219912966507
9.8492578125 -1.0027602242244962 0.012810360052646408
9.85040625 -1.0034542342576955 0.013439245655728044
9.8515546875 -1.0022361309240022 0.0034443514738665693
9.852703125 -1.003618124568064 0.010950722882706404
9.8538515625 -1.0045364277041684 0.013143979898349367
9.855 -1.0025445312577597 0.004261141925628875
9.8561484375 -1.0032925891300697 0.010243722193621074
9.857296875 -1.0043189780382067 0.012037443951633114
9.8584453125 -1.003558373125127 0.006666806556271804
9.85959375 -1.003870063420409 0.008958728229346263
9.8607421875 -1.0053766470887697 0.011889201970436414
9.861890625 -1.00519094339274 0.013198668005642261
9.8630390625 -1.00290144376323 0.005267312682067732
9.8641875 -1.004466543142304 0.010675696733268458
9.8653359375 -1.0054912407913568 0.012194063219995332
9.866484375 -1.0044917053063422 0.002269724552823732
9.8676328125 -1.0057712993174972 0.01003606325133749
9.86878125 -1.006213975057933 0.01054555871075652
9.8699296875 -1.0049131461908445 0.0030047304936749453
9.871078125 -1.0062107174665735 0.007277118492578283
9.8722265625 -1.0069662206961647 0.010976814757318404
9.873375 -1.0068911316320852 0.007430523269302408
9.8745234375 -1.0078246955203163 0.006349603958216904
9.875671875 -1.009331682544118 0.010706035407858944
9.8768203125 -1.0104707777639597 0.011934306793713045
9.87796875 -1.0086308319141952 0.004200723797723266
9.8791171875 -1.0100880104550072 0.01077244183668799
9.880265625 -1.011023861714528 0.012021729336643139
9.8814140625 -1.0089404244023361 0.0029703289312187076
9.8825625 -1.0111951491475488 0.010310231028359651
9.8837109375 -1.01275005528492 0.012922158175138615
9.884859375 -1.0116810063394346 0.005963966508193308
9.8860078125 -1.0119540175377209 0.00912304972703995
9.88715625 -1.0131235004033183 0.013234289746312466
9.8883046875 -1.0135320781935426 0.013060049903754894
9.889453125 -1.0120449654582215 0.00811570286571972
9.8906015625 -1.0127123572372962 0.013550030262202972
9.89175 -1.013703574980621 0.014513155424336455
9.8928984375 -1.010977326573741 0.004363224924299608
9.894046875 -1.0124851891271303 0.013114445763174304
9.8951953125 -1.0136582946746389 0.015273940703027261
9.89634375 -1.012217139846444 0.0073507710742030385
9.8974921875 -1.012239864743968 0.012481228282487128
9.898640625 -1.0133324077242847 0.015618524667595501
9.8997890625 -1.0123375690137602 0.010526999130800296
9.9009375 -1.0119428945652662 0.010819756912368389
9.9020859375 -1.0135950819914659 0.015260393426264118
9.903234375 -1.014720450711762 0.016678562252092966
9.9043828125 -1.0129228668884207 0.00837932165425681
9.90553125 -1.014323475802041 0.015368814075451959
9.9066796875 -1.01554969644046 0.016498104329368962
9.907828125 -1.0131362718316588 0.006857876800959312
9.9089765625 -1.0138125862735254 0.014825616011190035
9.910125 -1.0150346006642752 0.01712019593768188
9.9112734375 -1.0144340867296657 0.010308378888985559
9.912421875 -1.0141975417877842 0.013432547883190094
9.9135703125 -1.0161465274996635 0.017725775603813332
9.91471875 -1.016296078108775 0.015644340395600642
9.9158671875 -1.0142051026191334 0.01218331589796734
9.917015625 -1.0161178400744668 0.01786044698781397
9.9181640625 -1.016777397733141 0.019006462258077117
9.9193125 -1.0134872540348012 0.008289356380293877
9.9204609375 -1.0159885544536653 0.01791788161933766
9.921609375 -1.0170845109170252 0.01948399499096981
9.9227578125 -1.014643313238263 0.01128285655823652
9.92390625 -1.0161323619501996 0.018069210395338597
9.9250546875 -1.016981976346386 0.020474683350554135
9.926203125 -1.0163442124129405 0.01497699040561662
9.9273515625 -1.0151184320358715 0.01777474673074908
9.9285 -1.016327662818332 0.021008201510980096
9.9296484375 -1.0172109987104165 0.022194369345778786
9.930796875 -1.0143082354201796 0.013993306694578378
9.9319453125 -1.0161905460843765 0.02128817368405278
9.93309375 -1.017000823270678 0.023103077028087005
9.9342421875 -1.0145681768112416 0.012848596191457229
9.935390625 -1.015333995309612 0.022120392080955176
9.9365390625 -1.0162514370306182 0.024214482784046698
9.9376875 -1.0152326110571799 0.017069010831405995
9.9388359375 -1.0150013166989837 0.02298381993869647
9.939984375 -1.0168685288734707 0.02583158519441925
9.9411328125 -1.0156780193955393 0.022034042428268674
9.94228125 -1.0143977476407704 0.020712297899749876
9.9434296875 -1.0149193297564993 0.02628158000024805
9.944578125 -1.0152621454300168 0.027497199883633472
9.9457265625 -1.0129506382744844 0.01775881805495866
9.946875 -1.0155396196592519 0.026991047399525403
9.9480234375 -1.0155506427662107 0.029642069333410015
9.949171875 -1.0129531441075932 0.02020720130479542
9.9503203125 -1.0139222258161047 0.02748577739471597
9.95146875 -1.0134500809690912 0.02990747484395445
9.9526171875 -1.0106919051054983 0.02155170933622963
9.953765625 -1.0098784124021787 0.018461415651698176
9.9549140625 -1.0106056854771177 0.02780365067673224
9.9560625 -1.01175487698622 0.029498947276043075
9.9572109375 -1.0119681211873814 0.03080039301746429
9.958359375 -1.0116982795393985 0.03193716987318651
9.9595078125 -1.0120721102642187 0.03237068106437957
9.96065625 -1.0084117146990823 0.024872407693176224
9.9618046875 -1.0080851545461709 0.029435169928719085
9.962953125 -1.008560729180636 0.032081192337319764
9.9641015625 -1.0065161880524172 0.027363309710751182
9.96525 -1.0055732376367403 0.027794183498824898
9.9663984375 -1.0070355895686371 0.031212853266722296
9.967546875 -1.0068093747069178 0.0325555317066577
9.9686953125 -1.0029760395974425 0.02489085947682146
9.96984375 -1.004118775585755 0.029959293652702113
9.9709921875 -1.0048690271019631 0.032319357421745076
9.972140625 -1.0012001699056525 0.02189571207590235
9.9732890625 -1.0035782541346348 0.029403749610715457
9.9744375 -1.002702693782721 0.031635469825222584
9.9755859375 -1.000371102690384 0.023013770879719786
9.976734375 -1.0003621186740221 0.026682395997260966
9.9778828125 -1.00142049846179 0.030001206498912913
9.97903125 -1.0016383526084385 0.02688374385898673
9.9801796875 -0.998842345851419 0.023549824975784173
9.981328125 -0.9992236169698724 0.028988810900649864
9.9824765625 -1.0000317439329567 0.029781374887410172
9.983625 -0.9961319867996024 0.020339301153202705
9.9847734375 -0.9961576252250586 0.03001871855007776
9.985921875 -0.9979755448725716 0.030411417415358133
9.9870703125 -0.995241565425564 0.02181700480569504
9.98821875 -0.9965074228410049 0.027943982146387714
9.9893671875 -0.9960057407140241 0.028614783447922676
9.990515625 -0.9947777539288117 0.024213189094776433
9.9916640625 -0.9936038826613063 0.023725458952875367
9.9928125 -0.9941061482607672 0.02773923370334319
9.9939609375 -0.9943119611079096 0.028150470028073582
9.995109375 -0.9914941215772802 0.01922295221280279
9.9962578125 -0.9931293349018875 0.02476598285897036
9.99740625 -0.9933669032391955 0.024469154534940807
9.9985546875 -0.9901881128853223 0.014202200011814048
9.999703125 -0.9908293919419717 0.02179009908179297
10.0008515625 -0.9895004620900858 0.014747083185425947
10.002 -0.9912082452958444 0.02085380720060137
10.0031484375 -0.993266667623961 0.021536670567567806
10.004296875 -0.9897438638129865 0.010861448779697747
10.0054453125 -0.9908595696655524 0.018099834365236434
10.00659375 -0.9913480209753097 0.020086711948272495
10.0077421875 -0.9895371288765673 0.011754769129805664
10.008890625 -0.9898157258374887 0.015347913643907307
10.0100390625 -0.9914565374914142 0.01728254078181246
10.0111875 -0.9917454675225891 0.01616174615806021
10.0123359375 -0.9898419722727029 0.010565374694740726
10.013484375 -0.992461609295209 0.0152466114676163
10.0146328125 -0.9932957348070887 0.016328564850707772
10.01578125 -0.9899156001311626 0.006070576997259769
10.0169296875 -0.9922634970254325 0.014025657354561627
10.018078125 -0.9929164050892791 0.014979338796986097
10.0192265625 -0.9906782590354067 0.005990013455939025
10.020375 -0.9918575199336425 0.011676064397229291
10.0215234375 -0.9938031321863845 0.01242235921485113
10.022671875 -0.9914802824502742 0.007028007408978909
10.0238203125 -0.9923961016189379 0.00874643084023602
10.02496875 -0.9945035825310086 0.011886065006398439
10.0261171875 -0.9954560022105903 0.012578620212784775
10.027265625 -0.9925723677983094 0.004910361231517557
10.0284140625 -0.9956746992805487 0.009372635846308097
10.0295625 -0.9955625414788318 0.01097814455995444
10.0307109375 -0.9933452982556865 0.0015032079981462387
10.031859375 -0.9960145437813919 0.008498394953445565
10.0330078125 -0.9978269587923957 0.009523324968333358
10.03415625 -0.9955193144177126 0.002047895256129084
10.0353046875 -0.9973963116492124 0.006278385580246404
10.036453125 -0.9993969299114005 0.009207764909732963
10.0376015625 -0.9975930477720171 0.005370929594182394
10.03875 -0.9970557541284135 0.004783532603227447
10.0398984375 -0.9989433699398174 0.009043873477965592
10.041046875 -0.9995398416853287 0.008579358932640835
10.0421953125 -0.9946463093562141 -0.0003736324325871454
10.04334375 -0.9976180879552203 0.007285804998406864
10.0444921875 -0.9991602189960274 0.007290468382590343
10.045640625 -0.9965730364519809 -0.0021296426643465094
10.0467890625 -0.9979713909410682 0.006482466674416765
10.0479375 -0.9989628695837744 0.007594455679052703
10.0490859375 -0.9969069428730378 0.0018353345017652067
10.050234375 -0.9966990044911513 0.005129501299512174
10.0513828125 -0.9992555562069378 0.00702816017834812
10.05253125 -0.9997914305318989 0.008019346015946949
10.0536796875 -0.9974465215560838 0.0008965231956702402
10.054828125 -0.999858368979781 0.006991346166570878
10.0559765625 -1.0005018232598275 0.006241167690861693
10.057125 -0.996526057411766 -0.003225905163685705
10.0582734375 -0.9992722564545303 0.004463137985679155
10.059421875 -1.0010022103911298 0.005041716520720552
10.0605703125 -0.9980126591308716 -0.003106143044261822
10.06171875 -0.9978593867656584 0.00242864550336358
10.0628671875 -1.000121860055207 0.005297252397657437
10.064015625 -1.0004740228695748 0.0011681761627861942
10.0651640625 -0.9984406035985495 0.00012030441544097492
10.0663125 -1.0003633769773872 0.004162054680121319
10.0674609375 -1.0011983893121366 0.004169529766834046
10.068609375 -0.9979130179267284 -0.004156217336372614
10.0697578125 -1.0009935996391135 0.0022965721065448808
10.07090625 -1.002512118013148 0.0036245056433080736
10.0720546875 -0.9993762812949932 -0.005204032467757802
10.073203125 -1.002221720549198 0.001334925392617703
10.0743515625 -1.0032709143370955 0.003372831283557698
10.0755 -1.0005748910808792 -0.004357118450044661
10.0766484375 -1.0005469477456717 -8.692244505698055e-05
10.077796875 -1.0026238002910155 0.0014107935304596975
10.0789453125 -1.0036737347821998 0.0019051626381829112
10.08009375 -1.0004999032402335 -0.0031988861409730784
10.0812421875 -1.003714330383149 0.0017156026095346832
10.082390625 -1.0058574088459915 0.0022430469073106973
10.0835390625 -1.0014460527155307 -0.006907247383018789
10.0846875 -1.0045827895447923 0.001660216035622275
10.0858359375 -1.0057821280364152 0.0027860503317611585
10.086984375 -1.003267092461253 -0.00534596828064049
10.0881328125 -1.003690454653459 -0.00025919079573211157
10.08928125 -1.0055835656459484 0.0020898690969599065
10.0904296875 -1.0051096399257546 -0.0016608827322373565
10.091578125 -1.0046713886913334 -0.001343931382656538
10.0927265625 -1.0070649230418305 0.001065200164765856
10.093875 -1.0076279553182002 0.002912680244196053
10.0950234375 -1.0056184128373085 -0.004966965454711703
10.096171875 -1.007773769694225 0.00029361575934017115
10.0973203125 -1.009580852717328 0.0029207502512351158
10.09846875 -1.006574036214119 -0.00850774811017091
10.0996171875 -1.0089412701339735 0.00017135917937011191
10.100765625 -1.0105431126982212 0.002770787316937362
10.1019140625 -1.0081423054590988 -0.004227533879929191
10.1030625 -1.009739593741517 -0.00023130413790184434
10.1042109375 -1.0111385422000678 0.0027118984149666625
10.105359375 -1.0112251407767774 0.0005493050173274727
10.1065078125 -1.009394902083991 -0.001963182178392142
10.10765625 -1.0132790611274585 0.002753797890339249
10.1088046875 -1.012911963420523 0.0032160453086094165
10.109953125 -1.0103557791632078 -0.00532766857640099
10.1111015625 -1.0129729217435668 0.0021141637576729266
10.11225 -1.0146606738709454 0.0036572090374684674
10.1133984375 -1.0114151377570468 -0.00464867914321071
10.114546875 -1.013680244609584 0.000556852510782635
10.1156953125 -1.0147691762479047 0.0042285130628285095
10.11684375 -1.0138299769674752 -0.0006897695816568405
10.1179921875 -1.013713718133566 5.455243833696333e-05
10.119140625 -1.0157466943669953 0.0036577085836523304
10.1202890625 -1.0176804190752313 0.005137580344866666
10.1214375 -1.0143378277739872 -0.0024559901392832706
10.1225859375 -1.0152941458299773 0.0027930600052019083
10.123734375 -1.016651537588114 0.004379615041982365
10.1248828125 -1.0111012577639524 -0.005366774975534061
10.12603125 -1.0158595978583382 0.002795415404801549
10.1271796875 -1.0161941830924646 0.004536897956821773
10.128328125 -1.0124017198204238 -0.004062877293686484
10.1294765625 -1.0128975154871334 0.0020157279877872636
10.130625 -1.0147282680615652 0.004437725166689943
10.1317734375 -1.01396652596426 -0.0004416749961393407
10.132921875 -1.013361938644142 9.617218794777393e-06
10.1340703125 -1.0150365366719112 0.003293531839082209
10.13521875 -1.0163831802314571 0.005451174496744371
10.1363671875 -1.012327293515074 -0.0037946115151578086
10.137515625 -1.014816637381256 0.004695143109828992
10.1386640625 -1.0149262828561711 0.006245556515123041
10.1398125 -1.0122317177883617 -0.003079346907996827
10.1409609375 -1.0130591398176185 0.0034663356324627914
10.142109375 -1.0144685874757435 0.004492492209738352
10.1432578125 -1.0123637728215658 -0.002100054298159404
10.14440625 -1.0131811746471295 0.0008951467200766228
10.1455546875 -1.0152775133444631 0.0034297583368900764
10.146703125 -1.0150120664584477 0.0019254406355863063
10.1478515625 -1.0131614383570167 -0.0014610068709327573
10.149 -1.0151043557313706 0.0031030493082099264
10.1501484375 -1.0162921643903793 0.004758090183573205
10.151296875 -1.0116337048498796 -0.004845807170165695
10.1524453125 -1.0149779261390752 0.002306006185070042
10.15359375 -1.0165345270187958 0.004133441582550357
10.1547421875 -1.0130524281057527 -0.003639657627170223
10.155890625 -1.014381232361873 0.0024894712737075775
10.1570390625 -1.016070314094706 0.003983762759999121
10.1581875 -1.0155448157224771 -0.0003284559067081583
10.1593359375 -1.0151115630211356 0.0007646276780036709
10.160484375 -1.016930063023107 0.0034706918466158587
10.1616328125 -1.0184568130157867 0.004663702045113904
10.16278125 -1.0137797907542123 -0.0015059430428238096
10.1639296875 -1.0177308318150151 0.0043157524744085185
10.165078125 -1.0183354186478173 0.005813872964362421
10.1662265625 -1.0140647198457522 -0.003371624890757041
10.167375 -1.01581786223355 0.0036096445583967407
10.1685234375 -1.018997132682546 0.005296465753686697
10.169671875 -1.0149391530062668 -0.0011400490935578045
10.1708203125 -1.0158565791286243 0.0028016429118520314
10.17196875 -1.0173475658628381 0.005744637841401334
10.1731171875 -1.0172140720777616 0.004795189247298159
10.174265625 -1.0143598521426105 0.0009512585126285611
10.1754140625 -1.017483415292546 0.0056708223284089865
10.1765625 -1.0198310106917232 0.007479013682391122
10.1777109375 -1.0141024705324495 -0.002424912705667137
10.178859375 -1.0170226634806427 0.005601070411801468
10.1800078125 -1.0189209433449764 0.007362559730796581
10.18115625 -1.0151420887031468 -8.388261941127961e-05
10.1823046875 -1.0175450527561167 0.005716522046311234
10.183453125 -1.0191399883789822 0.007592405562043658
10.1846015625 -1.0183433003215292 0.0032982938005196027
10.18575 -1.0166210919764602 0.004314124261837193
10.1868984375 -1.018479867218718 0.008103766710445215
10.188046875 -1.020817559975928 0.009518334615629342
10.1891953125 -1.0157219547169956 0.0014866562100961378
10.19034375 -1.018920116173318 0.005988540497783745
10.1914921875 -1.0199437958827158 0.01006536279600434
10.192640625 -1.0157484068205065 -0.0016948374293065394
10.1937890625 -1.0189473540637368 0.006107181798717942
10.1949375 -1.0203123032680048 0.007609507395712534
10.1960859375 -1.0161312724200995 0.0014624953546334973
10.197234375 -1.0170823933981632 0.006987422270869126
10.1983828125 -1.01810345005298 0.008765022524348631
10.19953125 -1.0173970410270876 0.004373841833363423
10.2006796875 -1.0156353089739205 0.001947677841460993
10.201828125 -1.0180652827419439 0.006397517186511492
10.2029765625 -1.0190193506498948 0.007370046087528226
10.204125 -1.0158468129878984 -0.0004688051765524559
10.2052734375 -1.017754634483261 0.005854103104896979
10.206421875 -1.0192753397364367 0.006789595277331584
10.2075703125 -1.0154784355160078 -0.0030252436082258694
10.20871875 -1.0180158393832355 0.003609177305790967
10.2098671875 -1.0190604159528798 0.005766034142605292
10.211015625 -1.0177836413360695 -0.0004842372434227804
10.2121640625 -1.0169270549968725 0.0014862966568671143
10.2133125 -1.0173026298790604 0.004688590045097363
10.2144609375 -1.0184270565859495 0.003378488662086898
10.215609375 -1.0166889119967588 -0.0029449933748534884
10.2167578125 -1.0201776016984865 0.0029207382752499123
10.21790625 -1.0203667295361631 0.0034150426746728524
10.2190546875 -1.0163212478734645 -0.006616098793878034
10.220203125 -1.0196695909184992 0.001178172637748609
10.2213515625 -1.0218697875715592 0.0028398915366761313
10.2225 -1.0179071643893565 -0.002865739409236845
10.2236484375 -1.020105442617218 0.0012011187665711964
10.224796875 -1.0227779387886642 0.0028643690270789834
10.2259453125 -1.0216475383172456 0.00026770397223319087
10.22709375 -1.0197264767100853 -0.001448195947746811
10.2282421875 -1.0214256529919887 0.004356692865433831
10.229390625 -1.0234675096839005 0.0044847996254878675
10.2305390625 -1.0181338033020149 -0.0032163907797850833
10.2316875 -1.0219266641876397 0.00423639767230799
10.2328359375 -1.0229554003636685 0.004794515221778539
10.233984375 -1.0185474212383698 -0.0042453930066917445
10.2351328125 -1.0207433170844353 0.004088468046119342
10.23628125 -1.0222144360735785 0.006091499818608237
10.2374296875 -1.0194784102970518 -5.9757595711029676e-05
10.238578125 -1.0206059333915238 0.0030083741423185817
10.2397265625 -1.023477770607111 0.006961031516850513
10.240875 -1.021941711412831 0.00371995482966353
10.2420234375 -1.019402163222947 0.0006064259357390078
10.243171875 -1.0219280844189518 0.00508494497815104
10.2443203125 -1.0226294453413232 0.005873702027726968
10.24546875 -1.0176730472911841 -0.004300214408035519
10.2466171875 -1.0208321884174003 0.0036811694657186145
10.247765625 -1.0234894291340053 0.004527729587351814
10.2489140625 -1.0196745210902056 -0.0025929219763862754
10.2500625 -1.0211038801613497 0.0034349218170410256
10.2512109375 -1.0229825861505875 0.004940366060123325
10.252359375 -1.020086817947755 5.740114812957664e-05
10.2535078125 -1.0202233456777954 0.000911529209542683
10.25465625 -1.023547828383983 0.005498813058716967
10.2558046875 -1.0244489972282245 0.005707804894527324
10.256953125 -1.0203522870346484 -0.0015449585417965372
10.2581015625 -1.0240734330258523 0.004257758359159702
10.25925 -1.0264444248113727 0.006273744356552036
10.2603984375 -1.0215815783852056 -0.004111523497315195
10.261546875 -1.0254620121070306 0.005192230148952315
10.2626953125 -1.0263793127937035 0.006558386654098081
10.26384375 -1.023110698435817 -0.0008632491404029774
10.2649921875 -1.0260734520077863 0.004154269255369991
10.266140625 -1.0271633349468805 0.0070698625351216515
10.2672890625 -1.0264277891462088 0.004790001776056985
10.2684375 -1.024107510952725 0.0030010623675648107
10.2695859375 -1.0271866504863636 0.0066062389495940566
10.270734375 -1.0277224093228703 0.006691387774583779
10.2718828125 -1.021977421241775 -0.004191753721355718
10.27303125 -1.0261613660817763 0.00529342363899471
10.2741796875 -1.0281163452079842 0.0063900164152875805
10.275328125 -1.0234479934370548 -0.003323735106202763
10.2764765625 -1.0262569021528813 0.00400417719865892
10.277625 -1.0285006037771736 0.004851488226852274
10.2787734375 -1.0252893362589597 0.00035451732853852835
10.279921875 -1.0253420820347252 0.0016389739626802569
10.2810703125 -1.0279013343864123 0.005676715367269436
10.28221875 -1.0284257074768022 0.006199727271911093
10.2833671875 -1.0234155815776957 -0.002188938871006685
10.284515625 -1.0267190852305847 0.003487041314486905
10.2856640625 -1.0273204248673127 0.00544900370400242
10.2868125 -1.0212749186179253 -0.0045538287748949635
10.2879609375 -1.0251942781690082 0.0036277395773747223
10.289109375 -1.0258412970352464 0.003564291546790277
10.2902578125 -1.0232462270816098 -0.003670710350932138
10.29140625 -1.0247438876459947 0.0011815393422847098
10.2925546875 -1.0263416438385176 0.0038464372471811448
10.293703125 -1.02421329564993 0.00015260622793844547
10.2948515625 -1.0234093897185579 -0.0010493617145623246
10.296 -1.0260155871792056 0.00296350850021021
10.2971484375 -1.0277164999220358 0.00487221006085492
10.298296875 -1.0225833952389638 -0.004318653675528583
10.2994453125 -1.026900952759258 0.0025222742514820484
10.30059375 -1.0267898416170427 0.002295625722811556
10.3017421875 -1.0224345899762102 -0.00690816739172101
10.302890625 -1.0263032738717646 -0.00023030326813267
10.3040390625 -1.0276839297812634 0.0018915653632140539
10.3051875 -1.0255032107555468 -0.0033539540274841184
10.3063359375 -1.025662732313996 -0.0019204945756377545
10.307484375 -1.0280355327293988 0.0014241296367704659
10.3086328125 -1.0297425278639851 0.002718462992897852
10.30978125 -1.0251314920134074 -0.004833336051401016
10.3109296875 -1.0271075324039203 -0.000208396244980813
10.312078125 -1.030437369816229 0.0022322347490505434
10.3132265625 -1.0236397576511271 -0.009714388352361158
10.314375 -1.0272136718656502 0.0003104626613603667
10.3155234375 -1.0292370994412705 0.0023578265280004285
10.316671875 -1.024209729785177 -0.008082944040377793
10.3178203125 -1.0280249957418461 -0.0023104116448173784
10.31896875 -1.0299113324905225 -0.0005189339961418349
10.3201171875 -1.0269742946361347 -0.0037194900780828655
10.321265625 -1.026489078696768 -0.003026312991761815
10.3224140625 -1.0278037026895523 -0.0007224241640790274
10.3235625 -1.0294930637410644 0.001177236644271329
10.3247109375 -1.0240815215864922 -0.007922484475691216
10.325859375 -1.0290186596395705 -0.00025887287163833816
10.3270078125 -1.0296912214882774 0.0012077531739153047
10.32815625 -1.0243140729680154 -0.010057377900751507
10.3293046875 -1.0284768649790637 -0.0005787730951462011
10.330453125 -1.0307236833378528 -0.00035212280610313895
10.3316015625 -1.0280384479864884 -0.007291633729140823
10.33275 -1.0292517354971298 -0.0032922681941917054
10.3338984375 -1.0309176536992537 0.0003347933657765201
10.335046875 -1.0317117944408631 0.0003900379018906275
10.3361953125 -1.0282269885292192 -0.004600184683236586
10.33734375 -1.0298575262540965 -0.00029867083993728727
10.3384921875 -1.0338004756482984 0.0001953267417587612
10.339640625 -1.0266504175525109 -0.008965425333880839
10.3407890625 -1.0328632487433143 -0.0004307088491643518
10.3419375 -1.0351898024109099 0.0011883391399546417
10.3430859375 -1.029420948215662 -0.0068939568093634995
10.344234375 -1.0336553830396173 2.7028269034445884e-05
10.3453828125 -1.035469927156835 0.00401695519737677
10.34653125 -1.0327660418254687 -0.0023611156033223057
10.3476796875 -1.032601202056045 0.0004954480733503908
10.348828125 -1.0345477650637658 0.0030806644129280913
10.3499765625 -1.0357379255819912 0.004935994285217293
10.351125 -1.032349915380882 -0.0012654218060980105
10.3522734375 -1.0347591699654561 0.0050206436704295365
10.353421875 -1.0347610695743288 0.005777963495999128
10.3545703125 -1.0293530344159239 -0.005424735500288214
10.35571875 -1.0332931242403172 0.002924723602229118
10.3568671875 -1.0352987806951015 0.0032903221326391896
10.358015625 -1.0302898700987704 -0.004158718046292975
10.3591640625 -1.032429632869153 0.0016365862519678864
10.3603125 -1.035371212330212 0.004388917520417646
10.3614609375 -1.032344191201782 0.00028515838790393877
10.362609375 -1.033811358069901 -0.002111546894772054
10.3637578125 -1.0345807897091954 0.0020866309377164383
10.36490625 -1.037067303706907 0.0030792049341658023
10.3660546875 -1.0313722859165997 -0.006734003975285063
10.367203125 -1.0358003536918658 0.0031809367012212153
10.3683515625 -1.0376768490020774 0.004138389963029621
10.3695 -1.031314996993543 -0.006174138977609489
10.3706484375 -1.0341955770981623 0.002248909283136591
10.371796875 -1.0348342030741082 0.0023026262546388954
10.3729453125 -1.0317813226605774 -0.0038197315403989407
10.37409375 -1.0319782220975413 -0.0005836557764926087
10.3752421875 -1.0357019990115168 0.0016312576501668619
10.376390625 -1.035097803295557 0.002952721121744828
10.3775390625 -1.0322746161892247 -0.005039294734221045
10.3786875 -1.0365664865762372 0.0014547704360249325
10.3798359375 -1.0371353725758141 0.002564953329481867
10.380984375 -1.0323915284173744 -0.00823746649431717
10.3821328125 -1.0360252146151503 -0.0006409257543888436
10.38328125 -1.0384355059754624 0.002316199454464263
10.3844296875 -1.032579154011189 -0.007296371593112083
10.385578125 -1.0345119283748443 0.0009845619337727207
10.3867265625 -1.0386385184468945 0.0025021052735568206
10.387875 -1.0354690333298429 -0.0012122504962085445
10.3890234375 -1.0348330209775707 -0.0014406304901493083
10.390171875 -1.0340041922498096 0.0009837433129331608
10.3913203125 -1.0374488060077325 0.0038095223432499936
10.39246875 -1.0322998069751415 -0.004378360722341712
10.3936171875 -1.0353777259706405 0.003323679433525406
10.394765625 -1.0371678845874812 0.003402477832528783
10.3959140625 -1.0311663687804695 -0.006404130543443631
10.3970625 -1.0344804136976329 0.002001035217484237
10.3982109375 -1.0365118732054401 0.0030506079125732777
10.399359375 -1.0321330174851293 -0.005132250272824546
10.4005078125 -1.0337744163520681 -0.00014086940319596453
10.40165625 -1.0359575032007433 0.0016537805936396865
10.4028046875 -1.0353039115775082 -0.00012206090586625029
10.403953125 -1.0337189359600951 -0.003038429803832343
10.4051015625 -1.037436150582843 0.002093973388036463
10.40625 -1.0377561880405444 0.00360886334376026
10.4073984375 -1.0304996381341556 -0.006715334109970578
10.408546875 -1.0353413936818876 0.003075877486199974
10.4096953125 -1.0377084690011142 0.004460716105472801
10.41084375 -1.0315351584822146 -0.003211665457256263
10.4119921875 -1.0344280953425589 0.0032478926655025164
10.413140625 -1.036119510807778 0.005252167746500919
10.4142890625 -1.0342641315007346 0.00045002003035610194
10.4154375 -1.033602090209413 0.0022078873723453685
10.4165859375 -1.0345504223391877 0.005656713827068838
10.417734375 -1.0365643922390033 0.006449605535720021
10.4188828125 -1.0307828813182187 -0.0014425778047328364
10.42003125 -1.0348945173621225 0.005225825223843628
10.4211796875 -1.0354552122318503 0.00703007000195166
10.422328125 -1.0299208425903907 -0.00462599918608908
10.4234765625 -1.0328121115139426 0.0045842328651996556
10.424625 -1.033924848756664 0.0063231359589064895
10.4257734375 -1.0306453571459253 -0.0005134509998074299
10.426921875 -1.0314902328790565 0.004238339653169942
10.4280703125 -1.032865613566517 0.006457596062190679
10.42921875 -1.030555986205945 0.0020924530533725505
10.4303671875 -1.029622090930407 0.0003680831002905727
10.431515625 -1.0314629638851587 0.005319029190036545
10.4326640625 -1.0316739282255134 0.007187107421556205
10.4338125 -1.0259002765277 -0.004686260145839283
10.4349609375 -1.028960427874018 0.0030980940853198025
10.436109375 -1.0307296199952876 0.004523770856073361
10.4372578125 -1.0252551259425036 -0.005664924035285068
10.43840625 -1.0283876999135502 0.000769124170290375
10.4395546875 -1.0290198444340364 0.002558973549271787
10.440703125 -1.0274105707726697 -0.0030162122707103056
10.4418515625 -1.0275037800851934 -0.002439238329617066
10.443 -1.0301548764567803 0.0019127695935294564
10.4441484375 -1.0308875773533164 0.001067443630956122
10.445296875 -1.0257452662892794 -0.0061485980051544376
10.4464453125 -1.0296540074041751 2.9238640327305943e-05
10.44759375 -1.0301525674702896 1.4896644431411366e-05
10.4487421875 -1.0250590108405253 -0.011639613835131846
10.449890625 -1.0291688465243514 -0.0027129610244499835
10.4510390625 -1.030618618618457 -0.0011860014902629334
10.4521875 -1.0261988666429913 -0.009444087657832528
10.4533359375 -1.0277916611952227 -0.005627425210463499
10.454484375 -1.0290956760928394 -0.0030287529659691337
10.4556328125 -1.0274333148220343 -0.008837181997112142
10.45678125 -1.0269144523724065 -0.010202878844413454
10.4579296875 -1.0291824106661691 -0.005859032649230433
10.459078125 -1.0318448606525874 -0.006600789511642724
10.4602265625 -1.0258930454725617 -0.015521698993931937
10.461375 -1.0303924521185805 -0.00817848273605759
10.4625234375 -1.0318674907510905 -0.005601551754127965
10.463671875 -1.026178895373481 -0.01629698126354151
10.4648203125 -1.0293658563025876 -0.00878239554494431
10.46596875 -1.0318904370229052 -0.007769890494486675
10.4671171875 -1.0282787064755905 -0.014443716027839781
10.468265625 -1.0299334548152 -0.01196344376282027
10.4694140625 -1.0329544760483986 -0.009503123914196387
10.4705625 -1.0351107252832594 -0.007784651341367466
10.4717109375 -1.030342883298838 -0.014574054275233506
10.472859375 -1.033039672618946 -0.009085006915768024
10.4740078125 -1.0338790491407692 -0.007803458965593535
10.47515625 -1.029014262308873 -0.018807729570535336
10.4763046875 -1.0334663451936263 -0.009598437138238824
10.477453125 -1.0343207074602137 -0.0067267231768294855
10.4786015625 -1.0287373260234094 -0.014872305977116418
10.47975 -1.0294850404091749 -0.011545784186659414
10.4808984375 -1.0325259418107025 -0.009673412199617204
10.482046875 -1.029576374426139 -0.01571795799599235
10.4831953125 -1.0287157665002407 -0.016421223683921127
10.48434375 -1.0328842188101865 -0.014229435152308512
10.4854921875 -1.0327008547396255 -0.014003869227002197
10.486640625 -1.0298189906706057 -0.025038705728982757
10.4877890625 -1.0334899148759347 -0.017585926222283332
10.4889375 -1.0356274710040676 -0.019326836696852423
10.4900859375 -1.0303334037780412 -0.028358978084064623
10.491234375 -1.0356856543378874 -0.02215864169640519
10.4923828125 -1.0401895195191813 -0.019870411437648783
10.49353125 -1.0366897052503028 -0.029636438834073298
10.4946796875 -1.0412946932643774 -0.024647571803968205
10.495828125 -1.0437297403792132 -0.022245320687647063
10.4969765625 -1.0464933281553 -0.026297637724756573
10.498125 -1.0480244970084367 -0.029660902634814967
10.4992734375 -1.0511996760362554 -0.02227889131320243
10.500421875 -1.0566229002515843 -0.02225375188268114
10.5015703125 -1.0510742623918257 -0.032419184036461546
10.50271875 -1.0589339705213339 -0.02006555429046225
10.5038671875 -1.0618399169523147 -0.015064075318944048
10.505015625 -1.0568531145529696 -0.02440268150248731
10.5061640625 -1.0583006228992538 -0.014072115387548323
10.5073125 -1.0623406024096784 -0.011223778574623366
10.5084609375 -1.062169566075389 -0.014679777351780832
10.509609375 -1.064109954263385 -0.010054749089533188
10.5107578125 -1.0667646105128117 -0.003974121879807557
10.51190625 -1.0657181831198252 -0.0019963273626580347
10.5130546875 -1.0599131869453722 -0.009828296503281875
10.514203125 -1.0645532938261255 0.0010410552337220547
10.5153515625 -1.063873752072995 0.0023608343704384915
10.5165 -1.0566439276530957 -0.007320721451590961
10.5176484375 -1.0607168134235356 0.002754403866908728
10.518796875 -1.0629989532525688 0.004812842519895
10.5199453125 -1.0591269027224108 -0.00025238485875545
10.52109375 -1.0575323084460262 0.0056029018965606525
10.5222421875 -1.058638968367597 0.00826468978503847
10.523390625 -1.0562731340431437 0.006603518328788138
10.5245390625 -1.0570747589939866 0.003945037882878422
10.5256875 -1.057292517740126 0.00999992791837967
10.5268359375 -1.0584695428595778 0.012293249604559131
10.527984375 -1.050974482477186 -0.0008775020136626566
10.5291328125 -1.0564522285927496 0.010919154859616753
10.53028125 -1.0565020473076836 0.015001845176099426
10.5314296875 -1.0502626986799688 0.004842527081313441
10.532578125 -1.0519579032979518 0.013044935614590747
10.5337265625 -1.0528034904962456 0.016855782985611023
10.534875 -1.0481657981997683 0.011586458166942926
10.5360234375 -1.048456265091457 0.01433690212839156
10.537171875 -1.0486076115977974 0.01749947946332442
10.5383203125 -1.047522134812702 0.018932916662930177
10.53946875 -1.0431985801682857 0.009337286851757776
10.5406171875 -1.045696406237465 0.014201826763430903
10.541765625 -1.0476531259301434 0.01665981250940879
10.5429140625 -1.040370984467109 0.004469997232852407
10.5440625 -1.0451269511723702 0.014723733767372404
10.5452109375 -1.0455253754136695 0.017753811870686642
10.546359375 -1.0409734038583198 0.009095132689375285
10.5475078125 -1.0421976202105339 0.014654992711498838
10.54865625 -1.0421250437571743 0.018739018425134313
10.5498046875 -1.0391493697020528 0.015344657658679428
10.550953125 -1.0366945631786966 0.013821724398141833
10.5521015625 -1.0399594301311796 0.019323799674994535
10.55325 -1.0402996846854353 0.0205189831082373
10.5543984375 -1.0331834074385442 0.008405178639011635
10.555546875 -1.0355269833193887 0.018042695317989965
10.5566953125 -1.0375986275920885 0.018211834474915922
10.55784375 -1.0312331344282142 0.006194318557047551
10.5589921875 -1.0333769504497614 0.015323091495876517
10.560140625 -1.0345988470489198 0.016621622523687152
10.5612890625 -1.0296970311297144 0.01067783862477012
10.5624375 -1.0302817659430272 0.011727938066420363
10.5635859375 -1.0325577731031998 0.014936084887051782
10.564734375 -1.0327195928122772 0.013404562356623073
10.5658828125 -1.029366474312427 0.010092364631304473
10.56703125 -1.0316451966478093 0.016065236283644146
10.5681796875 -1.0307247233525212 0.017069116854929567
10.569328125 -1.0183991050964203 -0.008463416148116909
10.5704765625 -1.0256327620562604 0.00549024891874933
10.571625 -1.0304254987570483 0.011159730635513121
10.5727734375 -1.030095518459583 0.0094073504302713
10.573921875 -1.0318268666935184 0.010304163853967707
10.5750703125 -1.032794035693329 0.010389111219249902
10.57621875 -1.0340431925039963 0.0120920673289312
10.5773671875 -1.0281841550713635 0.0027715942280793215
10.578515625 -1.0309072172391596 0.009952900318130897
10.5796640625 -1.031813871901846 0.010216181712623673
10.5808125 -1.024279795881749 -0.0015824736913074289
10.5819609375 -1.029058914351255 0.008472942312452658
10.583109375 -1.0297437153223694 0.010635778735172186
10.5842578125 -1.0236765993825263 0.002283454522339967
10.58540625 -1.0269457427758868 0.006584207353595939
10.5865546875 -1.029688360372816 0.0077214845823264655
10.587703125 -1.0261799504319782 0.0058303946119738215
10.5888515625 -1.02559160700523 0.002899117506500737
10.59 -1.0286869092930793 0.008178879758504676
10.5911484375 -1.0308591793977093 0.011105762277562325
10.592296875 -1.0218381280563278 0.00015314903190150053
10.5934453125 -1.027333906118089 0.010531465011524466
10.59459375 -1.0264401656740512 0.009701352636244165
10.5957421875 -1.019917828202831 -0.0014897852353834007
10.596890625 -1.0231159479211074 0.006996309120079702
10.5980390625 -1.022741333336091 0.007176489820093279
10.5991875 -1.019109911007693 0.0017661906171340114
10.6003359375 -1.0197747569598248 0.002117714562567874
10.601484375 -1.0197481665277202 0.005626783292270399
10.6026328125 -1.019533938491372 0.005450118814322391
10.60378125 -1.0157821240639615 -0.003264981524280175
10.6049296875 -1.0184854312900056 0.002272231000590985
10.606078125 -1.0187381725059605 0.0010837417945901429
10.6072265625 -1.013649240055032 -0.013034430639305261
10.608375 -1.0163240862669514 -0.0053254655981986865
10.6095234375 -1.0173990960850192 -0.0039616494534532865
10.610671875 -1.0131438690409305 -0.0148663652066372
10.6118203125 -1.017646468596967 -0.009920985435362628
10.61296875 -1.0207870402808228 -0.007340404332994821
10.6141171875 -1.019529656124012 -0.01238618557731086
10.615265625 -1.0197025566165905 -0.015397437056725638
10.6164140625 -1.0224406522119174 -0.010622761740668563
10.6175625 -1.0249206229294427 -0.010533869017172404
10.6187109375 -1.0214784543377842 -0.020374073412344484
10.619859375 -1.0261307386321705 -0.011331867454816402
10.6210078125 -1.0280661549503465 -0.009386846181996145
10.62215625 -1.0237155105433369 -0.020660064171082126
10.6233046875 -1.0279506165356387 -0.011139579138110922
10.624453125 -1.0297722824957243 -0.008628425971435483
10.6256015625 -1.025048605043849 -0.014232953611013066
10.62675 -1.0262322721123422 -0.012199689039936346
10.6278984375 -1.0265518050982338 -0.009818897113599623
10.629046875 -1.0288137532822557 -0.010743627711203296
10.6301953125 -1.0257640313640652 -0.017506032672709892
10.63134375 -1.0303539548328262 -0.011912978679028685
10.6324921875 -1.0327162663952811 -0.01174570768548211
10.633640625 -1.0276929816940328 -0.021155785694787155
10.6347890625 -1.0334522390499896 -0.009801368477847128
10.6359375 -1.0345564810939132 -0.008283765216768324
10.6370859375 -1.0304451042033633 -0.0178229976482146
10.638234375 -1.0324082145370033 -0.009653135749067954
10.6393828125 -1.0321586257220756 -0.0075066532786833284
10.64053125 -1.0287243521609803 -0.01371707077757206
10.6416796875 -1.029306267238617 -0.009961938880788779
10.642828125 -1.0319304232261495 -0.007394160611596812
10.6439765625 -1.0319708812029678 -0.00562405131294863
10.645125 -1.026778596275416 -0.016149088028331204
10.6462734375 -1.031684761001866 -0.009889730669770558
10.647421875 -1.0372123824044908 -0.010490447244412171
10.6485703125 -1.0308858845955893 -0.02105717463481649
10.64971875 -1.0362880821244744 -0.011578107223307155
10.6508671875 -1.0391057768894703 -0.008745370812719144
10.652015625 -1.035018976747369 -0.016364184456922115
10.6531640625 -1.035956750537675 -0.01041760195646202
10.6543125 -1.0396662773581298 -0.009574435942155901
10.6554609375 -1.039979290222003 -0.01254299160728456
10.656609375 -1.0381988054754 -0.017095286691946154
10.6577578125 -1.0422716752597663 -0.009334135243152186
10.65890625 -1.0439398297973386 -0.005568041955038405
10.6600546875 -1.0400633723425248 -0.014849943186765469
10.661203125 -1.044025420324321 -0.006101061767186611
10.6623515625 -1.0450429087065298 -0.004572396082143548
10.6635 -1.0390346502866374 -0.013421373139875403
10.6646484375 -1.0444947252374366 -0.0030325859363187213
10.665796875 -1.0462020321858105 0.000636195058710598
10.6669453125 -1.0425296652304468 -0.005081424233953247
10.66809375 -1.0434369860349613 -0.0010844143776143067
10.6692421875 -1.0426977920581746 0.002742789587050265
10.670390625 -1.0424548291419011 0.0028425066520241238
10.6715390625 -1.037824240439429 -0.005787682734629651
10.6726875 -1.0402500976351503 0.001444051539061575
10.6738359375 -1.0404048845462621 0.0036010744517036564
10.674984375 -1.0339584481142907 -0.007820699941334497
10.6761328125 -1.0358709123250147 0.0014239818874787202
10.67728125 -1.0378426672991234 0.003133959401924402
10.6784296875 -1.0342488271521386 -0.007914876338791399
10.679578125 -1.0354298114252087 -0.0019519274749256743
10.6807265625 -1.0380664618688102 0.0028455283517531127
10.681875 -1.0340805422911228 -0.0012720030491499834
10.6830234375 -1.0339132350377205 -0.0030301288123184555
10.684171875 -1.036299111472834 0.0021744800674012854
10.6853203125 -1.0376307479549942 0.002846689997906715
10.68646875 -1.0327091492512135 -0.008045288248635152
10.6876171875 -1.0358070480925226 0.002654100693013195
10.688765625 -1.0357901599916879 0.004360886546931009
10.6899140625 -1.0303205678796017 -0.009668637168407934
10.6910625 -1.0325220694790405 0.0003581247943833521
10.6922109375 -1.035336679733217 0.0029157169305346065
10.693359375 -1.03068733118274 -0.005322953528711483
10.6945078125 -1.0344075471900243 0.0008219662088307933
10.69565625 -1.0344213073073594 0.005328260434912968
10.6968046875 -1.0316749115787276 0.001761758824356141
10.697953125 -1.0327251854893187 4.5147731186911955e-07
10.6991015625 -1.033312774623546 0.006234362557759332
10.70025 -1.0318032414043807 0.007045777964905575
10.7013984375 -1.0257431887850068 -0.004765535157728373
10.702546875 -1.0278751013323335 0.004796376247476086
10.7036953125 -1.029099427058838 0.006403874036741586
10.70484375 -1.0235596125839037 -0.005105768303802383
10.7059921875 -1.0256215351554367 0.0009156638681021567
10.707140625 -1.0293107264438444 0.0029688339466802383
10.7082890625 -1.02617843988911 -0.0012291618711757213
10.7094375 -1.0267811702060912 -0.00026255449437717626
10.7105859375 -1.0284582082944653 0.0022718017389712353
10.711734375 -1.028298407601245 0.002448575864091529
10.7128828125 -1.0238510717012943 -0.007174511299564368
10.71403125 -1.0268536171112204 -0.0019530224674909613
10.7151796875 -1.0283136932377854 -0.001961862874190201
10.716328125 -1.022670893681189 -0.012093231031915619
10.7174765625 -1.0273519453309985 -0.0031442576143378975
10.718625 -1.029239378413423 -0.000695660941759435
10.7197734375 -1.0260711539624465 -0.01408542273643898
10.720921875 -1.0266615986023755 -0.007966926160410615
10.7220703125 -1.0334439857480588 -0.004144430371694763
10.72321875 -1.029788935421584 -0.0067632739692942145
10.7243671875 -1.03116535053406 -0.007197117628103711
10.725515625 -1.0341741812529233 -0.004535617011916959
10.7266640625 -1.0372742003822937 -0.0026899761307821457
10.7278125 -1.0302389111214922 -0.012332104300645685
10.7289609375 -1.0344790613881225 -0.0007987640733536638
10.730109375 -1.0360317794738134 -0.001433016759298078
10.7312578125 -1.0306862626545903 -0.010840661527796003
10.73240625 -1.0326631137006965 -0.001680801426758305
10.7335546875 -1.0326615357842908 -0.0022553193335907995
10.734703125 -1.0314385854083827 -0.009707916862735089
10.7358515625 -1.0310090875162148 -0.007116892839527711
10.737 -1.0351081269761673 -0.002837151785663905
10.7381484375 -1.0354606423139872 -0.0031241575483832995
10.739296875 -1.032434994594098 -0.009287844009992663
10.7404453125 -1.0346361951547118 -0.0009407690985386297
10.74159375 -1.0376368248943812 9.296885439719071e-05
10.7427421875 -1.032398735380289 -0.012321374548385111
10.743890625 -1.037685099180662 -0.0019944614578746855
10.7450390625 -1.0387740821560405 -0.0004021579389120733
10.7461875 -1.031187046469941 -0.01456375787076647
10.7473359375 -1.0359322737262455 -0.0033391892597593453
10.748484375 -1.037625586423022 -0.003917087631132854
10.7496328125 -1.036682701182334 -0.010867312400824614
10.75078125 -1.039973737747357 -0.0069129161495163904
10.7519296875 -1.0407265341941452 0.00043155876163947227
10.753078125 -1.0430777401265525 0.0030568944627269445
10.7542265625 -1.037691300753641 -0.0075086189771254586
10.755375 -1.0394560717214543 0.0006163135573816758
10.7565234375 -1.0396395218507584 0.003461344310322134
10.757671875 -1.033522062091072 -0.0076672857359234015
10.7588203125 -1.0359618695905923 0.00467222814114171
10.75996875 -1.0355806951855588 0.006264229829005374
10.7611171875 -1.028975398441748 -0.0048822979750197115
10.762265625 -1.030750473919127 0.0013497610224694756
10.7634140625 -1.0284505067700178 0.004747723756512445
10.7645625 -1.0267310760657555 -0.0019382439185015032
10.7657109375 -1.0243093483225767 -0.005989672770183363
10.766859375 -1.0269864366192953 0.0004968293568471949
10.7680078125 -1.0281083435155227 -0.0007879811140441562
10.76915625 -1.0221247294348013 -0.012336916475229887
10.7703046875 -1.0272917110846251 -0.003150485143350479
10.771453125 -1.0293763061312826 -0.0007234198880812781
10.7726015625 -1.0249119090374288 -0.009863291710767996
10.77375 -1.027681356322401 -0.00451211758402531
10.7748984375 -1.0309815341321669 -0.0019292850458551558
10.776046875 -1.026845081322592 -0.008347225284817239
10.7771953125 -1.029821116350536 -0.0030816993180776686
10.77834375 -1.0322395588907514 0.0004065901461106636
10.7794921875 -1.0308646169265505 0.0005039103127884026
10.780640625 -1.0289764934424173 -0.004592666008536639
10.7817890625 -1.0299263716309528 0.0008924370591156805
10.7829375 -1.0304346391153654 0.002474171429268146
10.7840859375 -1.0248182538426474 -0.009732620883919074
10.785234375 -1.026465333838607 0.0007746909160524784
10.7863828125 -1.027377617223548 0.004607103664266643
10.78753125 -1.0254665636894444 -0.0050399049895126224
10.7886796875 -1.0261897640653532 0.0009992452238386518
10.789828125 -1.0279448613483393 0.005047064451839056
10.7909765625 -1.0269590411686915 0.0008593123511491663
10.792125 -1.0277107785667214 -0.0016693648821609064
10.7932734375 -1.029382015814122 0.00418632912422906
10.794421875 -1.0315995044948905 0.007339655780485288
10.7955703125 -1.0227629103041285 -0.004776162657368244
10.79671875 -1.0292269611212248 0.005239400705995656
10.7978671875 -1.0304886853924664 0.005053216465476129
10.799015625 -1.0246695359622153 -0.005403984595093392
10.8001640625 -1.0269770748654115 0.004550440986174298
10.8013125 -1.0281172155174945 0.005430522555481376
10.8024609375 -1.0259793963819133 -0.0023839483421445595
10.803609375 -1.0275075222725045 0.0005523859959875033
10.8047578125 -1.0275728489921319 0.004572094219552958
10.80590625 -1.0262183907387497 0.002541962064144754
10.8070546875 -1.0245694742942424 -0.002080972584859675
10.808203125 -1.0270142899267996 0.004385917620371882
10.8093515625 -1.0279099097711077 0.006021584310119954
10.8105 -1.0221331042158217 -0.009513437498378907
10.8116484375 -1.0257986469853382 0.0048905004577455835
10.812796875 -1.0271844929148455 0.006895833428981757
10.8139453125 -1.0226670356060599 -0.006338004547233156
10.81509375 -1.025616507720644 0.0014971839577508361
10.8162421875 -1.027128229861461 0.005999868531274377
10.817390625 -1.0237924130970866 -0.0027021796707422108
10.8185390625 -1.0259157507234122 -0.0014584313192441134
10.8196875 -1.024978793706023 0.00029261953056519685
10.8208359375 -1.0287322352852382 0.0017736540522853561
10.821984375 -1.0235255607262763 -0.005495290985770951
10.8231328125 -1.02777184424834 0.0012065439584946769
10.82428125 -1.0281992864856078 0.0018363419789149127
10.8254296875 -1.025254611852454 -0.012803657320778705
10.826578125 -1.0302610279851052 -0.003547561652764042
10.8277265625 -1.033413270055784 -0.00033188295257524647
10.828875 -1.02339591495957 -0.0166269183484985
10.8300234375 -1.0240464035489543 -0.016138180247128875
10.831171875 -1.030590039412956 -0.005652966938787696
10.8323203125 -1.030689831190918 -0.0005721541254419815
10.83346875 -1.0297780212507848 -0.0017053696638246185
10.8346171875 -1.0305977709806744 -0.002602759190148407
10.835765625 -1.03181386990357 -0.0006313504643434831
10.8369140625 -1.0286304865851628 -0.017067575342348706
10.8380625 -1.0328966361306178 -0.007509712823141057
10.8392109375 -1.036149659088046 -0.002224272726605192
10.840359375 -1.031171838995054 -0.01161496010143137
10.8415078125 -1.0311034294623502 -0.005160629037660458
10.84265625 -1.0337662315677933 -0.002201055677602204
10.8438046875 -1.032684993887207 -0.0016089629181342824
10.844953125 -1.0327637479520497 -0.009811330128981943
10.8461015625 -1.0323850454814318 -0.004597129043043435
10.84725 -1.0326937082427763 -0.002927900356610169
10.8483984375 -1.0267512897206428 -0.01561635521211302
10.849546875 -1.0322221059668004 -0.00605977300026006
10.8506953125 -1.033396412469834 -0.002424908493796507
10.85184375 -1.0280234447495946 -0.01295655597244394
10.8529921875 -1.031828471812642 -0.006170075158955957
10.854140625 -1.032365444935797 -0.001500752089146129
10.8552890625 -1.0295208133409253 -0.006036262989632335
10.8564375 -1.0300606403981631 -0.007747587944386236
10.8575859375 -1.0298582688267823 -0.002929504928983917
10.858734375 -1.0319494076332771 -0.002392835725681941
10.8598828125 -1.027076336732976 -0.012816120537886722
10.86103125 -1.0294272446399484 -0.004130778555480941
10.8621796875 -1.0316601205427895 -0.003264515363379239
10.863328125 -1.0293642654824056 -0.012601423375339205
10.8644765625 -1.031927093025655 -0.005736584998312755
10.865625 -1.0318423307729934 -0.0006546541405362261
10.8667734375 -1.0267574575957474 -0.009542356315588751
10.867921875 -1.028103920863769 -0.005119301644631369
10.8690703125 -1.0314684116662236 -0.0024634190430068426
10.87021875 -1.0328339769019086 -0.0015122824341960994
10.8713671875 -1.0283908784681877 -0.006713752588474842
10.872515625 -1.0338846623849116 0.0014647196472550306
10.8736640625 -1.0336289161523107 0.0035453664593929624
10.8748125 -1.027571285078223 -0.009805175087586604
10.8759609375 -1.029427107228673 0.0009273876347996035
10.877109375 -1.0293965962165312 0.001091697690340121
10.8782578125 -1.02403440477561 -0.010902363169907225
10.87940625 -1.0280342779730705 0.0007088384273938875
10.8805546875 -1.0316127274968347 0.004857727246742383
10.881703125 -1.0276369347703538 -0.003384284333756815
10.8828515625 -1.0270842191250416 -0.001904811618167912
10.884 -1.0298630723334574 0.0018196759116908545
10.8851484375 -1.03247653494716 0.004728134025254405
10.886296875 -1.0236388247526347 -0.005535517157092107
10.8874453125 -1.0329283546887345 -4.1239815730897966e-05
10.88859375 -1.0345682985060234 0.00363648167497288
10.8897421875 -1.0255870000321272 -0.008754832279497526
10.890890625 -1.0324699449993522 0.0019704636730208946
10.8920390625 -1.0337905684225723 0.00517821717296324
10.8931875 -1.0260008877478561 -0.0034293831082966575
10.8943359375 -1.0302601756571197 -0.0004420635453691313
10.895484375 -1.0301776951261965 0.0021456520516569544
10.8966328125 -1.0296491375133003 0.0011603672449366775
10.89778125 -1.0292376661669371 -0.0021821728164701515
10.8989296875 -1.0314966337281017 0.0030952365800019366
10.900078125 -1.0325315420546255 0.003701052044705666
10.9012265625 -1.0264630579189629 -0.006946857018272801
10.902375 -1.030081001728119 0.002114238025890336
10.9035234375 -1.0302752082606181 0.001872710180462922
10.904671875 -1.0200899330186946 -0.011286430101037859
10.9058203125 -1.0279608066329005 0.0010773923891126969
10.90696875 -1.0288384252235394 0.005238919453748103
10.9081171875 -1.021777933324541 -0.0071258004690524235
10.909265625 -1.0273412836344131 -0.0025975315867082793
10.9104140625 -1.0316465409685112 0.002235971810595705
10.9115625 -1.031067559184389 -0.00014788327733383788
10.9127109375 -1.0272213551964104 -0.012171443442215435
10.913859375 -1.0311118824735506 0.002007605611349772
10.9150078125 -1.0373834222150067 0.0026375381255988595
10.91615625 -1.027570126175783 -0.01499477020906137
10.9173046875 -1.0300571765534288 -0.0024920735813321326
10.918453125 -1.034063634280293 0.0013375484298456253
10.9196015625 -1.0274761146632831 -0.013517506314306038
10.92075 -1.0316445802548617 -0.003883378971455964
10.9218984375 -1.0341652024514383 0.0023475532573971614
10.923046875 -1.0325944260371673 -0.009816596427784596
10.9241953125 -1.0302607549741933 -0.005410054033440026
10.92534375 -1.0313793202401322 0.00038135474004596936
10.9264921875 -1.0369720928000805 -0.0005562440460185614
10.927640625 -1.0311428075749507 -0.006758776674321565
10.9287890625 -1.0352974039843539 0.0010631768220435434
10.9299375 -1.0350133030748887 0.006299578619789525
10.9310859375 -1.0297466982335175 -0.009336725726404482
10.932234375 -1.0318782332686438 0.0013698174525541562
10.9333828125 -1.0341735685343032 0.005784978781323891
10.93453125 -1.0291201908963359 -0.004804469141016066
10.9356796875 -1.0320513630186197 -0.0004163230752030067
10.936828125 -1.0323322944488544 0.005757298160722124
10.9379765625 -1.0293746170943714 0.0042458755777150525
10.939125 -1.029631066972457 -0.0009658902332232433
10.9402734375 -1.031986220686132 0.007262589159134802
10.941421875 -1.0333844067689202 0.009596378965373797
10.9425703125 -1.0254070011294227 -0.002309860133319519
10.94371875 -1.0308533414018464 0.009152477370382328
10.9448671875 -1.0329087842401958 0.011112183977947554
10.946015625 -1.024419458998484 -0.0007800173666581145
10.9471640625 -1.0273668738127695 0.008653202094209778
10.9483125 -1.0282179663640405 0.007600007066639325
10.9494609375 -1.0265286279446797 0.004577889930514001
10.950609375 -1.0281788719770015 0.004404871082486939
10.9517578125 -1.0302319797810329 0.009775275092479052
10.95290625 -1.0316780594271295 0.009823977262917949
10.9540546875 -1.0273305527406618 -0.0022073703463708627
10.955203125 -1.029874254308646 0.012321203214375298
10.9563515625 -1.032512744092191 0.011901360246501513
10.9575 -1.0253750631496543 0.0006927630333304902
10.9586484375 -1.030817954969602 0.00888824765365226
10.959796875 -1.029719183707497 0.013019691573560366
10.9609453125 -1.02380221124494 0.00037881858709420957
10.96209375 -1.0294032166428386 0.008381555756917736
10.9632421875 -1.028677274087056 0.013067629138425352
10.964390625 -1.027113413033209 0.013021242218662465
10.9655390625 -1.0308858649731576 0.003933661865729743
10.9666875 -1.0302301164523335 0.01172465577609022
10.9678359375 -1.0325280026760248 0.01961176317702662
10.968984375 -1.0201061676123464 0.0011146175262482516
10.9701328125 -1.0245151605067342 0.011635231500029486
10.97128125 -1.0302863449247643 0.019615262967198177
10.9724296875 -1.02124824380747 0.006425084710887097
10.973578125 -1.0276515929525223 0.012547271423401563
10.9747265625 -1.0270852992681112 0.015256839329195748
10.975875 -1.0244117409255356 0.009354266131011368
10.9770234375 -1.0247877697877166 0.011102725740466335
10.978171875 -1.0294807905785437 0.013087665828063588
10.9793203125 -1.0263566174276453 0.010054301830769385
10.98046875 -1.0214611322848643 0.004419100218514771
10.9816171875 -1.0242426960425897 0.01258081163700625
10.982765625 -1.0265221226470016 0.010922097466457392
10.9839140625 -1.0181849417555413 -0.008120481007445501
10.9850625 -1.0204948469482193 0.006240131203901655
10.9862109375 -1.0254576943070632 0.013170577584312448
10.987359375 -1.0184766357985748 0.0003409836616980466
10.9885078125 -1.0240832530888913 0.005663363720972814
10.98965625 -1.028118227781644 0.008282243742320505
10.9908046875 -1.025155804818559 0.0030472372559480765
10.991953125 -1.0240210189892869 0.003916674570325962
10.9931015625 -1.0272266780523485 0.004865727528139685
10.99425 -1.0255953467839407 0.009640278507295374
10.9953984375 -1.0170667872496515 -0.0045514567454558175
10.996546875 -1.023814317238128 0.005835372065747246
10.9976953125 -1.023407723907824 0.006737986522057926
10.99884375 -1.0166915932575447 -0.010572083907296526
10.9999921875 -1.018730613710784 0.0006013375805136167
11.001140625 -1.0207467415062723 0.003517994119354606
11.0022890625 -1.0160516888835234 -0.006598111222078096
11.0034375 -1.0164354586347155 -0.004336525904331756
11.0045859375 -1.0188269545345425 0.001356131862866039
11.005734375 -1.0209447053694505 -0.001969938298768792
11.0068828125 -1.0183127446863698 -0.006212685947277419
11.00803125 -1.016705115811147 0.0004949180138456022
11.0091796875 -1.019706619894042 0.004915240181941449
11.010328125 -1.0136904721651345 -0.014665265388502657
11.0114765625 -1.0152349910240586 -0.0016625435081115136
11.012625 -1.0190303004259684 0.0008436098058072772
11.0137734375 -1.0137835983710475 -0.012901223835028175
11.014921875 -1.0124593540793767 -0.0037883486728805815
11.0160703125 -1.0198086508976123 -0.00010914666779382465
11.01721875 -1.0172791512478891 -0.006375417410571127
11.0183671875 -1.0150782860176468 -0.003986149595346766
11.019515625 -1.0157951956401383 -0.000957673221053168
11.0206640625 -1.013647377239657 0.0025921589704815395
11.0218125 -1.012998676346122 -0.007230241679851146
11.0229609375 -1.0162355591551746 0.001005880530603409
11.024109375 -1.0162707756108218 0.0018340843355729164
11.0252578125 -1.0104560294256204 -0.01570714882534252
11.02640625 -1.0089853337836783 -0.0020531288301435247
11.0275546875 -1.0127332025200657 -0.0012009243089678434
11.028703125 -1.0130875900305447 -0.008755881572792334
11.0298515625 -1.0097077375178174 -0.0021311104582849016
11.031 -1.0165972221185855 -0.0015212271679701517
11.0321484375 -1.0133352832907427 -0.0025791025271032497
11.033296875 -1.0114598910232495 -0.008019229846719322
11.0344453125 -1.0150774246608687 -0.00032728725650324475
11.03559375 -1.0144964617762213 0.0005927350157368394
11.0367421875 -1.0136817472509165 -0.014216392240683662
11.037890625 -1.0138707042912056 0.0037637456665405855
11.0390390625 -1.0127234633134812 0.00083141625007499
11.0401875 -1.0104184872125166 -0.012095667309186514
11.0413359375 -1.0150865308178663 -0.0059686481536912195
11.042484375 -1.0207485624458197 0.0007810354553790533
11.0436328125 -1.0134485289777975 -0.009887622527054829
11.04478125 -1.0202792958657319 -0.0011464680815027606
11.0459296875 -1.0215714310973785 0.005982209190684928
11.047078125 -1.021509658196329 0.005124720113349496
11.0482265625 -1.0202423133910015 -0.0043587888504370564
11.049375 -1.01844281168405 0.006320626813038355
11.0505234375 -1.0193545957216075 0.011917189340000911
11.051671875 -1.0125487252390162 -0.008927102825759453
11.0528203125 -1.0209046949178429 0.008361730358558028
11.05396875 -1.0207312092362761 0.01293336836789119
11.0551171875 -1.0125408846699004 -0.004438334232165914
11.056265625 -1.0153806200542796 0.010723779066909661
11.0574140625 -1.0225849775768547 0.009343170310995241
11.0585625 -1.018004416729028 0.001736397869735118
11.0597109375 -1.0187957325512709 0.004217264098044626
11.060859375 -1.0193506215747306 0.00815658144305259
11.0620078125 -1.019144497860832 0.012741078083124191
11.06315625 -1.018548962984668 -0.0044537492006153645
11.0643046875 -1.0250579776166522 0.004144546039478669
11.065453125 -1.026237862208852 0.006787083554934958
11.0666015625 -1.0168855098994192 -0.007712294679046494
11.06775 -1.0197288815227654 0.0040407765530904305
11.0688984375 -1.0213976239324303 0.008410900130752241
11.070046875 -1.0184678855924918 -0.0026478217971758755
11.0711953125 -1.0224699154956427 0.0013815695755620139
11.07234375 -1.0243022305404648 0.00727427864870317
11.0734921875 -1.0219950151213237 0.00279329540943668
11.074640625 -1.0209785096935091 -0.0015476883444418554
11.0757890625 -1.0271261731075856 0.0034332619671338938
11.0769375 -1.023794937657876 0.006831172579556399
11.0780859375 -1.0222155103050805 -0.014748276140168604
11.079234375 -1.0218733536199867 0.0042250714052179394
11.0803828125 -1.0270107991701583 0.007630559969783124
11.08153125 -1.020465398581616 -0.005815749267804093
11.0826796875 -1.0234073815591718 -0.0005881117945836234
11.083828125 -1.0256563393012426 0.003336682435437277
11.0849765625 -1.0213326683089974 -0.0013320424976828171
11.086125 -1.0193263551039713 -0.002809330620598627
11.0872734375 -1.0239733731662575 0.0013646592582134964
11.088421875 -1.022988278300091 0.004716245887218917
11.0895703125 -1.0201767993349362 -0.010138817992309423
11.09071875 -1.0222203143771755 -0.0005286911536219185
11.0918671875 -1.021504007636923 0.0004511326883387401
11.093015625 -1.0186004911576536 -0.014789459507219216
11.0941640625 -1.020088908280231 -0.005645467135193705
11.0953125 -1.022596630248398 -0.000628135783254935
11.0964609375 -1.0241739868885298 -0.011434939483387585
11.097609375 -1.0204927852489483 0.0005609603470947411
11.0987578125 -1.024003174496439 0.0006161678802142911
11.09990625 -1.0201849267856171 -0.006620230270543925
11.1010546875 -1.0170191011045904 -0.004359160757460956
11.102203125 -1.0217736574056953 -0.002888095224896303
11.1033515625 -1.0205566783797035 0.0001681234396191389
11.1045 -1.018742525963611 -0.010774215508465412
11.1056484375 -1.0224325345107934 -0.00559796869582857
11.106796875 -1.023298909536139 0.0006188212025716178
11.1079453125 -1.0220585496265426 -0.014279111075720607
11.10909375 -1.0172436179709015 -0.0020119241963955092
11.1102421875 -1.0201204458209576 0.0031745160721056154
11.111390625 -1.0165194178548291 -0.008039993865247341
11.1125390625 -1.017567807838667 -0.00371033763447981
11.1136875 -1.0205602454511125 0.004244184353226044
11.1148359375 -1.0214790758053223 0.004048001355856645
11.115984375 -1.0145449638219903 -0.007403432355215733
11.1171328125 -1.0167747317227844 -0.0022847369710440324
11.11828125 -1.0192599606251511 -0.000242470279657514
11.1194296875 -1.0148278700863997 -0.013639948123490231
11.120578125 -1.0181484418585947 0.0026434177330678654
11.1217265625 -1.0208974542460154 0.0017335324982011846
11.122875 -1.0196539308816492 -0.00454558725636145
11.1240234375 -1.0164793039978666 0.0021325143000405777
11.125171875 -1.0194445794633507 0.003626462788408391
11.1263203125 -1.0171787364156977 -0.003284236023087972
11.12746875 -1.0152436964116902 -0.0011586065548481739
11.1286171875 -1.0198995418492993 0.0013764646214503018
11.129765625 -1.0228329606504465 0.00452236630258307
11.1309140625 -1.0181208828797295 -0.008072648017809825
11.1320625 -1.0205044664112082 -0.0008564107434565482
11.1332109375 -1.0187689225305812 0.005725683984652896
11.134359375 -1.0147006216967913 -0.010968342327288882
11.1355078125 -1.0207082454570724 0.005226877406526886
11.13665625 -1.0229415816453284 0.003984374667084345
11.1378046875 -1.0203127986546656 -0.0053539798442903686
11.138953125 -1.0179379074145969 0.0005444407396517081
11.1401015625 -1.025697117245669 0.0017380551597363514
11.14125 -1.0227633167281494 -0.0006672742472485227
11.1423984375 -1.0172227874996647 -0.0023917080285019154
11.143546875 -1.0263235977271798 -0.0005469091092282219
11.1446953125 -1.0227987418377082 0.0029194152235184345
11.14584375 -1.0200350448598674 -0.015745159965108724
11.1469921875 -1.023950467292739 -0.0028927938290929656
11.148140625 -1.0243032882906649 0.0025301496333499096
11.1492890625 -1.0225943899081114 -0.014034062540589726
11.1504375 -1.0271558167820523 -0.0008204886649924581
11.1515859375 -1.0275060240135898 0.0023289464683114436
11.152734375 -1.0209934201861353 -0.0037023614855888898
11.1538828125 -1.0186183646419857 -0.001921903213864179
11.15503125 -1.0240664344749972 0.0008034614715614341
11.1561796875 -1.0286853290633817 0.003636958724388406
11.157328125 -1.0194846123898285 -0.006872679738417264
11.1584765625 -1.0252482257067488 0.0007407179100410582
11.159625 -1.0267275694413383 0.007333043911456866
11.1607734375 -1.0182707756533702 -0.010649298677476715
11.161921875 -1.026589503975219 -0.0018475489729392613
11.1630703125 -1.027206722224864 0.0037246870059368664
11.16421875 -1.0223689033562986 -0.008771767150786008
11.1653671875 -1.022908506224575 -0.0013300972471233241
11.166515625 -1.0241253473100351 0.004134341902410833
11.1676640625 -1.0224307445779353 0.0009823609048673076
11.1688125 -1.0190098639856644 0.0001264375523532535
11.1699609375 -1.0256171416949142 0.004399956237225777
11.171109375 -1.0242660046266607 0.006999064313202574
11.1722578125 -1.0151793751386493 -0.007665708789015013
11.17340625 -1.022589232053248 0.0036806534183456696
11.1745546875 -1.019724251025323 0.012533658202401876
11.175703125 -1.0194342659397817 -0.008863952656266189
11.1768515625 -1.0234918438055953 0.0035894347666339255
11.178 -1.023668912611299 0.008341613322681692
11.1791484375 -1.0187863882042696 0.002308052295985283
11.180296875 -1.0206996851094017 0.007496441828229117
11.1814453125 -1.022066676087468 0.011419719722674526
11.18259375 -1.0207993295010378 0.011002669261830772
11.1837421875 -1.016388561901985 0.0018699284614278056
11.184890625 -1.0178537338028364 0.01052896110792384
11.1860390625 -1.020851218418257 0.012414328823630666
11.1871875 -1.0167116207898663 -0.00470208850350165
11.1883359375 -1.0155931025756724 0.009178336959146507
11.189484375 -1.0199047025841177 0.011499405788703482
11.1906328125 -1.0165381520282049 -0.0005252872580476242
11.19178125 -1.0213523282593817 0.01013761070865729
11.1929296875 -1.0189147058292558 0.01516308512367498
11.194078125 -1.015047146842377 0.010030340001694171
11.1952265625 -1.0173635420370206 0.008046830579289316
11.196375 -1.0161017622209623 0.013765364020116758
11.1975234375 -1.0164448102028962 0.014243343799119193
11.198671875 -1.0143769783234915 0.0018746586862089798
11.1998203125 -1.0126473207036053 0.014590857247138128
11.20096875 -1.017552330810973 0.01604446517690139
11.2021171875 -1.010276576360482 -0.002969832050833482
11.203265625 -1.0173754460262676 0.01249064089797923
11.2044140625 -1.0164921022872044 0.016160760316975706
11.2055625 -1.0152543801951963 0.004772715039316658
11.2067109375 -1.015831940129155 0.011564213092364856
11.207859375 -1.0177019139114332 0.015779622433774107
11.2090078125 -1.0172981809585049 0.012059791180023177
11.21015625 -1.0137822502802714 0.009343609189180438
11.2113046875 -1.0180369509093175 0.015352067307021516
11.212453125 -1.0141456091563894 0.020107354383716497
11.2136015625 -1.0113822205736807 0.001975789390298466
11.21475 -1.0177533064512814 0.014669870740664115
11.2158984375 -1.017158650606136 0.013503410311828709
11.217046875 -1.0148950865211919 -0.0018415366715447412
11.2181953125 -1.0118663746582441 0.00891300243664743
11.21934375 -1.0209292059283188 0.014733635784534752
11.2204921875 -1.020266213932899 0.007070528429005053
11.221640625 -1.0161109974727591 0.007144426650522728
11.2227890625 -1.0131173614765316 0.015313679891316712
11.2239375 -1.0190545082447944 0.017435939929947533
11.2250859375 -1.0112998601940566 0.0003680601642446907
11.226234375 -1.0157599588174566 0.010868748228932662
11.2273828125 -1.0225288967205866 0.012931275473699225
11.22853125 -1.0134766092742205 -0.004251980287884155
11.2296796875 -1.0158477752385435 0.008845631991039625
11.230828125 -1.0149296195897424 0.014430843060212556
11.2319765625 -1.016014572523843 0.001492858653945689
11.233125 -1.0184446313936455 0.007896602171006503
11.2342734375 -1.0193163722127965 0.017636454747132137
11.235421875 -1.0166555900821441 0.009197543933102015
11.2365703125 -1.0165245050367897 0.007954294455610439
11.23771875 -1.0162197322229085 0.017083780864632248
11.2388671875 -1.0142511769756304 0.014192860586323852
11.240015625 -1.0076078830303252 -0.004111220560126194
11.2411640625 -1.0122325791054 0.004154031173385045
11.2423125 -1.0175173050544628 0.006975094119296893
11.2434609375 -1.0143871080091749 -0.01046227257099236
11.244609375 -1.0164770792460576 0.001893801095758929
11.2457578125 -1.0107734727135829 0.007591842229438761
11.24690625 -1.0133171649856652 -0.003744792096684768
11.2480546875 -1.013080909226029 -0.001571452257640632
11.249203125 -1.0177128391817263 0.004328649236123666
11.2503515625 -1.0143757027965332 0.003914049905297451
11.2515 -1.0140153309204707 -0.004897148442827237
11.2526484375 -1.013325861562246 0.009088194864299015
11.253796875 -1.0153948372327037 0.0053838308205405305
11.2549453125 -1.0117810763372854 -0.009994178031256601
11.25609375 -1.018329657181942 0.003201802141129806
11.2572421875 -1.0169776535835957 0.003909999729246133
11.258390625 -1.0078543665245383 -0.0036304484961171557
11.2595390625 -1.0097301768827356 0.00016067161463251267
11.2606875 -1.0151461679868596 0.006333526417785562
11.2618359375 -1.011264824045041 -0.003297849583784873
11.262984375 -1.0102567181348918 -0.004552384353775862
11.2641328125 -1.0104387187322883 0.0052064458702949235
11.26528125 -1.0154745841935657 0.0027049347695546067
11.2664296875 -1.0098076946073142 -0.009386026529736247
11.267578125 -1.014393994627294 0.0013633697851271886
11.2687265625 -1.0130706213470804 0.001577610781369504
11.269875 -1.0066116561099399 -0.012147113201618903
11.2710234375 -1.0099484427537038 0.003170569700389869
11.272171875 -1.010696485837927 0.0030526867346762354
11.2733203125 -1.006644978121544 -0.006380877317856137
11.27446875 -1.0094485291546746 -0.0012867745358377258
11.2756171875 -1.0110888977923647 0.0057254908753232026
11.276765625 -1.0110868297007514 0.003949294276563348
11.2779140625 -1.00723251766828 0.0006596049242810209
11.2790625 -1.0086739641267755 0.007822847558921014
11.2802109375 -1.0063518078464042 0.008547953699624189
11.281359375 -1.0025456954663714 -0.009501898728794533
11.2825078125 -1.0066114361444578 0.002636623166630353
11.28365625 -1.0082243358913323 0.009229998939135647
11.2848046875 -1.0069671551949118 -0.005269276390781619
11.285953125 -1.0043172464687782 0.006365588661435495
11.2871015625 -1.0059853756628656 0.006872327008696361
11.28825 -1.0077687247952112 0.0012951123924937191
11.2893984375 -1.000694996855295 0.001657189023425057
11.290546875 -1.0120265482256987 0.008800102744582677
11.2916953125 -1.0072378409250897 0.011148000288210724
11.29284375 -1.0060681832516885 -0.0021011033333201423
11.2939921875 -1.0047197322635384 0.006083242915012027
11.295140625 -1.0101544809617808 0.012004374583733657
11.2962890625 -0.9996183759393785 -0.0032142445395851593
11.2974375 -1.0025826111376883 0.004360943323520494
11.2985859375 -1.0113423132947714 0.014701430505674969
11.299734375 -1.003767133309128 0.0010025111438537113
11.3008828125 -1.0009146817833292 0.013213515685709804
11.30203125 -1.0059372150890795 0.0055223695851649435
11.3031796875 -1.0089188408276553 0.006001878106365877
11.304328125 -1.0033257948937924 0.00120780400889553
11.3054765625 -1.0058972831608264 0.010832675112098067
11.306625 -1.0110970004090525 0.015603212934845567
11.3077734375 -1.0106522123083233 0.0005492903886639422
11.308921875 -1.0090052781926673 0.011213547277778964
11.3100703125 -1.0086959899089527 0.016791839090009017
11.31121875 -1.0055929927680962 0.0011435340962591134
11.3123671875 -1.004260568710702 0.01484194487556878
11.313515625 -1.0128913996942208 0.017950175844027
11.3146640625 -1.0070606587093078 0.00417220124483092
11.3158125 -1.0080224941715537 0.0025142009984066016
11.3169609375 -1.0105672102676024 0.016409679851133868
11.318109375 -1.0079756812209126 0.017981808357820095
11.3192578125 -1.0050897387679378 0.0029030570784685517
11.32040625 -1.0057419836727606 0.01168073617842541
11.3215546875 -1.0098205204362416 0.014704265736344119
11.322703125 -1.002398854653467 -0.00032592172747358816
11.3238515625 -0.9995993469610428 0.011865073643579166
11.325 -1.0031025048798219 0.014104102772333066
11.3261484375 -1.0015016387477131 -0.0034641793626879747
11.327296875 -1.0048980531087586 0.006789691272307635
11.3284453125 -1.0016485264642943 0.015441589079879636
11.32959375 -0.9994969164084939 0.008327056831262142
11.3307421875 -1.0003248696769818 0.005985072108547068
11.331890625 -1.000510631366073 0.010575440836489536
11.3330390625 -0.9998328372831833 0.008144897226085218
11.3341875 -0.9973377269367815 -0.005765747333013993
11.3353359375 -0.9980476252945087 0.0037082378456280707
11.336484375 -1.0013699429081753 0.005795601835735659
11.3376328125 -1.0012400136256836 -0.012380542449385745
11.33878125 -1.0022144422095773 0.0012392197632721258
11.3399296875 -1.0056262200138149 0.002451895416408084
11.341078125 -1.0011318742580249 -0.004593379664322411
11.3422265625 -0.9977010267604514 -0.0004554582553583375
11.343375 -1.0037377623581245 0.005114543258598725
11.3445234375 -1.0052015540670072 0.00041317352715808386
11.345671875 -1.001440562187952 -0.005440790646936866
11.3468203125 -1.0040862488861064 0.002822423116352446
11.34796875 -1.0047591240786038 0.0049374131720226755
11.3491171875 -0.9999675848197049 -0.011916896451619197
11.350265625 -1.0025815570669596 -0.0003262314649420395
11.3514140625 -1.0020936600475332 0.006018576352361693
11.3525625 -0.9984826799247031 -0.010738762844789307
11.3537109375 -1.0035000554985527 -0.003501169524147696
11.354859375 -1.0072799900149254 0.004561569420773959
11.3560078125 -1.002789302934705 -0.007755666372484427
11.35715625 -1.0051475114831043 -0.005071721338148816
11.3583046875 -1.0029231973606545 -0.006469542711163179
11.359453125 -1.001707407656317 0.00011393473911902596
11.3606015625 -1.0050516815069372 -0.009192116703587272
11.36175 -1.005995998445871 0.0027549245123625887
11.3628984375 -1.0083002099191816 0.0020399853856098993
11.364046875 -1.0088309005888771 -0.013675324037746517
11.3651953125 -1.0084625635259856 0.0016207656088164657
11.36634375 -1.0124159649748634 0.0018740546963848526
11.3674921875 -1.0029122730875797 -0.010410473940548254
11.368640625 -1.0097012955922493 -0.0033853475065043215
11.3697890625 -1.011114481501313 0.010347940955735851
11.3709375 -1.0086459993526413 0.004393344111366743
11.3720859375 -1.0019048583379278 0.00044078885483975205
11.373234375 -1.009544540102221 0.007954407033463257
11.3743828125 -1.0066599631525115 0.0030248781623241072
11.37553125 -1.0043838849252829 -0.006700577483787135
11.3766796875 -1.0019777454872072 0.0012461700552268695
11.377828125 -1.0027663367997908 0.006875534879116324
11.3789765625 -0.9977570182357682 -0.01614433279592567
11.380125 -1.0072485852999997 0.0003339417187347149
11.3812734375 -1.0105972679426771 0.0027897635082914096
11.382421875 -1.0039046897050583 -0.00949448489009233
11.3835703125 -1.00359316888334 -0.0025660310620534976
11.38471875 -1.019226109514521 0.0012338937904896041
11.3858671875 -1.013656459206996 0.0051753066987274
11.387015625 -1.0117797042417527 -0.005747758563189931
11.3881640625 -1.0110446864834655 0.0032118202542736063
11.3893125 -1.0129994898476833 0.014053941489473892
11.3904609375 -1.0056812744430081 -0.01302863679356199
11.391609375 -1.0078945339455592 0.0036779525864884116
11.3927578125 -1.0067494767376461 -0.0016790217432383348
11.39390625 -1.0059268264035992 -0.0020126773809767406
11.3950546875 -1.0042902570544086 0.0014693538509152893
11.396203125 -1.0106335313134414 0.0008345169762707383
11.3973515625 -1.0091186776831107 -0.004184058092915249
11.3985 -1.0070756376837766 -0.004726875946250597
11.3996484375 -1.011893935569018 0.0022828384206081687
11.400796875 -1.0089551967248822 0.01167626323681728
11.4019453125 -1.0026917865858742 -0.005027675888483421
11.40309375 -1.0078281611890743 0.00963876133258712
11.4042421875 -1.0071696578751284 0.0032788398308238043
11.405390625 -1.004117351338911 -0.010508104610508537
11.4065390625 -1.000472276012327 0.005374353673787302
11.4076875 -1.004348018044861 0.005081185961814248
11.4088359375 -1.00074493156422 -0.006202170459496732
11.409984375 -0.999668328961377 0.004140493429492173
11.4111328125 -1.0040486313224348 0.002805660068061544
11.41228125 -0.9983519558320988 0.004945491224134631
11.4134296875 -0.9947064146219866 -0.0018626177981447452
11.414578125 -0.999963853873826 0.002339777597076223
11.4157265625 -0.9998396674783605 0.0024467032080678908
11.416875 -1.0006330316436483 -0.013430357343030531
11.4180234375 -1.000172755234351 0.0044255641350475355
11.419171875 -1.0012581474996547 0.00249592928564963
11.4203203125 -0.9941794800989251 -0.019015310277373625
11.42146875 -0.9967604426426235 -0.008514091218172237
11.4226171875 -0.9998970213189202 0.002033010770140599
11.423765625 -0.9973399238240312 0.0028103546685072506
11.4249140625 -0.998845196867511 0.004347271617644338
11.4260625 -0.9969505706613968 0.003134881291885036
11.4272109375 -0.9970395567387791 0.008069991032304227
11.428359375 -0.9957347146350659 -0.01267222548289508
11.4295078125 -0.9923234220877004 -0.0013963524864704022
11.43065625 -0.9923637753796649 0.0031887334665840067
11.4318046875 -0.9934778642143441 -0.008037257938424698
11.432953125 -0.9937147154525852 -0.002222335860053125
11.4341015625 -0.9946617493254366 0.002144734046156123
11.43525 -0.9940378621380573 -0.005183188032128042
11.4363984375 -0.9940209769994783 -0.001299612658225216
11.437546875 -0.9929906732499176 0.004749360762102389
11.4386953125 -0.998218773569221 0.005247026387824261
11.43984375 -0.9914130529792222 -0.012551465820135499
11.4409921875 -0.9929900706343595 0.004374320858145209
11.442140625 -0.9940614271952106 0.006736311869136978
11.4432890625 -0.9901108231661171 -0.012334330548620681
11.4444375 -0.994610271307841 -0.0005800100756778101
11.4455859375 -0.9971185508095597 0.00532030752619618
11.446734375 -0.9923812183325751 -0.001446903099412547
11.4478828125 -0.995455783680635 0.0011346938070222884
11.44903125 -0.9969756174650221 0.0058994700236486425
11.4501796875 -1.001163836258862 0.006829302539125767
11.451328125 -0.9934433060950972 -0.0018474343519243805
11.4524765625 -0.9966711121642794 0.005616706101632988
11.453625 -0.995369451532482 0.010488940040465966
11.4547734375 -0.9867932670892606 -0.009135900002032411
11.455921875 -0.9894736309410216 0.001977605160368559
11.4570703125 -0.9933308408471032 0.002542090674270664
11.45821875 -0.9926174421727967 -0.009200688466698234
11.4593671875 -0.994506379465792 0.00027244158147465836
11.460515625 -0.9935995066852207 0.00053555771109072
11.4616640625 -0.9964720001805187 -0.0009991561468393612
11.4628125 -0.9965165239479326 -0.004900028243209238
11.4639609375 -0.9965260546843964 0.002340877018490277
11.465109375 -0.9974118195271982 0.002193757635529932
11.4662578125 -0.9933031311236686 -0.006475033208363706
11.46740625 -0.9957780772967171 0.002162009140267082
11.4685546875 -0.9953582148169549 0.0037366696988169884
11.469703125 -0.994073094830372 -0.01070514833324926
11.4708515625 -0.997707151346904 -0.0007698748173506492
11.472 -0.9981164466133423 0.005477718666162187
11.4731484375 -0.9971925154915717 -0.0063156680368694484
11.474296875 -0.9973874196454453 -0.0010388774709780696
11.4754453125 -1.0007761699214388 0.003018969491625466
11.47659375 -0.9995760272934255 0.00014374796629397502
11.4777421875 -0.99935637335071 -0.004846975577724372
11.478890625 -0.9996155405238956 -0.000473214103831443
11.4800390625 -0.9977869718829152 0.0005841028706825013
11.4811875 -0.9941565422170144 -0.010781339300212314
11.4823359375 -0.9966140920658124 0.002793568302408511
11.483484375 -0.9935836247682712 0.005234670430818919
11.4846328125 -0.9916704966817458 -0.009570925662660296
11.48578125 -0.9911670135032524 -0.0022431852138593
11.4869296875 -0.9939142715094654 0.00043669028205328697
11.488078125 -0.9919869891205679 -0.010155322618102855
11.4892265625 -0.9890244431510973 -0.007799775373471027
11.490375 -0.9921677711968704 -0.00287741818788248
11.4915234375 -0.9950937399406566 -0.0014347624264904046
11.492671875 -0.986900906588636 -0.012721593562520075
11.4938203125 -0.9916186213481522 -0.004407634480834671
11.49496875 -0.9937845410872249 -0.005653199094196135
11.4961171875 -0.9874340309994081 -0.022002522414027434
11.497265625 -0.993442403316811 -0.013897895860599307
11.4984140625 -0.9897271008512625 -0.010225360264095415
11.4995625 -0.9897864986192375 -0.02449845438568031
11.5007109375 -0.9903147621790306 -0.01726146574885394
11.501859375 -0.9913685687306574 -0.0076799615175861535
11.5030078125 -0.9921300194693488 -0.013346161325372252
11.50415625 -0.9888562595401624 -0.01516874908934887
11.5053046875 -0.9916861155747825 -0.011857846844520431
11.506453125 -0.9901511001405509 -0.007783318783939244
11.5076015625 -0.9839030140011241 -0.026466495871365653
11.50875 -0.9890505917543073 -0.013016708710491778
11.5098984375 -0.9894095113388783 -0.014566593569034697
11.511046875 -0.9864530289303703 -0.02775095581093362
11.5121953125 -0.9850486506127909 -0.01998560218067366
11.51334375 -0.9899045352835025 -0.01705451411619932
11.5144921875 -0.9890981735329769 -0.023499018706520103
11.515640625 -0.9877003067679715 -0.021269237843469485
11.5167890625 -0.9903590045048597 -0.01830487591127311
11.5179375 -0.9929828318415694 -0.01612683477981447
11.5190859375 -0.9879773838653975 -0.02643460485723234
11.520234375 -0.9913036481912203 -0.01817804808453527
11.5213828125 -0.9931484063108407 -0.01573611288284238
11.52253125 -0.9883082797659326 -0.033764084211486356
11.5236796875 -0.9932763131012547 -0.019547286603241204
11.524828125 -0.9928867234943339 -0.017474326446661387
11.5259765625 -0.9910369117471935 -0.025730971095718425
11.527125 -0.9934433240322481 -0.019492340584467027
11.5282734375 -0.9942745216672787 -0.01648108515657684
11.529421875 -0.9936331988089762 -0.016813117715147624
11.5305703125 -0.9890473276941649 -0.023842516379753875
11.53171875 -0.9908869849671293 -0.017132370751769432
11.5328671875 -0.9911439702313813 -0.013998725895616793
11.534015625 -0.9917352296090618 -0.030020217595811555
11.5351640625 -0.9959172826963596 -0.016253041237582255
11.5363125 -0.9944794537369307 -0.014246749528626701
11.5374609375 -0.9919325698762814 -0.022702869143843035
11.538609375 -0.9937244732711069 -0.014512439164087565
11.5397578125 -0.9918473557204321 -0.01239545975557782
11.54090625 -0.9919121509150137 -0.01977303380278414
11.5420546875 -0.989225235197777 -0.01695535295504655
11.543203125 -0.9923087397995116 -0.011474876422367053
11.5443515625 -0.9916824755800209 -0.011166500032073673
11.5455 -0.9866960682584185 -0.025190663901295818
11.5466484375 -0.989819970547423 -0.021109769577517534
11.547796875 -0.9956437581564574 -0.015047444933131149
11.5489453125 -0.9901141981219349 -0.03305278962398031
11.55009375 -0.9966340790269462 -0.021983444588385775
11.5512421875 -0.9942706842002835 -0.019304708826580974
11.552390625 -0.9938510233402438 -0.030532619725035293
11.5535390625 -0.9932650843203612 -0.02474367888644899
11.5546875 -0.9961068761416838 -0.01716912804598225
11.5558359375 -0.9922874669742525 -0.0248261481053903
11.556984375 -0.9897643410543662 -0.02803431629737524
11.5581328125 -0.993226173415643 -0.021398940827460966
11.55928125 -0.9948574178784755 -0.02135928870967685
11.5604296875 -0.9913272478871942 -0.03234686349352883
11.561578125 -0.9973878280545998 -0.026291661487810647
11.5627265625 -0.9994949066569309 -0.019792442879024597
11.563875 -0.9951568831057401 -0.03396462916447163
11.5650234375 -0.9985039490519135 -0.025231095705758155
11.566171875 -1.0003036589241892 -0.019837549338647953
11.5673203125 -0.9964078796246492 -0.02874235205126524
11.56846875 -0.9981923189212707 -0.02475304800505157
11.5696171875 -1.0017816811853524 -0.01963573570562832
11.570765625 -1.0027613896608962 -0.018339607390785162
11.5719140625 -0.9969379118124244 -0.02871888234450687
11.5730625 -0.9993632762929986 -0.018461453787171178
11.5742109375 -0.9970602627848286 -0.015208670880936692
11.575359375 -0.9949198491227944 -0.034922662983564334
11.5765078125 -0.9967977160654022 -0.02751133017843746
11.57765625 -1.0010887567965687 -0.02503741946354382
11.5788046875 -0.9977313021587452 -0.03529608704785958
11.579953125 -0.9996229368318574 -0.02777887094237358
11.5811015625 -1.0029911174384274 -0.022776481039775143
11.58225 -1.0009284181417646 -0.03127823317235015
11.5833984375 -1.000376341962911 -0.03301701191959952
11.584546875 -1.0019786782278512 -0.025768186052238573
11.5856953125 -1.0025583792354538 -0.025522317851612103
11.58684375 -0.9988208904261429 -0.03947664619954058
11.5879921875 -1.0014177173635017 -0.02843405469136462
11.589140625 -1.0030723095063048 -0.026108547264715537
11.5902890625 -0.998306417617116 -0.04080461307874722
11.5914375 -1.0019853910582985 -0.03413163743872777
11.5925859375 -1.0092962580246603 -0.029313152980533996
11.593734375 -1.009021656241854 -0.04016259986551568
11.5948828125 -1.0110502163660404 -0.03583569311054255
11.59603125 -1.0142793239234191 -0.03251426195877363
11.5971796875 -1.0127429200093105 -0.03293751297865902
11.598328125 -1.0098285117491346 -0.03716009567762786
11.5994765625 -1.0131515847850916 -0.029188975040753656
11.600625 -1.0183863034299105 -0.02748462979098451
11.6017734375 -1.012216207155309 -0.0468238094750867
11.602921875 -1.017302725489685 -0.032081563554818976
11.6040703125 -1.0179825738230877 -0.03091094679820204
11.60521875 -1.0165474371314747 -0.04122204410998173
11.6063671875 -1.0221428865769309 -0.03541963886793361
11.607515625 -1.0298298478072283 -0.0311012877964707
11.6086640625 -1.0289950191216797 -0.0384873010446696
11.6098125 -1.0336555089266346 -0.03534156663552937
11.6109609375 -1.0412789886628957 -0.02321690667632398
11.612109375 -1.045975208287955 -0.016282895530562815
11.6132578125 -1.0385020990504312 -0.02316507260593116
11.61440625 -1.0386341248420838 -0.011778616707060846
11.6155546875 -1.0378485915255176 -0.006007580808322912
11.616703125 -1.0289909658778023 -0.017583532824660485
11.6178515625 -1.0296746312856024 -0.005758965092143908
11.619 -1.0305268212974938 -0.00265849406729049
11.6201484375 -1.0265105299826198 -0.01050559997661693
11.621296875 -1.0253014989070042 -0.005736154671695748
11.6224453125 -1.0234471197863122 -0.0013545019528540397
11.62359375 -1.0219160591263936 -0.00345483381134494
11.6247421875 -1.0181612382300393 -0.007713845181686552
11.625890625 -1.0180318583061114 -0.0049165275182834894
11.6270390625 -1.0186716072019277 -0.003309417950809801
11.6281875 -1.0136218155050272 -0.015011257039113213
11.6293359375 -1.016924071362298 -0.007226008225811847
11.630484375 -1.0181649426733974 8.464247020498195e-05
11.6316328125 -1.0098077397781218 -0.01591843993711678
11.63278125 -1.010762448217972 -0.006416468248942125
11.6339296875 -1.010755863255615 -0.0051414314856909615
11.635078125 -1.0102517313221235 -0.013293380002557836
11.6362265625 -1.0105392844651968 -0.012600122328531665
11.637375 -1.0163039055378058 -0.008757230346513906
11.6385234375 -1.0206376721926957 -0.007073144840070794
11.639671875 -1.0168186725140413 -0.010981334229517026
11.6408203125 -1.0158796942859802 -0.0018057446700968927
11.64196875 -1.0129533948807992 0.001458325309538655
11.6431171875 -1.0027859626232458 -0.013882023777481545
11.644265625 -1.0030872861680187 -0.0011039694325078175
11.6454140625 -1.0039996608889938 -0.0038335407915906505
11.6465625 -0.9970535443525677 -0.01515482961128678
11.6477109375 -1.0019790611146357 -0.010923496452629272
11.648859375 -1.0027098329746007 -0.008616117705123383
11.6500078125 -1.0015009343566257 -0.01338314194863896
11.65115625 -0.9981924349931715 -0.018744942142457255
11.6523046875 -1.0061482330222122 -0.011669261625960825
11.653453125 -1.0056077447118463 -0.012452905279633497
11.6546015625 -1.0021128880824808 -0.023340830482344754
11.65575 -1.0079939174192867 -0.014781532291878285
11.6568984375 -1.008156291523985 -0.01178444424415781
11.658046875 -1.0045270726475604 -0.024281216050106635
11.6591953125 -1.0067529605345182 -0.013545941048781082
11.66034375 -1.0103154924940954 -0.008863584656987528
11.6614921875 -1.004929966749756 -0.018347892283357425
11.662640625 -1.001595794400295 -0.012249377265270867
11.6637890625 -1.004429617026359 -0.01041759316614159
11.6649375 -1.0074638885958687 -0.011880561218653274
11.6660859375 -1.0044419809772904 -0.018085730305192095
11.667234375 -1.0074420743453174 -0.009325613345855965
11.6683828125 -1.004944318529202 -0.00729030366477651
11.66953125 -0.9974941614502877 -0.022700819022663965
11.6706796875 -1.0017052940804416 -0.01429161668243667
11.671828125 -1.0032646299382249 -0.009376773709239894
11.6729765625 -0.998935231964857 -0.021372759178505035
11.674125 -0.9986688047876451 -0.01301355478187094
11.6752734375 -1.0029666535962658 -0.00901776487852659
11.676421875 -0.9956531835827003 -0.018601641429448014
11.6775703125 -0.995675602226541 -0.016475007545928094
11.67871875 -0.9952683589632255 -0.013575901220283099
11.6798671875 -0.9959328284781728 -0.01285227794043882
11.681015625 -0.99206240446403 -0.027063919327842162
11.6821640625 -0.9970642462884733 -0.02104299735588533
11.6833125 -1.003577502324478 -0.02104689204928216
11.6844609375 -0.9976608386201768 -0.03479907939916414
11.685609375 -1.0015261775244628 -0.0223555940410593
11.6867578125 -1.001286085096329 -0.017350860190983947
11.68790625 -1.0003880067609412 -0.02896405284057177
11.6890546875 -1.0016657121343422 -0.024244065430900102
11.690203125 -1.0042542011139042 -0.021985870690495735
11.6913515625 -1.0081523813287625 -0.025886340113676187
11.6925 -1.0066285222873024 -0.026394556306301525
11.6936484375 -1.0110429674546126 -0.023079361060994674
11.694796875 -1.012347771421391 -0.01970908730387494
11.6959453125 -1.0086416073644977 -0.0326175156934132
11.69709375 -1.0140078160207393 -0.02246712292842401
11.6982421875 -1.0157703605921018 -0.017260037624867552
11.699390625 -1.013016429666541 -0.029391527819042085
11.7005390625 -1.015468378322687 -0.020850229537634213
11.7016875 -1.0195766086248028 -0.01668540952370895
11.7028359375 -1.0154690502574497 -0.026316177329008594
11.703984375 -1.0148759671675616 -0.020398043633786167
11.7051328125 -1.0189160616686213 -0.016959667453355365
11.70628125 -1.020073740349398 -0.01353203499411687
11.7074296875 -1.0178751384193152 -0.025093971681423743
11.708578125 -1.019425152735395 -0.01846831985848174
11.7097265625 -1.0225993982097514 -0.013933084382646233
11.710875 -1.02048475174777 -0.02601639751216367
11.7120234375 -1.0239044516821867 -0.01263655642232997
11.713171875 -1.0254502696943795 -0.0070806067269673645
11.7143203125 -1.0221249187654067 -0.017373116582452164
11.71546875 -1.0223917900128268 -0.008381503752322439
11.7166171875 -1.0225060357991729 0.00011428144258790462
11.717765625 -1.0211676130071927 -0.0053492790240531884
11.7189140625 -1.0184372062714813 -0.008442439568057014
11.7200625 -1.0239527597410967 -0.0016473386982634453
11.7212109375 -1.0230218480866353 0.0007830402069851639
11.722359375 -1.0169150714274602 -0.011066495435777757
11.7235078125 -1.0178912689122384 -0.003932850085934025
11.72465625 -1.0200820603610876 -0.0016261767520951431
11.7258046875 -1.0144009870661628 -0.023778683807053946
11.726953125 -1.0216750596722604 -0.014319415302485206
11.7281015625 -1.0231721767610384 -0.00727602597338417
11.72925 -1.0254128411041807 -0.007873109626384656
11.7303984375 -1.0267423649740244 -0.005349073740098131
11.731546875 -1.0292104886118305 -0.0055098875114451
11.7326953125 -1.030660279185762 -0.004793635725226619
11.73384375 -1.0279993122287177 -0.018494511777300826
11.7349921875 -1.0314955624330984 -0.0086599671273076
11.736140625 -1.0366467626949494 -0.0015439508662781765
11.7372890625 -1.0335974775424428 -0.007565228778402322
11.7384375 -1.033438530918792 0.002272947137956338
11.7395859375 -1.0330811461478662 0.00974956647604358
11.740734375 -1.0287243651104379 0.004207116557954638
11.7418828125 -1.0245018827218249 0.004797154649410051
11.74303125 -1.023408412417611 0.008446511302228732
11.7441796875 -1.0240740020062153 0.01032684813015855
11.745328125 -1.0206644493646606 0.0012231432186344815
11.7464765625 -1.0246154976095951 0.009412464277377186
11.747625 -1.0223534311166447 0.01233680311190688
11.7487734375 -1.0180660312247372 -0.003133194306063347
11.749921875 -1.0169068549107068 0.0051124159846026584
11.7510703125 -1.018764851591798 0.007789626022453089
11.75221875 -1.0201843073668955 -0.0042587871754972695
11.7533671875 -1.0191697724937374 0.0015500353772859021
11.754515625 -1.0190884173002686 0.005819540777355581
11.7556640625 -1.01797942718943 0.005117881987119238
11.7568125 -1.0154110068185642 0.0017067102589821415
11.7579609375 -1.0173664186915445 0.005363306327861889
11.759109375 -1.018852566008427 0.008824475268907978
11.7602578125 -1.0137983571955957 -0.007061973621788203
11.76140625 -1.0166452495135812 0.002742186973779065
11.7625546875 -1.0142787640624265 0.0043165504888049155
11.763703125 -1.0129852612429469 -0.009276934154484731
11.7648515625 -1.0169175372162202 -0.0008895841423159773
11.766 -1.0202169215676857 0.003611013892019857
11.7671484375 -1.0196769258911418 -0.006176799201754284
11.768296875 -1.0177319339704236 -0.0018583675300629307
11.7694453125 -1.0201820815580391 0.0016538284487496446
11.77059375 -1.0212777185157482 0.004937074874436495
11.7717421875 -1.0171335327966002 -0.005439985320573659
11.772890625 -1.021031200290929 0.0011591241934069685
11.7740390625 -1.020722369914921 0.006043288298812205
11.7751875 -1.0166632916082614 -0.006155691083993525
11.7763359375 -1.020002623124253 0.004640974186335259
11.777484375 -1.0235800737353333 0.009699050972026002
11.7786328125 -1.0190468966704664 -0.002669177050038815
11.77978125 -1.022346373715038 0.002499738120612466
11.7809296875 -1.0202965792800482 0.007147313342198314
11.782078125 -1.0184140700216047 0.0035590583045836954
11.7832265625 -1.0185885070619323 0.0003432636704762959
11.784375 -1.0213561105108855 0.0033446626306890825
11.7855234375 -1.0196965504110398 0.00805139206253272
11.786671875 -1.014985984018375 -0.00486684893324299
11.7878203125 -1.0169590217241369 0.005638721337783925
11.78896875 -1.0202080359278352 0.006834406782802838
11.7901171875 -1.016205905973082 -0.004708406490631006
11.791265625 -1.0177431161280222 0.004046667732059472
11.7924140625 -1.0173976333960155 0.007072375961191479
11.7935625 -1.0189428991772471 0.0017171338521769497
11.7947109375 -1.0160558711914376 0.0015635534134627038
11.795859375 -1.0203987338241842 0.008986509653348573
11.7970078125 -1.0191536745676035 0.011608184017559808
11.79815625 -1.0147156252022156 0.0012445833416489527
11.7993046875 -1.0146539809523993 0.0094446719366299
11.800453125 -1.0112618572936811 0.014025534794259303
11.8016015625 -1.009011823615484 -0.003757394448011875
11.80275 -1.0093741941784187 0.0033120526628905855
11.8038984375 -1.0105550194024762 0.0048615990786806396
11.805046875 -1.008263524383244 -0.004089820127336108
11.8061953125 -1.0107835112751167 -0.0003318276937862019
11.80734375 -1.014165680943087 0.0014699951997680927
11.8084921875 -1.0115216651488115 -0.0017526284108096979
11.809640625 -1.0118029380293572 -0.001840872986236447
11.8107890625 -1.0162529772083362 0.004996561875183436
11.8119375 -1.0167682011570467 0.009854366558244149
11.8130859375 -1.0113382605660384 -0.0036052577184831625
11.814234375 -1.015446150370358 0.004233489529319623
11.8153828125 -1.0140138419673144 0.007835591623215815
11.81653125 -1.014394658790762 -0.004483227291560199
11.8176796875 -1.0128685376204027 0.006257186870068182
11.818828125 -1.0119310553059475 0.00870052040289869
11.8199765625 -1.0107583594775105 -0.0019345073540733837
11.821125 -1.0102786826733225 0.004705702866664788
11.8222734375 -1.0108664769621523 0.0043579542257587145
11.823421875 -1.010782276366463 0.007709605711939571
11.8245703125 -1.0080265048100188 -0.001291161909076327
11.82571875 -1.0129187986016337 -0.00011192246004673723
11.8268671875 -1.0134059808077258 0.005533706961412324
11.828015625 -1.0096576683748228 -0.007399664883641195
11.8291640625 -1.014164165720273 -0.0022656732669290094
11.8303125 -1.0154295803670697 -0.0011295450060393453
11.8314609375 -1.0122134028626546 -0.009108503261441359
11.832609375 -1.013089698927984 -0.003639158557234512
11.8337578125 -1.0169878492392987 -0.0016153330770795338
11.83490625 -1.0125170683257763 -0.0023429318889177098
11.8360546875 -1.016845450227101 -0.0053790700298254335
11.837203125 -1.0210910961824917 -0.0031149442491979484
11.8383515625 -1.0218666805731949 -0.0016781420199238617
11.8395 -1.014528730778383 -0.0048360883313129654
11.8406484375 -1.0209139420498023 0.001832611476706325
11.841796875 -1.0201723114821353 0.0032588418996891133
11.8429453125 -1.0159180724159385 -0.00737921785261042
11.84409375 -1.0159236716279754 -0.001618978793955228
11.8452421875 -1.0192904379552055 0.0011925026908736758
11.846390625 -1.0182077974066985 -0.004262982307133567
11.8475390625 -1.0152463977436015 -0.002835276403520548
11.8486875 -1.019197452243092 -0.00011026553382120774
11.8498359375 -1.0188591210853395 -0.0004818897891266105
11.850984375 -1.0162345494498648 -0.008316181077747842
11.8521328125 -1.0211279643198719 -0.0016335310060304753
11.85328125 -1.0210123149402435 0.001722782648195531
11.8544296875 -1.0168483358891787 -0.011325394936362088
11.855578125 -1.0221180316068195 -0.003856888403932668
11.8567265625 -1.024817824116547 -0.002703893298210358
11.857875 -1.0233019818637707 -0.012170924311539544
11.8590234375 -1.0249241415405876 -0.0053020931189963205
11.860171875 -1.0267263695631428 0.0006022503238425347
11.8613203125 -1.0248508605465905 -0.005530362133264521
11.86246875 -1.0254802500724927 -0.004738951850096984
11.8636171875 -1.0291459894556607 -0.0003573825684233256
11.864765625 -1.02755336236063 0.005510247139612234
11.8659140625 -1.0230143222688663 -0.0031447826353444563
11.8670625 -1.0260684640383593 0.003589510456816103
11.8682109375 -1.0254778262933695 0.00527269655364726
11.869359375 -1.0216735546420574 -0.008531620205207147
11.8705078125 -1.0249729757090482 -0.00101849845019375
11.87165625 -1.02985648909236 0.0010195620038168096
11.8728046875 -1.0291457101303134 -0.004667866412535582
11.873953125 -1.0266456695044313 -0.0014261308254166494
11.8751015625 -1.0310992927834386 0.0017520162386676086
11.87625 -1.030944537910662 -0.0002466455938584522
11.8773984375 -1.0302469079081669 -0.002830476450493391
11.878546875 -1.0344507702242394 0.0034868847251882107
11.8796953125 -1.033221169925843 0.007991844070344478
11.88084375 -1.0291042288165095 2.1399442654557177e-06
11.8819921875 -1.0319216902746924 0.006895550591742294
11.883140625 -1.0305963785763779 0.009543063485070946
11.8842890625 -1.0252882980162767 -0.0035592614999407912
11.8854375 -1.0270234446279831 0.0010499880787109284
11.8865859375 -1.0271348260288053 0.004588554306769743
11.887734375 -1.0254340913663282 -0.002425866796806231
11.8888828125 -1.027995017016736 -0.0027583955058453347
11.89003125 -1.0332868486665017 0.00080679874953693
11.8911796875 -1.034743695166497 0.002215912989312563
11.892328125 -1.030173518830836 -0.005972644960737794
11.8934765625 -1.0350875570010676 0.00038972095642053617
11.894625 -1.0353729388343826 0.0029285315903612164
11.8957734375 -1.031901446036201 -0.010784950465662302
11.896921875 -1.0353006116295438 -0.0033081383894008054
11.8980703125 -1.036125046927783 0.0009676704308390072
11.89921875 -1.0307193081732522 -0.006393077552625415
11.9003671875 -1.0310663523658525 -0.003957275727363152
11.901515625 -1.0362574942428273 -0.0014252443417327454
11.9026640625 -1.0370253843945323 -0.005050628107320654
11.9038125 -1.0351255893375735 -0.007217254280417362
11.9049609375 -1.0386966080555502 -0.0027701236810039886
11.906109375 -1.0416358210217926 -0.0018199103447566478
11.9072578125 -1.0389083843199538 -0.015774059231528748
11.90840625 -1.0419592428990208 -0.007679841888409922
11.9095546875 -1.0451285427141488 -0.004991330428450957
11.910703125 -1.0437224217865642 -0.017013280810955322
11.9118515625 -1.0458557764775314 -0.0073322325008363665
11.913 -1.049361172628914 -0.00501493719622792
11.9141484375 -1.048107435504552 -0.012290803545910445
11.915296875 -1.052269754631286 -0.011423619740477675
11.9164453125 -1.0573773771852082 -0.00789708426880914
11.91759375 -1.0630125113171476 -0.005212335699026238
11.9187421875 -1.0629688537754123 -0.010036849044029461
11.919890625 -1.0674173138578542 0.0005401027232272426
11.9210390625 -1.0698329743757693 0.004606231680298528
11.9221875 -1.0663634953424839 -0.004410134671860744
11.9233359375 -1.0709688478838157 0.006780973406409596
11.924484375 -1.0734305015626366 0.015309358644003956
11.9256328125 -1.0717069069342116 0.008804291204405928
11.92678125 -1.0765398447948553 0.017371104549322725
11.9279296875 -1.0784702005449882 0.028428560716069667
11.929078125 -1.0764371022586754 0.027634873710912722
11.9302265625 -1.0724232701536804 0.03332768526080432
11.931375 -1.0694260261688415 0.037912142089903886
11.9325234375 -1.0660345082442273 0.03890061601218489
11.933671875 -1.0587383155736039 0.02850280891719771
11.9348203125 -1.059421761744404 0.03438696897091667
11.93596875 -1.0591522369154662 0.035580441352286926
11.9371171875 -1.0535930513994867 0.021571525106941075
11.938265625 -1.056721285796057 0.026906306670072516
11.9394140625 -1.0604047240986523 0.029006162321619552
11.9405625 -1.0596578012187556 0.019938020679298542
11.9417109375 -1.0633693487497016 0.026524948196318923
11.942859375 -1.0653964729576473 0.031103950715796594
11.9440078125 -1.0637002933167148 0.03060838224272147
11.94515625 -1.0596107333713607 0.028468504653514554
11.9463046875 -1.0619070374783355 0.033696620713474845
11.947453125 -1.0609002247000219 0.03558421740241878
11.9486015625 -1.0550059888340189 0.02058562305448306
11.94975 -1.0607579599000914 0.02571201302947724
11.9508984375 -1.0630717829433567 0.027340025670309923
11.952046875 -1.0643609570850845 0.016780031113378863
11.9531953125 -1.070727461101251 0.022342892049611485
11.95434375 -1.0800807167002435 0.02609229492502959
11.9554921875 -1.0828503918614076 0.02599228366475512
11.956640625 -1.0861689475987253 0.03367888151782007
11.9577890625 -1.0939314588838245 0.04399940662961441
11.9589375 -1.097267926886407 0.05733893443348145
11.9600859375 -1.0884883093488962 0.057825169057035455
11.961234375 -1.0871744089162863 0.07092498910624467
11.9623828125 -1.083879216198235 0.07638205187031467
11.96353125 -1.0729022679193112 0.06785792339807131
11.9646796875 -1.0714163990772405 0.08148001503089863
11.965828125 -1.0643959538147405 0.08905248841374318
11.9669765625 -1.0561971409171342 0.07727610352562515
11.968125 -1.0547327122538344 0.08151659611968404
11.9692734375 -1.0524493974981242 0.08371074863260772
11.970421875 -1.0502528844843906 0.08104513977973055
11.9715703125 -1.0474164843065779 0.07548494667144633
11.97271875 -1.0470840976220184 0.08011307432900563
11.9738671875 -1.0438223668067297 0.0839272695540344
11.975015625 -1.0399691987178492 0.07072393916513695
11.9761640625 -1.0385933537420173 0.08002504171389532
11.9773125 -1.0393057610209604 0.08258293123704226
11.9784609375 -1.0339677207129037 0.06656669155921378
11.979609375 -1.0380946497428707 0.07104086736984294
11.9807578125 -1.042263885173368 0.07486708107052303
11.98190625 -1.0409131378765117 0.07186892318233853
11.9830546875 -1.0406803288059303 0.07799342965044279
11.984203125 -1.0374339601430718 0.08753067384480745
11.9853515625 -1.033979883511071 0.08894474891563517
11.9865 -1.0281274650689585 0.08202359526416445
11.9876484375 -1.0262111055762875 0.08624256758030518
11.988796875 -1.024113222968389 0.08589937377042481
11.9899453125 -1.0197047589421333 0.06849141999025199
11.99109375 -1.0236761571119286 0.07654767625258097
11.9922421875 -1.025393576548504 0.08096852636546531
11.993390625 -1.0219679157202204 0.07323505032249197
11.9945390625 -1.0212213888659118 0.08153733676190655
11.9956875 -1.0204670447201416 0.0887453189899235
11.9968359375 -1.0162771968215354 0.08421545081618564
11.997984375 -1.011196097727168 0.08068511452477628
11.9991328125 -1.010427165011424 0.08509743161690503
12.00028125 -1.005890162362995 0.07840589432204065
12.0014296875 -1.0029056138566754 0.08266670540912174
12.002578125 -1.0039632928495004 0.07779444985245348
12.0037265625 -1.002544116710899 0.07449295805192813
12.004875 -1.0022373714900952 0.07838115451497912
12.0060234375 -1.0012305226119569 0.08054463125559286
12.007171875 -0.9978583095089196 0.06941164709122755
12.0083203125 -1.0000463805883517 0.07266449627755478
12.00946875 -1.0006964079721676 0.07634142605536387
12.0106171875 -0.9986953618113524 0.06424856486598735
12.011765625 -1.000632275721244 0.07023903385910613
12.0129140625 -1.0000296963176023 0.07624308466193547
12.0140625 -0.996491479558296 0.06725769738879855
12.0152109375 -0.9970636387711092 0.07306683909020201
12.016359375 -0.9964319019815593 0.07575130401949981
12.0175078125 -0.9938241311565459 0.07321091282849246
12.01865625 -0.9891219531002171 0.06795075021474134
12.0198046875 -0.9885742181098158 0.07077196053707735
12.020953125 -0.9874393779518383 0.07241303716979963
12.0221015625 -0.9828224808800454 0.05826021063944137
12.02325 -0.984692261666922 0.0641806596452924
12.0243984375 -0.9850378648627255 0.06544758371459786
12.025546875 -0.983761265635225 0.05283971888681627
12.0266953125 -0.9846851683512341 0.0577536298700464
12.02784375 -0.9886073982907644 0.06262012834892627
12.0289921875 -0.9869594938275763 0.058504050998142265
12.030140625 -0.9860549822228803 0.0577380313694239
12.0312890625 -0.9857040768740694 0.060988782840998956
12.0324375 -0.9850906225859924 0.06013232990907352
12.0335859375 -0.9821004728100879 0.05338978015763174
12.034734375 -0.9833626483391691 0.0595426120695855
12.0358828125 -0.9829971786887435 0.06254251707958425
12.03703125 -0.980378571524035 0.04991145399942509
12.0381796875 -0.9810077594098051 0.05695451423965536
12.039328125 -0.9790745016336687 0.058254396456491664
12.0404765625 -0.9744575639731884 0.049782765362746395
12.041625 -0.9767159485066526 0.051421823246819265
12.0427734375 -0.9760894738088612 0.05320166275725785
12.043921875 -0.9742069059931151 0.04840702116886514
12.0450703125 -0.9718144324174636 0.04360159377380812
12.04621875 -0.9740877096344186 0.04574065471009431
12.0473671875 -0.9749310087955063 0.047321084767812605
12.048515625 -0.973504131884144 0.034743543191723236
12.0496640625 -0.9780415160204269 0.038604754045481304
12.0508125 -0.9797099348393782 0.040349185913175545
12.0519609375 -0.9774268481244393 0.029676617883784562
12.053109375 -0.9786459821478951 0.03549445079128832
12.0542578125 -0.9801297540705167 0.03929972609579646
12.05540625 -0.979599211012516 0.0320187407795125
12.0565546875 -0.9814695217039281 0.031123699838055185
12.057703125 -0.982838431040187 0.0356169048067102
12.0588515625 -0.9826421469794919 0.03633068456898231
12.06 -0.983062283015346 0.026814794550418408
12.0611484375 -0.9864096505379395 0.030543473630282314
12.062296875 -0.9888645449465034 0.03318547862291521
12.0634453125 -0.9878555042187109 0.02196400175809643
12.06459375 -0.9909757445213745 0.030884014273898697
12.0657421875 -0.9940596064910077 0.0342437807351601
12.066890625 -0.9928743775134363 0.028349554345483696
12.0680390625 -0.9949343942839184 0.03560021710791422
12.0691875 -0.9954563489116156 0.04220512018180467
12.0703359375 -0.9896987388186469 0.038691827958572955
12.071484375 -0.9908844480848018 0.03782320926867749
12.0726328125 -0.9922496750005809 0.04154419169805243
12.07378125 -0.9922290526779025 0.04363462109517774
12.0749296875 -0.9905545586673838 0.036704919117699325
12.076078125 -0.9902698435338158 0.042797364094499885
12.0772265625 -0.9890265032502752 0.047742127424075215
12.078375 -0.9811374732193872 0.03249857449750973
12.0795234375 -0.9814887391625162 0.03772346017505224
12.080671875 -0.983102434298204 0.044455175971340466
12.0818203125 -0.9807472735974303 0.04607331108346682
12.08296875 -0.9809424313308504 0.04660487827061299
12.0841171875 -0.9815961614831816 0.044545094621609244
12.085265625 -0.9803628478189913 0.043397742561395725
12.0864140625 -0.978373608435675 0.030576778537279303
12.0875625 -0.9777682039890876 0.03779925225810593
12.0887109375 -0.9789712349482573 0.04034700906021174
12.089859375 -0.9760198712536423 0.029792361537108403
12.0910078125 -0.9781879949310297 0.033093580096290265
12.09215625 -0.9803331145244558 0.03851182279224927
12.0933046875 -0.9777108589255232 0.036588621934502144
12.094453125 -0.9748662952394878 0.03694408236370039
12.0956015625 -0.9714166177722533 0.03748777777954468
12.09675 -0.970627642458094 0.03804557062399666
12.0978984375 -0.9672440119618697 0.025543200397201316
12.099046875 -0.9689850885345471 0.028825462044742012
12.1001953125 -0.9696822553782902 0.02839231212052333
12.10134375 -0.9682099939294961 0.016656737360729396
12.1024921875 -0.9743416363014432 0.02044148715896297
12.103640625 -0.9748851517024764 0.023658165102388856
12.1047890625 -0.9730973496312547 0.015968299871575428
12.1059375 -0.9764003381465012 0.019822138432649572
12.1070859375 -0.9778717280139353 0.023437735989793845
12.108234375 -0.9749088590234889 0.021405821888105192
12.1093828125 -0.9736903345491041 0.019059420940824995
12.11053125 -0.9739614586306221 0.020751070329557475
12.1116796875 -0.9743656145686053 0.02123124299569057
12.112828125 -0.9730841607939312 0.008327193182489132
12.1139765625 -0.9765088651283642 0.012176223531410797
12.115125 -0.979135919284315 0.01288469253617322
12.1162734375 -0.979169400047712 0.0032359222620208516
12.117421875 -0.9838144578739786 0.007784931443959198
12.1185703125 -0.9879204542855041 0.01126642747889095
12.11971875 -0.9882891076823408 0.008312045618184383
12.1208671875 -0.992013575743788 0.01126563264650822
12.122015625 -0.9942880100904605 0.019211038290739182
12.1231640625 -0.9937687158963353 0.024572064882732114
12.1243125 -0.9877902919317877 0.017812846191569788
12.1254609375 -0.9870000703801274 0.022823766030853787
12.126609375 -0.985125873809741 0.02767543420929791
12.1277578125 -0.9803062433662634 0.007562248244138342
12.12890625 -0.9835311499471253 0.01927214142135561
12.1300546875 -0.9837814981595487 0.022619333349501114
12.131203125 -0.9830931013109209 0.02443340696845918
12.1323515625 -0.9811624082822519 0.026285590966439384
12.1335 -0.9806971726209031 0.02673010861506385
12.1346484375 -0.9793257823195964 0.02525025993501248
12.135796875 -0.9759573218978852 0.01229743826951167
12.1369453125 -0.9784556227106561 0.014397869052476836
12.13809375 -0.9784854178101998 0.017120185513469777
12.1392421875 -0.9755753998727505 0.006441464630255106
12.140390625 -0.9794828927469851 0.01307046304299897
12.1415390625 -0.9800238654261773 0.014548412033673769
12.1426875 -0.9795269345085815 0.0076841830715322496
12.1438359375 -0.9782303192970779 0.008296228761386637
12.144984375 -0.9807984049474693 0.009905797239592715
12.1461328125 -0.9811172937476975 0.0021892429831505272
12.14728125 -0.9826622967341139 -0.004509310638086572
12.1484296875 -0.9894267039295677 0.0025639613740433
12.149578125 -0.9931980463084025 0.003789332134162632
12.1507265625 -0.9924878697479999 -0.00645267426489704
12.151875 -1.0000973210292365 0.0019096904376446622
12.1530234375 -1.0031699800271756 0.007678340734919298
12.154171875 -1.004153021832899 0.004142842343677594
12.1553203125 -1.0074428093864936 0.010202770792145183
12.15646875 -1.0095463187087237 0.016288182886238595
12.1576171875 -1.005582527850869 0.020359961233620133
12.158765625 -1.0032514872328693 0.023409406339957167
12.1599140625 -0.9990401254201527 0.027290653252059816
12.1610625 -0.9989774849620001 0.029126789697084016
12.1622109375 -0.9979328295885148 0.019892317860260605
12.163359375 -0.9986876542376117 0.025984784751297924
12.1645078125 -0.9997947071034737 0.03237954276851067
12.16565625 -0.9957163609992716 0.02543764161422643
12.1668046875 -0.9964173617827375 0.03105420646913669
12.167953125 -0.9961430715805888 0.03885149331810356
12.1691015625 -0.9900634054255122 0.03396715038594866
12.17025 -0.9876395511265271 0.03373205862411496
12.1713984375 -0.9866950772517225 0.039828938923676505
12.172546875 -0.9825668648196695 0.03541821761318334
12.1736953125 -0.9797240032029597 0.03557113697475797
12.17484375 -0.9791022275662697 0.042228545493695036
12.1759921875 -0.9758755237498435 0.04125237398517215
12.177140625 -0.969919976572805 0.03193792778407806
12.1782890625 -0.9693331028849512 0.03689181356492427
12.1794375 -0.965028685406765 0.03818319305321391
12.1805859375 -0.9607441792389492 0.025966060894730553
12.181734375 -0.9625427899351275 0.028569008825785086
12.1828828125 -0.9598513625970801 0.028969794775056054
12.18403125 -0.9597233251094228 0.02176380571921517
12.1851796875 -0.9595997947955452 0.017140057945828707
12.186328125 -0.963376282805654 0.018949581422392087
12.1874765625 -0.9641987960695876 0.01881317507818836
12.188625 -0.9642441285039178 0.011492637616836554
12.1897734375 -0.9640256734400795 0.018074720858878457
12.190921875 -0.961687431598355 0.020535044412112055
12.1920703125 -0.9559294456165319 0.007867677990713057
12.19321875 -0.9574695683632848 0.009940652417534862
12.1943671875 -0.9587053308820989 0.010036356859601192
12.195515625 -0.9585748731471961 -4.92278733404683e-05
12.1966640625 -0.962230306194819 0.00037730110167939757
12.1978125 -0.9652704756416695 0.0036089515995301746
12.1989609375 -0.969073555360264 0.003551648230244009
12.200109375 -0.968918344642667 0.0016498473358094456
12.2012578125 -0.9682377843983403 0.008690376256209956
12.20240625 -0.9681968739113935 0.013644227453079957
12.2035546875 -0.9632638290524436 0.003159136976745372
12.204703125 -0.9635639663538316 0.009136927101587117
12.2058515625 -0.9636868114214124 0.009319071304531273
12.207 -0.9580645544490942 -1.181803256188052e-05
12.2081484375 -0.9574267042713003 0.00204813840283935
12.209296875 -0.9583100607559039 0.0022758116474812795
12.2104453125 -0.9594718768756657 -0.0034259877257121485
12.21159375 -0.9612609161947522 -0.004978278856154816
12.2127421875 -0.9612297392004148 -0.001215160207374888
12.213890625 -0.961360619305031 -0.003165168661578871
12.2150390625 -0.9590431747184438 -0.010498154655828165
12.2161875 -0.9641272573610489 -0.00446457911016733
12.2173359375 -0.9638044024714619 -0.00400271545478427
12.218484375 -0.9608624887473646 -0.010506672610728185
12.2196328125 -0.9630425389454794 -0.004623817763133198
12.22078125 -0.9637786701684624 -0.0008724962161113237
12.2219296875 -0.9583528099117368 -0.010113408916374855
12.223078125 -0.957841101837932 -0.009063540322683535
12.2242265625 -0.9601230978920575 -0.005124525003452299
12.225375 -0.9565574442008579 -0.008935490434222051
12.2265234375 -0.9531369109973082 -0.01396824360329138
12.227671875 -0.9551340540355346 -0.011522111366067109
12.2288203125 -0.9556579949877879 -0.013282754946764369
12.22996875 -0.9561512088544969 -0.021914849427888572
12.2311171875 -0.9554458344298848 -0.018805516408073902
12.232265625 -0.955275528477702 -0.015318450239822451
12.2334140625 -0.949706454055306 -0.027339221227041778
12.2345625 -0.9516829414845147 -0.02406058999633116
12.2357109375 -0.9558076347067133 -0.0276112337087088
12.236859375 -0.9544193782762067 -0.032049761842785573
12.2380078125 -0.9556671433742828 -0.03658258717917602
12.23915625 -0.9605683314761684 -0.033194779441551636
12.2403046875 -0.9592262234364589 -0.034373962741827774
12.241453125 -0.957310046412385 -0.040054880139596835
12.2426015625 -0.9567770169624387 -0.03785132320440529
12.24375 -0.957192847956018 -0.03976846093369269
12.2448984375 -0.9574722718322171 -0.05347574275898399
12.246046875 -0.9616229020173211 -0.05081553995562232
12.2471953125 -0.9631342468343786 -0.050234333118826496
12.24834375 -0.9629172101914764 -0.05941206491860582
12.2494921875 -0.9673635030752136 -0.0596374861753958
12.250640625 -0.969934643657766 -0.05909993518122243
12.2517890625 -0.973056969908181 -0.06440552047720505
12.2529375 -0.9791723842727463 -0.06619276204291685
12.2540859375 -0.9829148303243513 -0.06265061333345935
12.255234375 -0.9874574280338847 -0.06361763616576346
12.2563828125 -0.9884142131466896 -0.06778336795687499
12.25753125 -0.9890781334285327 -0.06085079857534137
12.2586796875 -0.992109706390196 -0.058537369307077244
12.259828125 -0.9897527599236207 -0.06364347337992979
12.2609765625 -0.994451332586657 -0.05971323586544751
12.262125 -0.9939997040665842 -0.05501199188391917
12.2632734375 -0.9916589086433417 -0.06053566114263627
12.264421875 -0.9948821794216743 -0.0644932218538566
12.2655703125 -1.0007772662956165 -0.05913623293278794
12.26671875 -1.0042886520121688 -0.06157067916664005
12.2678671875 -1.0034998122473233 -0.06247472124413607
12.269015625 -1.004151416047442 -0.05545233928803561
12.2701640625 -1.0079768189451228 -0.05413920813436601
12.2713125 -1.004022031329602 -0.06062151705800342
12.2724609375 -1.0053381384448015 -0.056791525022049844
12.273609375 -1.0072026191500465 -0.05168704686538869
12.2747578125 -1.002909050633424 -0.059549299642131986
12.27590625 -1.0036291894117404 -0.05688858218527296
12.2770546875 -1.0049110542685729 -0.057356678869954686
12.278203125 -1.0068374674372274 -0.06353863207674404
12.2793515625 -1.0096765135009798 -0.06462179495544484
12.2805 -1.0135800982769751 -0.06068938981198371
12.2816484375 -1.0144799509079265 -0.0563787236088486
12.282796875 -1.0147042944598705 -0.061019542482675326
12.2839453125 -1.0136466055788864 -0.05674261623920329
12.28509375 -1.0139770552122531 -0.05621668321190615
12.2862421875 -1.0108866670339893 -0.06900800217629399
12.287390625 -1.0184391615949644 -0.06673345853198098
12.2885390625 -1.0231294881396886 -0.06608192379917488
12.2896875 -1.025799002919495 -0.07331706946175753
12.2908359375 -1.0327539801630121 -0.07217361025501867
12.291984375 -1.0429406565228607 -0.06390659202777338
12.2931328125 -1.0455983534945066 -0.05909052236470547
12.29428125 -1.0488866179969323 -0.05593519408203895
12.2954296875 -1.051394764732433 -0.042866695799034626
12.296578125 -1.0497291467156757 -0.03409393585380299
12.2977265625 -1.0416626512934197 -0.03789431519107245
12.298875 -1.041217705987432 -0.032016823083961365
12.3000234375 -1.0397589549801312 -0.0293147475854319
12.301171875 -1.0351596425461118 -0.03928801463433795
12.3023203125 -1.036101628075207 -0.03338811507907824
12.30346875 -1.038045937319573 -0.027222390445497346
12.3046171875 -1.0352288639242597 -0.03282064860957756
12.305765625 -1.0339880368113106 -0.031201785994102393
12.3069140625 -1.0340904188475017 -0.029337045074081136
12.3080625 -1.0325505683219318 -0.026762988824561906
12.3092109375 -1.0296958766373208 -0.03212221464120707
12.310359375 -1.0329197916028945 -0.02929551541949066
12.3115078125 -1.0331729217468046 -0.024562798091345928
12.31265625 -1.031606888241038 -0.036323263955782115
12.3138046875 -1.0321184661667875 -0.0313747443112361
12.314953125 -1.0332592269236596 -0.029737493369837775
12.3161015625 -1.0342397219682096 -0.036204572195816076
12.31725 -1.0394347181756696 -0.03153795297313927
12.3183984375 -1.0438489993718783 -0.023041148210524165
12.319546875 -1.038671606673982 -0.023745730916675423
12.3206953125 -1.0351910102102835 -0.02268715264692367
12.32184375 -1.0322730775063136 -0.018586238241731223
12.3229921875 -1.0307918335442994 -0.016324481582167594
12.324140625 -1.029584268389813 -0.025936674560081197
12.3252890625 -1.0310595524617814 -0.021261244444633176
12.3264375 -1.0325278819680554 -0.018192243992857127
12.3275859375 -1.0277586140665846 -0.025676768594845134
12.328734375 -1.0276019567534247 -0.01790299711755461
12.3298828125 -1.0300558164070392 -0.015647915275582625
12.33103125 -1.0269148284339686 -0.021076468443108953
12.3321796875 -1.0244408824552627 -0.01789761871669837
12.333328125 -1.0233474401611484 -0.016669282884227865
12.3344765625 -1.020959068833974 -0.017681915591203468
12.335625 -1.0189302978208765 -0.025558371773341304
12.3367734375 -1.0216862273102678 -0.025452090602987032
12.337921875 -1.021849030709665 -0.022472747403029958
12.3390703125 -1.0204967454334546 -0.032093729814478444
12.34021875 -1.0220546482214559 -0.028425113036031457
12.3413671875 -1.0254161885196962 -0.023442388828165517
12.342515625 -1.0191330323431278 -0.034578521766026715
12.3436640625 -1.024062838127791 -0.02803731591757036
12.3448125 -1.0246078969362207 -0.025525375028338626
12.3459609375 -1.0272052499376767 -0.028245425242211297
12.347109375 -1.024968435244273 -0.03152158999658494
12.3482578125 -1.0285357784152662 -0.02527828618265565
12.34940625 -1.0254487642126398 -0.023172021249293517
12.3505546875 -1.0238427814955462 -0.02814276436929175
12.351703125 -1.0219098421385648 -0.02455263877085484
12.3528515625 -1.0220667376063688 -0.0225689977858764
12.354 -1.0202123853036136 -0.032496466441812755
12.3551484375 -1.0227291101012592 -0.028241500934715724
12.356296875 -1.0239296404221372 -0.026642678275019094
12.3574453125 -1.021121027927684 -0.03273240231254093
12.35859375 -1.0237167301146992 -0.029728638842304256
12.3597421875 -1.0239400959157385 -0.027395254477066755
12.360890625 -1.0223940163577823 -0.028228859633593284
12.3620390625 -1.0213795786674718 -0.03230677956631317
12.3631875 -1.0244201658255 -0.028494201676435182
12.3643359375 -1.02520530087928 -0.02559972808837585
12.365484375 -1.0224290077861182 -0.03854083011081105
12.3666328125 -1.02902222284406 -0.03318359929596848
12.36778125 -1.030760536709348 -0.025655671031736493
12.3689296875 -1.0276696354967538 -0.030260835812188802
12.370078125 -1.028539412529554 -0.02478660047910064
12.3712265625 -1.0243589887227713 -0.017949090515451793
12.372375 -1.0214139631351364 -0.023851747943387847
12.3735234375 -1.0216183385672355 -0.024450657605799897
12.374671875 -1.0200819226652615 -0.021768015809995322
12.3758203125 -1.018589153821665 -0.021745134357389784
12.37696875 -1.0151450849344315 -0.02973782981656592
12.3781171875 -1.0194799391232787 -0.02784639056484145
12.379265625 -1.0197112294547652 -0.02594264387162598
12.3804140625 -1.0175291414912617 -0.0372855882816715
12.3815625 -1.0215968223548024 -0.03055330323605754
12.3827109375 -1.0221658961431679 -0.02725408817612318
12.383859375 -1.0207374627610233 -0.03645991027651929
12.3850078125 -1.0220980676824976 -0.03411865431029626
12.38615625 -1.0253421392463595 -0.031650223571776215
12.3873046875 -1.025401752897155 -0.032972796103082735
12.388453125 -1.024806980231823 -0.037470112244942844
12.3896015625 -1.0291823303194882 -0.03325145017627534
12.39075 -1.031044320782223 -0.030298174123847443
12.3918984375 -1.028169870213044 -0.040333802131456764
12.393046875 -1.0337569764463304 -0.03338595118325338
12.3941953125 -1.0360528567823761 -0.029132356428165362
12.39534375 -1.0334503890454627 -0.037554948935231314
12.3964921875 -1.0382142881245915 -0.03165831807076064
12.397640625 -1.040416736154383 -0.027208744360166515
12.3987890625 -1.039891738288564 -0.03055992175857397
12.3999375 -1.0409531287445912 -0.026879267360042314
12.4010859375 -1.0409639294884916 -0.019424482019069322
12.402234375 -1.0385539774905512 -0.01639052746532843
12.4033828125 -1.0357548513841568 -0.020751879618993663
12.40453125 -1.0370974746000987 -0.01571077601466725
12.4056796875 -1.032732805445278 -0.01294730272051331
12.406828125 -1.0300142657307663 -0.02589349834791904
12.4079765625 -1.031074303106966 -0.019992116692936268
12.409125 -1.0305400949925496 -0.01704148392147642
12.4102734375 -1.0258409731924598 -0.024105588246785437
12.411421875 -1.0267320659844676 -0.0229196472021167
12.4125703125 -1.02413026432144 -0.020761852536855918
12.41371875 -1.0238471917497654 -0.026180914864031513
12.4148671875 -1.0231046567379076 -0.034963463858784904
12.416015625 -1.02727102092547 -0.03067243934722874
12.4171640625 -1.0275577822056827 -0.030811185760915016
12.4183125 -1.0285805224490943 -0.043568245277193274
12.4194609375 -1.0326744646648436 -0.03815076523765737
12.420609375 -1.035859483423282 -0.03456400741187693
12.4217578125 -1.0346357244547892 -0.04175526389052264
12.42290625 -1.0381212624743645 -0.03551380953584493
12.4240546875 -1.0396882728822838 -0.031417840995390245
12.425203125 -1.0375564619467212 -0.03557433329285775
12.4263515625 -1.040319445009691 -0.035209134780977425
12.4275 -1.0382708316019562 -0.03167536995571962
12.4286484375 -1.0396215821696915 -0.028774796948935588
12.429796875 -1.038657277133357 -0.032346135177027335
12.4309453125 -1.0417051875536503 -0.029427110042603233
12.43209375 -1.0416854233695345 -0.028139715305024127
12.4332421875 -1.0386534082424619 -0.03949094898036265
12.434390625 -1.0452330991134486 -0.032443708755632295
12.4355390625 -1.0482107854024334 -0.028112009360223733
12.4366875 -1.0484010962538768 -0.03119269665724389
12.4378359375 -1.0505988032730733 -0.029229061395692035
12.438984375 -1.0504965802919568 -0.02014585491783616
12.4401328125 -1.050771441171562 -0.0222959409698682
12.44128125 -1.048420061513935 -0.02060155000749475
12.4424296875 -1.0477316859483063 -0.014362395955250018
12.443578125 -1.0455502017169604 -0.013609756553227825
12.4447265625 -1.0423046522741521 -0.021600635802230816
12.445875 -1.0476640272606788 -0.012828121625013233
12.4470234375 -1.0481177199461176 -0.012159967778620162
12.448171875 -1.0427472693017372 -0.01713189151810668
12.4493203125 -1.0434718098824112 -0.004527562141163122
12.45046875 -1.0399676529886335 -0.0016617230423700002
12.4516171875 -1.0304267890427705 -0.01045220652547496
12.452765625 -1.0295464699853447 -0.011260678973622928
12.4539140625 -1.0311599920498642 -0.004782810343018862
12.4550625 -1.0286957338034617 -0.011337535588619607
12.4562109375 -1.0247439821577498 -0.01408821222190293
12.457359375 -1.0222512710225993 -0.013956225189118099
12.4585078125 -1.0204494003126912 -0.014207044032756855
12.45965625 -1.0173922039675132 -0.029038708214115916
12.4608046875 -1.0202614173215527 -0.02564071344372776
12.461953125 -1.0219835215442767 -0.02147486392569098
12.4631015625 -1.0206593232236487 -0.03759978282384391
12.46425 -1.0250651568898728 -0.035421890957787694
12.4653984375 -1.028940656292391 -0.033202488375896566
12.466546875 -1.0304936679739245 -0.04026672562405631
12.4676953125 -1.0329182418505642 -0.0360866107813147
12.46884375 -1.0353914945285525 -0.0348614341009823
12.4699921875 -1.0359290326699928 -0.03873879826128768
12.471140625 -1.0366247011767435 -0.04653542641087194
12.4722890625 -1.0433067879151219 -0.04416021932816605
12.4734375 -1.0475244332145681 -0.03732527976674449
12.4745859375 -1.0495381078784853 -0.046061711376347514
12.475734375 -1.0521288079646534 -0.03485516265817412
12.4768828125 -1.0500106990542268 -0.03307197633888137
12.47803125 -1.0487770986974523 -0.03705745413588013
12.4791796875 -1.0511597131614752 -0.03669383106932389
12.480328125 -1.0581567488875814 -0.029507429101930605
12.4814765625 -1.0608003768753074 -0.027557826615484338
12.482625 -1.0629800466298631 -0.025419479869179584
12.4837734375 -1.0585206136701466 -0.014539260005974608
12.484921875 -1.0526656524644935 -0.011833744383403788
12.4860703125 -1.0428160468597156 -0.0230252514593845
12.48721875 -1.045313355578135 -0.019834485665664925
12.4883671875 -1.0469639752046038 -0.01893573596100495
12.489515625 -1.0447171228030563 -0.031431758382147734
12.4906640625 -1.0448118980853123 -0.03414943606977716
12.4918125 -1.0480391967845382 -0.02771544678471005
12.4929609375 -1.0463947284828121 -0.035559937716528545
12.494109375 -1.0513600470672007 -0.035132574791665094
12.4952578125 -1.0554813856803742 -0.03336733927865754
12.49640625 -1.0595586436086275 -0.034389204162508014
12.4975546875 -1.067790857861269 -0.044335779657436625
12.498703125 -1.0783045861280165 -0.03419536782845034
12.4998515625 -1.0903863836543777 -0.016816013156407683
12.501 -1.0869102962646149 -0.016489055713408307
12.5021484375 -1.0826860748194786 0.004148346244298384
12.503296875 -1.0712161731248147 0.009887600120158213
12.5044453125 -1.0637671075131945 0.0032891835374166956
12.50559375 -1.0622192145001854 0.004697538008187729
12.5067421875 -1.0556502489815245 0.00698653960912532
12.507890625 -1.0569486689762524 -0.00407164719721842
12.5090390625 -1.0552137968052202 -0.008983660805189864
12.5101875 -1.0566993543521854 -0.0033882512448943913
12.5113359375 -1.0550838869108776 -0.0010690722322421742
12.512484375 -1.0519736392925965 -0.011300155933107181
12.5136328125 -1.0575684887491514 -0.005173755195067686
12.51478125 -1.0590403715744663 0.002145998777090319
12.5159296875 -1.0555153821470562 -0.0036554781306231687
12.517078125 -1.0562750884033374 0.0030315376853098375
12.5182265625 -1.0562657649009095 0.010691374770189221
12.519375 -1.0494792557688244 0.003293602408895535
12.5205234375 -1.0461645526694583 0.007515340537076143
12.521671875 -1.0454414283757254 0.013469765967928926
12.5228203125 -1.0394539836464247 0.007669268186730083
12.52396875 -1.0393994183948223 -8.07473323425345e-05
12.5251171875 -1.041287219481572 0.005013622756241842
12.526265625 -1.0408082919932022 0.004911380896935769
12.5274140625 -1.0441505877992707 -0.004440697588865339
12.5285625 -1.0467207355292354 0.010332791169494593
12.5297109375 -1.0425146152098592 0.01934889065294798
12.530859375 -1.0361086446268188 0.011886141763685631
12.5320078125 -1.032615602350636 0.015413600907575709
12.53315625 -1.0316331470033444 0.014837818334923814
12.5343046875 -1.0274193364187256 0.011515278147032681
12.535453125 -1.0294785115493437 0.008185335917983538
12.5366015625 -1.028623631040494 0.010212316496768237
12.53775 -1.0280490465662817 0.015306675543081738
12.5388984375 -1.02003460611835 0.004706561741603554
12.540046875 -1.0213027601455624 0.008103007932747097
12.5411953125 -1.0209512880279323 0.005773919264438598
12.54234375 -1.019745211234561 -0.007117099892396395
12.5434921875 -1.024713332417985 -0.005210664250613006
12.544640625 -1.0243106104326136 -0.001224812133537423
12.5457890625 -1.0251370333476257 -0.005042539817257441
12.5469375 -1.0274502092989972 -0.0036113586640529327
12.5480859375 -1.0348926735324917 0.001963465964733291
12.549234375 -1.0310696385297682 0.0017188094529511089
12.5503828125 -1.0238432652266816 -0.00450262665447998
12.55153125 -1.027322675348215 0.0009006020921362712
12.5526796875 -1.0245714514502775 0.005644032579045666
12.553828125 -1.0239807456624157 -0.003153731235647883
12.5549765625 -1.022961430393565 0.0001297127166188794
12.556125 -1.0214458563046835 -0.0005495406370544798
12.5572734375 -1.0188279683331722 -0.009168536374410285
12.558421875 -1.0233201007077883 -0.005870664352605637
12.5595703125 -1.0272399982648177 0.0007790382321203326
12.56071875 -1.023928907878461 -0.007153632659642195
12.5618671875 -1.018473503976356 -0.0057270186031768144
12.563015625 -1.0168786793780962 -0.004640542695591665
12.5641640625 -1.015167985462068 -0.005044036018206466
12.5653125 -1.016927649895004 -0.01950775871378685
12.5664609375 -1.018901599106783 -0.017514731959017205
12.567609375 -1.0216469014538685 -0.017461544937969142
12.5687578125 -1.0211856424506296 -0.03111991157326266
12.56990625 -1.0259962361559276 -0.03160440194664105
12.5710546875 -1.0301495603251851 -0.031071617687608244
12.572203125 -1.0383615912309065 -0.04060427090706509
12.5733515625 -1.045659763405953 -0.035248781769818605
12.5745 -1.0546556409387322 -0.027714151623368988
12.5756484375 -1.0555476145872915 -0.0260903279846334
12.576796875 -1.0548704100811115 -0.02330245419193311
12.5779453125 -1.0570789864716181 -0.017565708869923702
12.57909375 -1.062764130420885 -0.013379417865853838
12.5802421875 -1.055957725835171 -0.020672210590442774
12.581390625 -1.0624900770084762 -0.009271996271661975
12.5825390625 -1.0628461014758674 -0.0030510700726553708
12.5836875 -1.062858276084818 -0.013499212942318817
12.5848359375 -1.058283815668934 -0.003002662040729853
12.585984375 -1.0583280837516214 -0.0013320456668921565
12.5871328125 -1.0605347492210935 0.0004286783061848709
12.58828125 -1.0605589078947175 -0.002286887499594936
12.5894296875 -1.0591307488053179 0.0013178146410428582
12.590578125 -1.062870924802915 0.0014254382285159295
12.5917265625 -1.0606657766547778 -0.0036162237445572787
12.592875 -1.0574913769481862 0.002694572344517976
12.5940234375 -1.0648024227440926 0.006998174602990015
12.595171875 -1.0701089052150818 -0.007732813660244586
12.5963203125 -1.0704104091914293 -0.002236383379924045
12.59746875 -1.0693179549521648 0.013592024644252465
12.5986171875 -1.0669208663078558 0.005073031773282888
12.599765625 -1.0713469196316796 0.021988871625787887
12.6009140625 -1.0731322065937037 0.029074655758625223
12.6020625 -1.070372301996296 0.0266068586340813
12.6032109375 -1.068384080852689 0.017579257510404345
12.604359375 -1.0549907785215935 0.034558574517947305
12.6055078125 -1.0553009020467075 0.03771986176453557
12.60665625 -1.05200816120696 0.04445988600580342
12.6078046875 -1.0468271548089343 0.037988238939290264
12.608953125 -1.0381600280700118 0.0270917991227011
12.6101015625 -1.041911344238304 0.017942196216989892
12.61125 -1.0535040584605766 0.021373536986202035
12.6123984375 -1.0589362447574464 0.031775212797970465
12.613546875 -1.0478409024753252 0.028099275179003236
12.6146953125 -1.0500859709961232 0.027548366197496232
12.61584375 -1.0531035937922224 0.036082593858145495
12.6169921875 -1.0580033023527133 0.033436515861526184
12.618140625 -1.0533824371118499 0.02218724999706101
12.6192890625 -1.0586295430669748 0.03399881839207364
12.6204375 -1.0650309194930743 0.04587169637390831
12.6215859375 -1.0508487306077274 0.03912238458043271
12.622734375 -1.0521854875608707 0.04162287117987762
12.6238828125 -1.048862639544797 0.050955692352181
12.62503125 -1.0431527816423918 0.05033806660181184
12.6261796875 -1.0411774975241448 0.048595421363672564
12.627328125 -1.0296680123610262 0.055229422963997354
12.6284765625 -1.0352560719713355 0.051742217525599044
12.629625 -1.033841928355654 0.05079027310700335
12.6307734375 -1.0337853457273314 0.05644089228886018
12.631921875 -1.0323336376907117 0.05854563035278293
12.6330703125 -1.026274338202471 0.04976269096012831
12.63421875 -1.0256395571592185 0.05158903845160223
12.6353671875 -1.0204835456043566 0.05441177271087816
12.636515625 -1.0182527737338147 0.05679359760484881
12.6376640625 -1.0130650913418373 0.0592789928851889
12.6388125 -1.013680897032026 0.060684801910414476
12.6399609375 -1.0082218466447843 0.05795520546508515
12.641109375 -1.0033396868070263 0.054627109414316255
12.6422578125 -0.99999265116783 0.051616429248300566
12.64340625 -0.9990457286699606 0.05388908663188263
12.6445546875 -0.9971301672767487 0.037142471788533804
12.645703125 -0.9971525517747843 0.046856379912874946
12.6468515625 -0.9925799463174316 0.042276414468849666
12.648 -0.9909898914817741 0.04014036457616621
12.6491484375 -0.9899287444941125 0.03481342004710375
12.650296875 -0.9887136099231386 0.04204548795387675
12.6514453125 -0.9931524708086892 0.03454420251631851
12.65259375 -0.9964244263223658 0.03718209455309407
12.6537421875 -0.9998015381760015 0.04031033389368899
12.654890625 -0.99603103231371 0.041162632921194486
12.6560390625 -0.9952808070563766 0.029494155501542663
12.6571875 -0.9904439753319833 0.04281489338489575
12.6583359375 -0.9808274404333684 0.05144651749489437
12.659484375 -0.9726158866555064 0.028625022470536665
12.6606328125 -0.9757310649465093 0.03170229010788772
12.66178125 -0.9814840711946706 0.03072912197114208
12.6629296875 -0.9791053977075201 0.01781130065303138
12.664078125 -0.9802173220263386 0.026544756720468188
12.6652265625 -0.9886742891079965 0.0256794765060544
12.666375 -0.9770682788760516 0.0244690551517327
12.6675234375 -0.9714934926599232 0.016402859991800467
12.668671875 -0.9738303138547129 0.013826441190856742
12.6698203125 -0.9743966135546676 0.012448821612361716
12.67096875 -0.9754443197581759 0.011881583901994563
12.6721171875 -0.9777408205445702 -0.0015571534628148198
12.673265625 -0.9902460512732925 0.008453091398010204
12.6744140625 -0.9810634154436466 0.0011932718377375418
12.6755625 -0.9830381784132742 -0.00029025871681853666
12.6767109375 -0.9895248419607737 -0.0014939489925341887
12.677859375 -0.9874144356818675 0.0014280387348225565
12.6790078125 -0.9938741698420547 0.0033936133248274603
12.68015625 -0.9934838350347307 0.0003488836816816221
12.6813046875 -0.9880688528987844 5.7679349294126325e-05
12.682453125 -0.9969519827744044 -0.005548437412313811
12.6836015625 -1.0059517365464052 -0.005874582521278815
12.68475 -1.0115559764934614 0.002500045519850058
12.6858984375 -1.0175256345185737 -0.0040083454942346775
12.687046875 -1.0190042945278583 0.014488765183542807
12.6881953125 -1.0140426031221494 0.013645126814245234
12.68934375 -1.0020493127713561 0.024397792878347202
12.6904921875 -1.0085981112490683 0.02454623022386193
12.691640625 -1.0098530437109163 0.022311859164083403
12.6927890625 -1.0107593414752827 0.013155331107102208
12.6939375 -1.0086194936185362 0.014075506900099732
12.6950859375 -1.0061602892019144 0.02156217345731759
12.696234375 -1.0095883434685398 0.025869998164986363
12.6973828125 -1.012535948727928 0.013143598512987853
12.69853125 -1.0031962268359143 0.01768014366448878
12.6996796875 -1.0106909439457585 0.027885209042260883
12.700828125 -1.0052039411035856 0.02733198511109658
12.7019765625 -1.0057133254109987 0.035846605504773144
12.703125 -1.003673714371827 0.04030143051646662
12.7042734375 -0.9958745857488812 0.03305829599878374
12.705421875 -0.9892836436007185 0.0309724274378389
12.7065703125 -0.9887712405446505 0.03435480308209826
12.70771875 -0.9856972149957226 0.030252037378819208
12.7088671875 -0.9789482596567305 0.024591756665486852
12.710015625 -0.982482053864701 0.024379321921546127
12.7111640625 -0.9851022651957209 0.027901760855368662
12.7123125 -0.984201650609135 0.016005593015408937
12.7134609375 -0.983721067094842 0.02210666387781579
12.714609375 -0.9794846103174986 0.030594900764060684
12.7157578125 -0.9693063696378447 0.022922422343583326
12.71690625 -0.9665239287610605 0.02356671752568773
12.7180546875 -0.9626708495790831 0.023350977524797423
12.719203125 -0.9606823015916581 0.013188404530334874
12.7203515625 -0.9578290726459051 0.005581814551861797
12.7215 -0.9607858162340478 0.0037893839835051457
12.7226484375 -0.9586941519502348 0.0017886220391643004
12.723796875 -0.9562733042533618 -0.010776079935186367
12.7249453125 -0.9659820164012354 -0.005774441540903341
12.72609375 -0.9722565901979487 -0.006827360817893924
12.7272421875 -0.9666865991934456 -0.014946718685800664
12.728390625 -0.9676680735732872 -0.008325638875061214
12.7295390625 -0.9633080206064852 -5.941983611701396e-05
12.7306875 -0.9670386334930985 -0.01764460968242454
12.7318359375 -0.9656080769720337 -0.013114774975376498
12.732984375 -0.9639892893799809 -0.013186717788819302
12.7341328125 -0.9625145550642318 -0.02524504900721658
12.73528125 -0.9638560482256534 -0.030625261089353595
12.7364296875 -0.9704226867225665 -0.030047848840412006
12.737578125 -0.9752341934930272 -0.03106884035289037
12.7387265625 -0.9655887760056878 -0.04646529114274445
12.739875 -0.9694046986164515 -0.04028391822216182
12.7410234375 -0.9788147044076594 -0.043568982612423035
12.742171875 -0.9825391464325538 -0.05081654627486076
12.7433203125 -0.9878258066511916 -0.04065121284304096
12.74446875 -0.9877508909891568 -0.04039478248292483
12.7456171875 -0.9914086892791805 -0.04627373532903456
12.746765625 -0.9798485686155112 -0.04394255887748422
12.7479140625 -0.9970523056725327 -0.038581478024693805
12.7490625 -0.9933489703852342 -0.037863271917521146
12.7502109375 -0.9975682118215736 -0.048124055717859715
12.751359375 -1.0014557765891667 -0.03559735582335133
12.7525078125 -0.9948883350415006 -0.03667494842808661
12.75365625 -0.9913190336996168 -0.04838578350427558
12.7548046875 -0.9972173540323184 -0.040200917521241
12.755953125 -1.0007592884531737 -0.045437997730698454
12.7571015625 -1.0061341754293478 -0.0441839478015944
12.75825 -1.01446989825819 -0.04333952240289951
12.7593984375 -1.004813293815145 -0.03789782281609799
12.760546875 -1.0076077451441534 -0.03959944349122346
12.7616953125 -1.0049836479574141 -0.03705241065946119
12.76284375 -1.0094338380004515 -0.03202106802008453
12.7639921875 -1.0120977777162492 -0.030578355044441063
12.765140625 -1.0061459209115835 -0.04041530236523394
12.7662890625 -1.006649421018158 -0.03793550333452844
12.7674375 -1.0021967211488851 -0.03487075688918351
12.7685859375 -0.9990078978291306 -0.043005816109759065
12.769734375 -1.001525486728987 -0.03626666700152814
12.7708828125 -1.0081834702936767 -0.033319556119685956
12.77203125 -1.0061101985989978 -0.045339004215399936
12.7731796875 -1.016107635942355 -0.04322123423785185
12.774328125 -1.016386842830331 -0.04059131270808525
12.7754765625 -1.01754506895128 -0.03786464729882433
12.776625 -1.017495200453135 -0.04446084854799803
12.7777734375 -1.0213759354017757 -0.039535405082272934
12.778921875 -1.02701340160744 -0.03858462006331109
12.7800703125 -1.0175934293514297 -0.04551740111130398
12.78121875 -1.0317346190216812 -0.04311801482241362
12.7823671875 -1.0259041354187857 -0.02795771660868318
12.783515625 -1.0200222976227233 -0.04134743915408512
12.7846640625 -1.0288382543633454 -0.0374549391376352
12.7858125 -1.0252633577096844 -0.038452859493585345
12.7869609375 -1.0262532568266283 -0.0443680437597872
12.788109375 -1.0241671486712358 -0.03540596566864529
12.7892578125 -1.0299225493107842 -0.029333570554711863
12.79040625 -1.0299283257834742 -0.03356048598899142
12.7915546875 -1.0231302068795898 -0.04815034290149922
12.792703125 -1.034432662407365 -0.0461505667068991
12.7938515625 -1.030949406661276 -0.04239526357134138
12.795 -1.0337986740486274 -0.045346102001864286
12.7961484375 -1.0393275054262263 -0.02976057324565584
12.797296875 -1.0455028605934102 -0.0394858838653952
12.7984453125 -1.0287783651949922 -0.05186057670904953
12.79959375 -1.0436373289406669 -0.044373661198159886
12.8007421875 -1.0357904583971669 -0.04066690425378494
12.801890625 -1.0326048364926277 -0.03750583419699427
12.8030390625 -1.0472282203967094 -0.02931054392989274
12.8041875 -1.0272189954842692 -0.06533789552225877
12.8053359375 -1.0360985181653382 -0.04849391639824874
12.806484375 -1.0348547766282001 -0.04756244943633048
12.8076328125 -1.0277792711322307 -0.04093530350912422
12.80878125 -1.0470533082397173 -0.03484748900871171
12.8099296875 -1.0723312671481602 -0.04500436427238963
12.811078125 -1.067826821063579 -0.0343743908065306
12.8122265625 -1.059861645520793 -0.04749522610624379
12.813375 -1.055903182810359 -0.020389326479366088
12.8145234375 -1.0538150131968063 -0.02176183225078787
12.815671875 -1.065942688868826 -0.023569418108335793
12.8168203125 -1.0645814395336641 -0.03279059064268286
12.81796875 -1.0645867181071345 -0.018869906324993635
12.8191171875 -1.0770400491655296 -0.023996371977113018
12.820265625 -1.0633822640840491 -0.017016406846230292
12.8214140625 -1.0602164155724094 -0.0068823749389560485
12.8225625 -1.0745473103052734 -0.005735116730317791
12.8237109375 -1.0768006598367643 -0.008153578834194541
12.824859375 -1.081880062026718 0.0016199475098215288
12.8260078125 -1.0786064218461577 -0.0070685917849034885
12.82715625 -1.0800145835272392 -0.00017449432244309726
12.8283046875 -1.0908569322763373 0.0023352911782084096
12.829453125 -1.0938445658494702 0.0007149463437867709
12.8306015625 -1.0837502023458248 0.02941426386878898
12.83175 -1.070922465277011 0.026299221407271034
12.8328984375 -1.0927936848204736 0.027665900983170122
12.834046875 -1.079210667965071 0.009955539519340806
12.8351953125 -1.0675776671911084 0.03489418007052025
12.83634375 -1.0602145170448773 0.05079816445121332
12.8374921875 -1.0779979299361953 0.054079833851070735
12.838640625 -1.064159640295209 0.05265671428367513
12.8397890625 -1.0530273743227911 0.05499352178946226
12.8409375 -1.0447293738094965 0.055878741857154246
12.8420859375 -1.0354952988767712 0.05180248905354323
12.843234375 -1.0315045702062158 0.0538258630235976
12.8443828125 -1.0292345971615304 0.06272170749851302
12.84553125 -1.0349277452861922 0.034678297928535384
12.8466796875 -1.0359084027016503 0.03596589750119772
12.847828125 -1.0313548830428783 0.05602506904764992
12.8489765625 -1.0215234979785919 0.04103910994193538
12.850125 -1.0300539052699706 0.05128537179245263
12.8512734375 -1.0197670187637353 0.047065987436198164
12.852421875 -1.024368753743564 0.039335622645229495
12.8535703125 -1.0043263966244451 0.037764571395378144
12.85471875 -1.0018779201714259 0.033869447515617934
12.8558671875 -1.0097242603576266 0.033827001501220866
12.857015625 -1.0123940627682848 0.016935409518366473
12.8581640625 -1.017412629216039 0.0158028021836768
12.8593125 -1.0253792452531885 0.015213645073172688
12.8604609375 -1.0245973113794955 0.008081863187597516
12.861609375 -1.0215169306122922 0.029764919293814973
12.8627578125 -1.0294347605075551 0.036723687968918894
12.86390625 -1.024657484251169 0.03371455550174329
12.8650546875 -1.0174817911718963 0.025365755191796402
12.866203125 -1.004303776703221 0.029679178983643473
12.8673515625 -1.0066768746900534 0.03068410159232693
12.8685 -0.9896044661167882 0.011541879687076984
12.8696484375 -1.0031044826209032 0.020039801043884697
12.870796875 -1.0095005651529758 0.00035552210398925865
12.8719453125 -1.0046564914126517 -0.013795351044735171
12.87309375 -1.0122474289343633 -0.003528275480232157
12.8742421875 -1.0218710017773645 -0.011170724458306913
12.875390625 -1.0250157813616223 -0.014018388366973
12.8765390625 -1.034407853284812 -0.011669284846324735
12.8776875 -1.04062204946267 -0.006520234243793943
12.8788359375 -1.0504465035671822 -0.006496427521010928
12.879984375 -1.045439348600515 -0.008391311062961093
12.8811328125 -1.0577797191554255 0.0043516119992073055
12.88228125 -1.056439164362653 0.004651992010813066
12.8834296875 -1.0367484919281589 0.0018094645265257503
12.884578125 -1.0659807117963394 0.009369328550876577
12.8857265625 -1.06190068475077 0.018520184610498203
12.886875 -1.047991688183231 0.013967881466698417
12.8880234375 -1.051038504713198 0.026013245997355883
12.889171875 -1.04280142609982 0.04607387818024944
12.8903203125 -1.0373908524599762 0.026217978402120368
12.89146875 -1.040447416029318 0.02844570411853936
12.8926171875 -1.0369313118093881 0.02684729222502774
12.893765625 -1.0452607232936129 0.031971869697823396
12.8949140625 -1.0324342787366603 0.024270365018917217
12.8960625 -1.0361095166558805 0.029314217570895917
12.8972109375 -1.0341806264460185 0.022576570021684006
12.898359375 -1.033584104038554 0.005229732453251867
12.8995078125 -1.0473478457742158 0.021888536638693612
12.90065625 -1.0555696511975206 0.021093693503498656
12.9018046875 -1.0520244377010606 0.028724293751126007
12.902953125 -1.0496330854510871 0.027400778408986692
12.9041015625 -1.0522483219173986 0.03459068906528662
12.90525 -1.0494690324798768 0.03846343367311206
12.9063984375 -1.0459272058839826 0.03786067299173501
12.907546875 -1.0429926295945917 0.04346061852924832
12.9086953125 -1.0482381098383429 0.04828970078878858
12.90984375 -1.037018273947964 0.03365313411605603
12.9109921875 -1.0413031685232799 0.045533384638210495
12.912140625 -1.0383028579497033 0.05247355919398522
12.9132890625 -1.0291715177912175 0.04415465897858528
12.9144375 -1.0276429530352946 0.045458395433234045
12.9155859375 -1.0238754139605246 0.04980067202069993
12.916734375 -1.035518936008272 0.04056581095715078
12.9178828125 -1.0272412036668293 0.04630811221356168
12.91903125 -1.024806478355236 0.051573700805374434
12.9201796875 -1.021567115759558 0.04117298933478014
12.921328125 -1.0289255201156817 0.038044358767381936
12.9224765625 -1.0291422493699407 0.04059560050460137
12.923625 -1.037896614390867 0.04730295820959063
12.9247734375 -1.0289178827380105 0.03797669740722409
12.925921875 -1.033233179130417 0.05393950172424433
12.9270703125 -1.0369703494519804 0.05429431106962318
12.92821875 -1.02937135756761 0.041830162651520175
12.9293671875 -1.02983436444794 0.05035157731429668
12.930515625 -1.044609221748213 0.05082482327330062
12.9316640625 -1.0434873738939698 0.05390044005367722
12.9328125 -1.0425932635307036 0.06758281480284933
12.9339609375 -1.0506042615252804 0.06671321140609882
12.935109375 -1.0471943327745783 0.07504496623655194
12.9362578125 -1.039213375636086 0.058977889915413306
12.93740625 -1.0309453116658611 0.0731498792304387
12.9385546875 -1.0185429933205772 0.07082442958495827
12.939703125 -1.0258622435009421 0.057096731958466485
12.9408515625 -1.0266470038408595 0.053234435136494174
12.942 -1.043792210283412 0.05870801917575624
12.9431484375 -1.044482059149832 0.06285351417819385
12.944296875 -1.0414684535336909 0.07266291134986258
12.9454453125 -1.038343610292715 0.08870663101933174
12.94659375 -1.0434791348068297 0.10036815558790574
12.9477421875 -1.0306868234369988 0.09404917269098362
12.948890625 -1.0182229612850673 0.1023219113894614
12.9500390625 -1.0159132100692934 0.10582103046302332
12.9511875 -1.0094281967710468 0.09967617528461109
12.9523359375 -1.006141505230734 0.10136203603899901
12.953484375 -1.003690939323949 0.10677986717552501
12.9546328125 -1.003895848844702 0.10618052968812863
12.95578125 -0.9958009254306028 0.11863781276483443
12.9569296875 -0.9887249848730106 0.12365676754416932
12.958078125 -0.9708720012670019 0.13139987966851024
12.9592265625 -0.9581668185134277 0.11938502101588472
12.960375 -0.9573065534117109 0.11449633392989472
12.9615234375 -0.9419477887354223 0.11303557030172207
12.962671875 -0.9362206245319088 0.09317772585744871
12.9638203125 -0.9282554545238622 0.09538257052525245
12.96496875 -0.9162312483579396 0.09679762868358127
12.9661171875 -0.9054835612876292 0.08592229223281828
12.967265625 -0.9103354301406915 0.08179322417076323
12.9684140625 -0.9003287204101708 0.08431677538672433
12.9695625 -0.8991837875233176 0.06557042125271001
12.9707109375 -0.8826042854535205 0.06357917116975276
12.971859375 -0.8777035976097566 0.057906426634492414
12.9730078125 -0.8621657479213967 0.047074984603816705
12.97415625 -0.8702779991998537 0.02399519158048058
12.9753046875 -0.8662476767222964 0.012351124015979487
12.976453125 -0.8751951478608301 0.004655686862859387
12.9776015625 -0.8696324410505054 -0.02701169861055963
12.97875 -0.8700500934841813 -0.02400905161773026
12.9798984375 -0.8764864890119386 -0.030949891341184588
12.981046875 -0.8757294379570079 -0.05635190525526179
12.9821953125 -0.8870133660478884 -0.05836370467058827
12.98334375 -0.9030287276195526 -0.07445623277187585
12.9844921875 -0.9113792970142626 -0.07252657335786672
12.985640625 -0.9310685504387117 -0.08800058444489878
12.9867890625 -0.9372587124252092 -0.07799923450554541
12.9879375 -0.9553048671652886 -0.06666950563244528
12.9890859375 -0.9517297487628219 -0.09346300972291177
12.990234375 -0.9591380336372682 -0.076453975098141
12.9913828125 -0.969777876600839 -0.0811906508654815
12.99253125 -0.969480431987277 -0.09090993970861394
12.9936796875 -0.991564257756868 -0.06937024203498732
12.994828125 -1.000766232535983 -0.06939167538334229
12.9959765625 -0.9888010860678226 -0.05948049286146356
12.997125 -0.9977789445613869 -0.06177699642449774
12.9982734375 -1.0045282077138042 -0.04317158950211636
12.999421875 -1.0022408870554793 -0.05117327300804336
13.0005703125 -1.0019632286089977 -0.03774106043566833
13.00171875 -0.9769420347109672 -0.04698778455514174
13.0028671875 -1.0075175655095994 -0.06104123594343047
13.004015625 -1.0111962257923204 -0.07838656049156734
13.0051640625 -1.0136766971698412 -0.06171827280413722
13.0063125 -1.0308223595002057 -0.06329847230360225
13.0074609375 -1.0495483962287593 -0.05997252410158177
13.008609375 -1.0585729213144317 -0.04296974285917832
13.0097578125 -1.0765877082447777 -0.008916997937772453
13.01090625 -1.0315056975453316 -0.0026158308732689983
13.0120546875 -1.0353681144991551 0.0099139201256771
13.013203125 -1.022091040036592 0.0048058277818279205
13.0143515625 -1.0406967275764345 0.013174307967142695
13.0155 -1.0241782755392608 -0.001659418302950022
13.0166484375 -1.027427455205237 0.01083330098783003
13.017796875 -1.0277345428849367 0.02680000414005662
13.0189453125 -1.017259410950968 0.002990453715136898
13.02009375 -1.010356639133241 0.014689232058396007
13.0212421875 -1.0001844052130284 0.013891696185548308
13.022390625 -1.0082812485775956 -0.004191105176048371
13.0235390625 -1.0086151992224346 -0.006946495545192444
13.0246875 -1.0051973417548057 0.013683075743385953
13.0258359375 -1.0067483779880473 0.012966095994865479
13.026984375 -1.0086210425448208 0.008604889781956337
13.0281328125 -1.0077568774878944 0.010633217482204083
13.02928125 -1.0047434504905655 0.005079001405765393
13.0304296875 -0.99583190983087 -0.012095676046030457
13.031578125 -1.0001909157985929 0.003211818236254216
13.0327265625 -1.0000667557505907 0.01135173350897517
13.033875 -1.014395430072019 -0.010518161666103587
13.0350234375 -1.0164072676849898 -0.003231647578943453
13.036171875 -1.0128046299083922 -0.0017671073759024658
13.0373203125 -1.0118567413807502 0.014212760625356702
13.03846875 -1.0019150140266975 0.022724621058329064
13.0396171875 -1.0029192622754701 0.016459969998341928
13.040765625 -1.0018022519634513 0.00351586822770808
13.0419140625 -0.9947471658901312 -0.011238118001454883
13.0430625 -0.997285823720473 0.003847787241792522
13.0442109375 -0.9911947129750591 0.014015204521809377
13.045359375 -0.9862812066759377 -0.0010678966373877108
13.0465078125 -0.9954616910995413 0.0052785016732855294
13.04765625 -0.9913854130263764 -0.005147780625631426
13.0488046875 -0.9957379719190327 -0.015507655538103737
13.049953125 -0.9889241077744149 -0.008028472846378587
13.0511015625 -0.9946466947234476 -0.014439815533423495
13.05225 -0.9901790150554217 -0.011870357628663217
13.0533984375 -0.9870434735846796 -0.03245480283954885
13.054546875 -1.0079479843490653 -0.00844484394047021
13.0556953125 -0.996931756887917 0.005391016808270865
13.05684375 -0.9770880596777953 -0.0038911086036868547
13.0579921875 -0.9670724198959177 0.0006490677580301973
13.059140625 -0.979079561113398 -0.0035729243139667743
13.0602890625 -0.9910593346509182 -0.016629096882667227
13.0614375 -0.990775065867256 -0.017477365795951993
13.0625859375 -0.9875120188338623 -0.011394563179015466
13.063734375 -0.9777015905618124 -0.005386327452609377
13.0648828125 -0.9762460143974585 -0.016924054962327933
13.06603125 -0.9813636713399401 -0.011089992089024892
13.0671796875 -0.9807375561758358 -0.016248229968259587
13.068328125 -0.9693700177728375 -0.021027314978959488
13.0694765625 -0.9852615933391153 -0.01889510398780514
13.070625 -0.9702230068625501 -0.017642862566486894
13.0717734375 -0.962659730185442 -0.036003758223600246
13.072921875 -0.973790842651421 -0.035663021509819204
13.0740703125 -0.9729373896900182 -0.032929085343260056
13.07521875 -0.9879853235494119 -0.025699822960090574
13.0763671875 -0.961266709977043 -0.059550888464020235
13.077515625 -0.9912826606231733 -0.0557885641236327
13.0786640625 -0.9947902485555451 -0.06679657421350854
13.0798125 -0.9869619048346925 -0.03437384565212187
13.0809609375 -0.9903730348561106 -0.025924142618363177
13.082109375 -1.0116318145812664 -0.04650278677931213
13.0832578125 -1.007064149764025 -0.051979324888197675
13.08440625 -1.0358652079705757 -0.03298738611248825
13.0855546875 -1.0098132247413822 -0.03268055191244962
13.086703125 -1.0178923664427497 -0.02969604186994429
13.0878515625 -1.0174414911835947 -0.049126520632372384
13.089 -1.0055279719600319 -0.03603783812437816
13.0901484375 -0.9951163698564507 -0.03439166394432408
13.091296875 -0.9966712516718577 -0.04759165130792009
13.0924453125 -1.0010798346315142 -0.05017353973529892
13.09359375 -1.0164417692092194 -0.04425478286888873
13.0947421875 -1.014222008919544 -0.0733339526930914
13.095890625 -1.0077895619442347 -0.04609814772848386
13.0970390625 -1.023013306948093 -0.04331374837788127
13.0981875 -1.0185446467725905 -0.060189383243041794
13.0993359375 -1.032835489732255 -0.05291597339816545
13.100484375 -1.029641613954515 -0.04286668962431606
13.1016328125 -1.0413477956786865 -0.034962781768003715
13.10278125 -1.0424823907198293 -0.037393796477536545
13.1039296875 -1.0357737238890878 -0.03179730282174009
13.105078125 -1.0419162070273869 -0.03706434653493024
13.1062265625 -1.033471378911049 -0.04205029678459604
13.107375 -1.046637099773789 -0.029870444838492383
13.1085234375 -1.0504302561638514 -0.021715112066239883
13.109671875 -1.0406604262331904 -0.030334855126688542
13.1108203125 -1.0455630521459987 -0.026597072184765036
13.11196875 -1.045634382957878 -0.027714747699428943
13.1131171875 -1.0582574009462062 -0.030464608322784414
13.114265625 -1.0451230358726018 -0.02926766247227175
13.1154140625 -1.0518401233821222 -0.028276449615516563
13.1165625 -1.0559659596312199 -0.025605811953293145
13.1177109375 -1.0496174258278228 -0.04129745809429175
13.118859375 -1.0625052313162966 -0.036508140808316325
13.1200078125 -1.0621949869604335 -0.03442210898658016
13.12115625 -1.0609671788676487 -0.03134507147658805
13.1223046875 -1.0866704020596978 -0.021051836675208213
13.123453125 -1.0834830672823963 -0.014082620179627914
13.1246015625 -1.0759513954331306 -0.019112155052960933
13.12575 -1.0723119056321084 -0.012175196646489472
13.1268984375 -1.0781955209339835 -0.007111339232514613
13.128046875 -1.089630108189902 0.0011994735914808152
13.1291953125 -1.0781141134154424 -0.011197612136536222
13.13034375 -1.0740215036389953 0.010871015482664614
13.1314921875 -1.0837684552410383 0.015122598487301214
13.132640625 -1.0599418939573781 0.005096688029843366
13.1337890625 -1.0713030746236822 0.011927352253344209
13.1349375 -1.0619905518848936 0.017925772854177374
13.1360859375 -1.0497938643517974 0.006361373228312095
13.137234375 -1.0553550060718133 0.0065978453040272805
13.1383828125 -1.0539566053251015 -0.0010445310038769764
13.13953125 -1.0604708574820791 0.0016072869042123294
13.1406796875 -1.0668604960699823 0.0023144485619205624
13.141828125 -1.0706075690196333 0.01680541111468127
13.1429765625 -1.0650893214617205 0.025567391133300983
13.144125 -1.0519872998319393 0.01049934859168531
13.1452734375 -1.0543789833632942 0.029690655235171212
13.146421875 -1.0455156870460476 0.03300002873877794
13.1475703125 -1.0312872322067352 0.015040477967373705
13.14871875 -1.0423192421202616 0.013915576658243112
13.1498671875 -1.0353167348124082 0.021420156065779683
13.151015625 -1.0259701696941326 0.016431605613713318
13.1521640625 -1.0232867207774259 0.015143460321037083
13.1533125 -1.0386787898532064 0.024517206432772026
13.1544609375 -1.0415612435902226 0.02051592888361764
13.155609375 -1.0334881115389931 0.00419171689605799
13.1567578125 -1.0333002831255156 0.00855739963964633
13.15790625 -1.0478503720702361 0.00926466239835208
13.1590546875 -1.0381469649282018 0.0021312294270689758
13.160203125 -1.0359320505925123 0.016129747764059177
13.1613515625 -1.0349449410702811 0.01623312611155464
13.1625 -1.0341584977629603 0.0007434185048353081
13.1636484375 -1.0324859884011979 0.009291928384529358
13.164796875 -1.0458906238053887 0.017338512658025995
13.1659453125 -1.0415975596401768 0.006872347255861222
13.16709375 -1.0389890406126252 0.020580399456675613
13.1682421875 -1.0471028293239315 0.02137809151740591
13.169390625 -1.0285914177261122 0.017512693692207454
13.1705390625 -1.0216317391091982 0.010237402295421388
13.1716875 -1.0359631872044357 0.029901027329012148
13.1728359375 -1.0368801062121054 0.020643511809059073
13.173984375 -1.024408297747252 0.007059461802030459
13.1751328125 -1.0245183609085853 0.014265636736454562
13.17628125 -1.0300983674435256 0.010464695215148034
13.1774296875 -1.0365655565875835 0.006761803257023746
13.178578125 -1.0281350740756343 0.010895540633966527
13.1797265625 -1.0409884424652498 0.01937238352373577
13.180875 -1.0338471464462273 0.026661015753942252
13.1820234375 -1.0341769746379572 0.008349273517593458
13.183171875 -1.0389986357988708 0.01886955881428834
13.1843203125 -1.0382816339397767 0.023951535286693082
13.18546875 -1.0291299746010205 0.013450282339822858
13.1866171875 -1.0303026375371247 0.023047115875823643
13.187765625 -1.039364175503448 0.017988472565900915
13.1889140625 -1.0358353618289273 0.014530222827554673
13.1900625 -1.0327149641251472 0.014093265246599096
13.1912109375 -1.0379570306064847 0.018209686448372453
13.192359375 -1.0313995803368545 0.015300177216030775
13.1935078125 -1.023464361288498 0.014097432404137578
13.19465625 -1.0369222038157664 0.017375719788408822
13.1958046875 -1.0311792241430497 0.023204221013245985
13.196953125 -1.025878807950244 0.01676168688128371
13.1981015625 -1.030225470685333 0.015083637261799399
13.19925 -1.031985122102439 0.01588129341421579
13.2003984375 -1.0216356269705684 -0.014271819707036726
13.201546875 -1.0348573440328475 0.012361798721429063
13.2026953125 -1.0307731320821398 0.016442691202024295
13.20384375 -1.0363135364121676 0.021556122652062082
13.2049921875 -1.0383462384116677 0.02073819388169293
13.206140625 -1.0251314267069769 0.017544729480572813
13.2072890625 -1.0317173730637323 0.01313422202563791
13.2084375 -1.0260509595969265 -0.01797416273817698
13.2095859375 -1.0271318241761744 -0.01293786636617833
13.210734375 -1.0359206048346468 0.014580440511603676
13.2118828125 -1.0328117004429587 -0.008957845388564811
13.21303125 -1.0368875914060134 -0.003480897435776953
13.2141796875 -1.0326158403280108 0.010269200560770742
13.215328125 -1.0368843867833268 -0.0049104921404122814
13.2164765625 -1.0288894100408588 0.00954357632153685
13.217625 -1.0323128438374574 0.03504900102540209
13.2187734375 -1.0414375144398789 0.0036907459199413406
13.219921875 -1.0277117717454096 0.011609546399723725
13.2210703125 -1.0243719590576617 -0.005872107181294606
13.22221875 -1.0366790624924738 0.010697629183727797
13.2233671875 -0.9999191203692765 -0.0088021834616136
13.224515625 -1.0418118608903484 0.00034392025825003003
13.2256640625 -1.062407300890086 0.0031646743621415174
13.2268125 -1.0482837794097561 0.009692648204647103
13.2279609375 -1.054009411696176 -0.01100160271413908
13.229109375 -1.0374452452060363 0.02330827807504987
13.2302578125 -1.0403981366832404 0.016381691111652552
13.23140625 -1.0486631404152238 0.002145734752893924
13.2325546875 -1.0478706356867988 0.011364559643612715
13.233703125 -1.0515850285198922 0.01078551997585575
13.2348515625 -1.0595007571466226 0.028972023867758545
13.236 -1.0526243977726921 0.017747612019936576
13.2371484375 -1.048787294050511 0.025128264525888233
13.238296875 -1.064137591750491 0.025489690257212816
13.2394453125 -1.0425520576773284 0.04500241733937915
13.24059375 -1.0477350771154006 0.057909949499413194
13.2417421875 -1.046589994254933 0.04090755076303487
13.242890625 -1.0682727817327453 0.08059551391702113
13.2440390625 -1.0656804634320158 0.07204270766606602
13.2451875 -1.06755996253215 0.0968099591803736
13.2463359375 -1.0336238648353464 0.09634934827313046
13.247484375 -1.0347904606812781 0.04251990816851836
13.2486328125 -1.0408648281327169 0.06537183699763194
13.24978125 -1.0290732911157718 0.05211541030876177
13.2509296875 -1.0460672256344852 0.04184440920966925
13.252078125 -1.0290729191644363 0.07665612598593652
13.2532265625 -1.0325350004977636 0.07358042639661
13.254375 -1.0267994587247689 0.09447510819356086
13.2555234375 -1.0218614911403843 0.07330003484384473
13.256671875 -1.0159205507409794 0.07193681579187527
13.2578203125 -1.023162902586297 0.07084148118464939
13.25896875 -1.017551903302535 0.07643210540623968
13.2601171875 -1.0182508432783106 0.07810902107851869
13.261265625 -0.9988725133881788 0.049034323238759336
13.2624140625 -1.0018031621244887 0.0735909188910816
13.2635625 -1.013541922175518 0.06473258490576173
13.2647109375 -0.9968311544671289 0.057946877860868606
13.265859375 -1.003895928993304 0.071346505012298
13.2670078125 -1.010883077646449 0.08286465859293002
13.26815625 -1.002246453380581 0.058992740826517176
13.2693046875 -1.0049661800815513 0.062177373500990285
13.270453125 -1.0082563146678478 0.06537222420641686
13.2716015625 -1.0111583303981593 0.061137102745369654
13.27275 -0.9957123330506844 0.05809121274824536
13.2738984375 -1.001033440664322 0.06302701533076915
13.275046875 -1.003083713148965 0.05642268137477613
13.2761953125 -0.9976140998383007 0.04338096171604611
13.27734375 -1.0101119640887626 0.04965826906462456
13.2784921875 -1.0090181174136157 0.05072790877347977
13.279640625 -1.0010445094948794 0.05292204272545842
13.2807890625 -0.9996569284202936 0.05420619177802244
13.2819375 -0.9978811077619494 0.05713721290326257
13.2830859375 -1.0033017444509853 0.04081133939747694
13.284234375 -1.0123901304562326 0.03641970558030316
13.2853828125 -1.010794926850898 0.037160889231968364
13.28653125 -1.0082655109917775 0.04897277944356271
13.2876796875 -1.0081659026164702 0.03858121502226419
13.288828125 -1.016408152757866 0.03993547120413188
13.2899765625 -1.0160486684973404 0.030829979800170437
13.291125 -1.012057220384371 0.023112490039640998
13.2922734375 -1.0109549155782631 0.041044913637828695
13.293421875 -1.0089774695744342 0.04804728774881972
13.2945703125 -1.0063874275575342 0.044312998485872446
13.29571875 -1.0068599671038188 0.04131619547571941
13.2968671875 -1.0122039411732517 0.04619531559693468
13.298015625 -1.0145803448990318 0.03268584680555997
13.2991640625 -1.0043879547068346 0.039466777630188854
13.3003125 -1.0104739818659085 0.04238535595272486
13.3014609375 -1.0083654000302011 0.04571746832790424
13.302609375 -1.0002026625827654 0.021740345559754515
13.3037578125 -1.0069567338461443 0.018648538205503884
13.30490625 -1.0036577373132949 0.029603653584890033
13.3060546875 -0.9969226311157513 0.029257136631837433
13.307203125 -1.010475655717483 0.029770666446492094
13.3083515625 -1.0074869842048266 0.021334616021048664
13.3095 -1.0165076407154916 0.019776064441893698
13.3106484375 -1.0154273265129332 0.01802497375138014
13.311796875 -1.016102449402337 0.03623730139256229
13.3129453125 -1.0200647503525786 0.03317040841716937
13.31409375 -1.0027075138629198 0.02831388281166554
13.3152421875 -1.0087888540497991 0.033798855785674514
13.316390625 -1.0096679031568592 0.03379143200538488
13.3175390625 -1.0075100546069784 0.025717334737295476
13.3186875 -1.015815709406742 0.02516686645276888
13.3198359375 -1.0131049617896473 0.0384802759419629
13.320984375 -1.0042493613561825 0.025454171501170506
13.3221328125 -1.006537713421477 0.0317721928708279
13.32328125 -1.0050065971439242 0.04292608730149762
13.3244296875 -1.005493469331576 0.034251604057727245
13.325578125 -1.0060442785544588 0.032507695099845774
13.3267265625 -1.0030464928690954 0.039338983445553866
13.327875 -1.0038623018449107 0.043261891185924176
13.3290234375 -0.9952374107086417 0.03188432984953622
13.330171875 -1.0058952653874702 0.04119574877325981
13.3313203125 -0.9971586944107875 0.044134933942244534
13.33246875 -0.9880294972653011 0.029368454352064338
13.3336171875 -0.9954705413524885 0.039394141340687944
13.334765625 -0.9961726803315553 0.0431565713898753
13.3359140625 -0.9917095600471566 0.03505041489662397
13.3370625 -0.9940775000712065 0.030698308474178967
13.3382109375 -0.9997496063461757 0.03787861499350419
13.339359375 -0.9965600581878131 0.03625130514978303
13.3405078125 -0.9904716634675037 0.02700195409040397
13.34165625 -0.9922696232715251 0.036603514948816834
13.3428046875 -0.9976311246386323 0.04353439439158943
13.343953125 -0.9886067644348374 0.02545926574635113
13.3451015625 -0.9954639324470931 0.042702319123454374
13.34625 -0.9943974648859185 0.04675378981780662
13.3473984375 -0.9791205940743346 0.03958073124813502
13.348546875 -0.9795280055418314 0.03849465558401571
13.3496953125 -0.9900363054191184 0.04522833759098491
13.35084375 -0.9815654249285062 0.03827628590193635
13.3519921875 -0.9818990116604573 0.04097442411124075
13.353140625 -0.9762685781348666 0.045618046585219285
13.3542890625 -0.9745239233964841 0.040896216266544605
13.3554375 -0.980709809703901 0.02778064001232805
13.3565859375 -0.9790203123115544 0.03300576746015482
13.357734375 -0.9860425758607194 0.0257759889352967
13.3588828125 -0.9748903777521978 0.022802085061259303
13.36003125 -0.9781981052121506 0.03429365924115774
13.3611796875 -0.9820162502510302 0.04385852746401214
13.362328125 -0.9692494926688933 0.027988357471491254
13.3634765625 -0.971511132460438 0.028113233392362824
13.364625 -0.9641034476928946 0.03834405386988626
13.3657734375 -0.9653125706161148 0.03191469778334405
13.366921875 -0.9651098182377982 0.019809440974369596
13.3680703125 -0.9733450690586425 0.01918139506210903
13.36921875 -0.9849287797818932 0.03323145364857405
13.3703671875 -0.966102322267977 0.018937896710680024
13.371515625 -0.9660642341899057 0.03298348461429135
13.3726640625 -0.9712593257521621 0.034777770040689715
13.3738125 -0.9505228776815916 0.01877922577821156
13.3749609375 -0.9618844773920547 0.016841715110115563
13.376109375 -0.9592361825728203 0.024301359713195025
13.3772578125 -0.9526745301293973 0.013803173653543777
13.37840625 -0.9489497588085485 0.017146856138699373
13.3795546875 -0.9571958208063218 0.009692140433395613
13.380703125 -0.9616219563286056 0.014051915580552743
13.3818515625 -0.9487749938979182 0.0001600315271034214
13.383 -0.9553685487702241 0.0053787427343965355
13.3841484375 -0.9604907736335657 0.0002870102654024542
13.385296875 -0.9553491236188487 -0.004407140057640424
13.3864453125 -0.9526389176457527 -0.011026370634152238
13.38759375 -0.9571359852353724 -0.0048114487378165816
13.3887421875 -0.9530763878302577 -0.00784842574781408
13.389890625 -0.9532503521791398 -0.004997183682040718
13.3910390625 -0.9501578904765817 -0.015283440172390361
13.3921875 -0.9579091054740615 -0.0077536880436759326
13.3933359375 -0.9501492050227599 -0.03252566627006692
13.394484375 -0.9588778109151328 -0.024991926042344903
13.3956328125 -0.9696667046331768 -0.020555218572132494
13.39678125 -0.9720343732041423 -0.020323601017478543
13.3979296875 -0.979307940432813 -0.020068675662048174
13.399078125 -0.9821111335033154 -0.018563771463770307
13.4002265625 -0.980716344441982 -0.03109674569734666
13.401375 -0.9823410958686133 -0.021022905378840884
13.4025234375 -1.004524435831424 -0.023761347548347467
13.403671875 -0.9931217166519942 -0.03096905048979537
13.4048203125 -0.9912447191610547 -0.030915585100661058
13.40596875 -0.9959146248405124 -0.008065812928255589
13.4071171875 -0.9988116601277965 -0.0051180272216022615
13.408265625 -0.9961571245006797 -0.02019345726493571
13.4094140625 -0.9952225992528395 -0.006222880351769322
13.4105625 -1.0089064960731242 -0.003912535741412038
13.4117109375 -0.9939249807806948 -0.010788479586953281
13.412859375 -0.9876803675839818 0.0014707484058816833
13.4140078125 -1.0132747768552999 0.0009012447774670029
13.41515625 -1.010399571475873 -0.0028786038454280405
13.4163046875 -1.0036613840223563 -0.0018550307302701574
13.417453125 -1.00318171345193 -0.0021378209118034786
13.4186015625 -1.0080743989535494 0.010034154006312912
13.41975 -0.9867931144137848 -3.695496242417384e-05
13.4208984375 -1.0041688369877424 -0.00027421134348692977
13.422046875 -1.0069722976548063 0.010260328786775852
13.4231953125 -0.9960812487070719 0.007934067863144656
13.42434375 -1.003741430744618 0.0147903388610926
13.4254921875 -0.9993907721718627 0.023480766626587823
13.426640625 -0.9993300576476538 0.010802046373253327
13.4277890625 -1.0104827404073438 0.014237746520615158
13.4289375 -1.0173624757178596 0.023079163035978234
13.4300859375 -1.0089573991030654 0.03508916875155588
13.431234375 -0.9955416668439989 0.0327568473952381
13.4323828125 -0.9963735291887803 0.02365062504368698
13.43353125 -0.9989076706926397 0.03176611363553883
13.4346796875 -0.9985636514737581 0.012730675052225249
13.435828125 -0.9881508789019189 0.02526959588344413
13.4369765625 -0.9858898157121951 0.027229680013484137
13.438125 -0.9908538098887345 0.017642061583903468
13.4392734375 -0.9905015608079285 0.014388416697624362
13.440421875 -1.0016287184532615 0.01976420339945606
13.4415703125 -0.9959568468784731 0.019581246350142134
13.44271875 -0.9949217080801804 0.009929300864526036
13.4438671875 -0.992920756817474 0.019789787060054076
13.445015625 -0.9953328595282115 0.026216607577624562
13.4461640625 -0.9906938499074152 0.008305792411199553
13.4473125 -0.9940703552070846 0.01765743535571407
13.4484609375 -0.9961938494238025 0.022463568898256847
13.449609375 -0.9912333329580867 0.0042788002034445105
13.4507578125 -0.9940708658733268 0.011696164159674005
13.45190625 -1.0099300594265743 0.02202526512929548
13.4530546875 -0.9913211265316108 0.019714031608062066
13.454203125 -0.9926011367308546 0.015337049470679487
13.4553515625 -0.9921759814712556 0.020583346883268294
13.4565 -0.989907326768662 0.02283159639193849
13.4576484375 -0.9885011608058478 0.007459791681417638
13.458796875 -0.9954798238730065 0.014858153942717445
13.4599453125 -1.000906445441316 0.01962846925321432
13.46109375 -0.9966054177084347 -0.00263919852765232
13.4622421875 -0.9946961084259379 0.010948666078899383
13.463390625 -0.9895311414676612 0.012358417908810704
13.4645390625 -0.9985238915897576 0.0029858772169603642
13.4656875 -1.0041518965748057 0.009292432727507516
13.4668359375 -1.0043140798456816 0.01431867099493056
13.467984375 -1.000856162164634 0.008271442265864792
13.4691328125 -0.9957996851251176 0.008579882888016754
13.47028125 -0.9975864842306585 0.003570908436926923
13.4714296875 -1.0026093477934295 0.012399703550462937
13.472578125 -0.9933025441413283 0.006916004782761442
13.4737265625 -1.003004359124894 0.007187423122100051
13.474875 -1.0097450275258921 0.002564261449945704
13.4760234375 -0.9964579627193608 -0.005333125289379292
13.477171875 -0.9998007742916745 0.005582817824760389
13.4783203125 -1.0017495465363944 0.015650979480761773
13.47946875 -1.0031522211412331 0.008894486408261237
13.4806171875 -1.0087490865447797 0.011409943711251341
13.481765625 -1.0060764669311828 0.013503213620774834
13.4829140625 -1.0039149033729653 0.018312764457365793
13.4840625 -0.9936895688921805 0.018326560600203684
13.4852109375 -1.0017731224538522 0.016463518308017427
13.486359375 -1.0034284128127595 0.01859270425135745
13.4875078125 -0.9940576451898853 0.004301451352769242
13.48865625 -0.9996581669777765 0.012946935449193037
13.4898046875 -1.000981749435175 0.02058000617395056
13.490953125 -1.0004813718047292 0.0196233552730804
13.4921015625 -0.9989689740059263 0.015226055411239336
13.49325 -1.0042865886522512 0.023901462361761217
13.4943984375 -0.9962917820267052 0.013366512417085252
13.495546875 -1.0017739204858644 0.020821165316484924
13.4966953125 -1.0069761700020032 0.024907310939275895
13.49784375 -1.0061996139564604 0.025571374119710832
13.4989921875 -0.9999447344857176 0.012914488324020423
13.500140625 -1.004164526550129 0.021498931434267315
13.5012890625 -1.0011938268566465 0.01995193958305344
13.5024375 -1.000607735811147 0.00830302725672255
13.5035859375 -1.0019911719704777 0.0282030915950284
13.504734375 -1.0032100297719273 0.03506207848760898
13.5058828125 -0.9901695397316994 0.024524951238736797
13.50703125 -0.9964436054536485 0.024981721042429822
13.5081796875 -0.9991006011559935 0.02660498119062099
13.509328125 -0.9934199408783415 0.026901173075815077
13.5104765625 -0.9920664851179674 0.028228213685927817
13.511625 -0.9979848295481099 0.02769638478320774
13.5127734375 -1.0047002766904691 0.03786208503866215
13.513921875 -0.9966489933221228 0.022174779959259233
13.5150703125 -0.9988550169866416 0.03224956373585175
13.51621875 -0.9966563784216974 0.03358181908254282
13.5173671875 -0.9931252730838478 0.01885447333006146
13.518515625 -0.996525035140049 0.03493398303799522
13.5196640625 -0.9921731794957819 0.03527901786781665
13.5208125 -0.989745144062967 0.025931292043612608
13.5219609375 -0.9957787724652497 0.02965156817695458
13.523109375 -0.9923048714152346 0.033947700743469145
13.5242578125 -0.995083605595098 0.033424731703204535
13.52540625 -0.9868510741657921 0.030483513507691185
13.5265546875 -0.9921706451159414 0.035302975490411004
13.527703125 -0.9894721146861565 0.035462122816076525
13.5288515625 -0.9761300823556853 0.025194644870098593
13.53 -0.9847443986279929 0.036724153790842096
13.5311484375 -0.9815650893645628 0.03298734921969615
13.532296875 -0.9693959263920114 0.030011436459744967
13.5334453125 -0.9735347681028858 0.025129760831428982
13.53459375 -0.9734649322152293 0.03208380766190644
13.5357421875 -0.9753945874215654 0.020762202450533618
13.536890625 -0.9722609642596042 0.022274731872541753
13.5380390625 -0.9705339209758158 0.030135102348260057
13.5391875 -0.97284520138906 0.029516489484810726
13.5403359375 -0.9697048926764165 0.013734042243992606
13.541484375 -0.9727490677818875 0.019320248951043506
13.5426328125 -0.9698967572001185 0.023666433510192264
13.54378125 -0.9646550684678186 0.007350094296278864
13.5449296875 -0.9684372920309643 0.01862158649134754
13.546078125 -0.9730796454004306 0.008100917046116596
13.5472265625 -0.9650573241864259 0.00640009340170572
13.548375 -0.9629154198344059 0.010898180339501073
13.5495234375 -0.9686750636054636 0.009401977530139993
13.550671875 -0.9714989626038368 0.008723580387716645
13.5518203125 -0.9668068756158055 -0.0014997321252149254
13.55296875 -0.9714480039110135 0.006683292533674667
13.5541171875 -0.9735513658331325 -0.0011389847873243264
13.555265625 -0.9614190529535978 -0.007326789820611801
13.5564140625 -0.9718573843440705 0.0017560162002244195
13.5575625 -0.975804749644516 0.005266898809866749
13.5587109375 -0.9687538973424179 -0.01734624728867845
13.559859375 -0.9761615455298941 -0.014641344461858552
13.5610078125 -0.9636000941593172 -0.005048468485823798
13.56215625 -0.9663186723708651 -0.012713729894783254
13.5633046875 -0.9757523128415149 -0.01013399152876504
13.564453125 -0.9749656959972293 -0.016053960432743708
13.5656015625 -0.9840313906868539 -0.019888423151313894
13.56675 -0.9708491775549899 -0.020496966655357385
13.5678984375 -0.9794762015841099 -0.016159442331111495
13.569046875 -0.979579643325481 -0.008793754609168203
13.5701953125 -0.9744841476883359 -0.021322109669866085
13.57134375 -0.9830788837767377 -0.008929330884912767
13.5724921875 -0.9869094038688699 -0.017490037265891434
13.573640625 -0.9804631566062227 -0.025395634450528504
13.5747890625 -0.9848818154317311 -0.01939648719049114
13.5759375 -0.9866449472436095 -0.02207940968044647
13.5770859375 -0.9971681650016493 -0.02588038945074428
13.578234375 -0.9923338109529032 -0.020879660616410833
13.5793828125 -0.9966503565617435 -0.012873274224964426
13.58053125 -1.001859501483816 -0.0159636934123335
13.5816796875 -0.9915384590531818 -0.021861216763736147
13.582828125 -0.9981339481773404 -0.01624929615101245
13.5839765625 -0.9997988606319488 -0.013600258308130608
13.585125 -0.9909213369743491 -0.013441746942974064
13.5862734375 -1.0045276297981365 -0.00487660041245408
13.587421875 -1.0101771414933258 -0.0036484480243696993
13.5885703125 -1.0067289911347421 -0.017309586829620416
13.58971875 -1.0045748667174157 -0.008665046015730482
13.5908671875 -1.0038562816486154 -0.0031778205957587735
13.592015625 -1.0033625484823707 -0.0016327632018691696
13.5931640625 -0.9995074003059101 -0.008745318868285445
13.5943125 -1.011410962871225 -0.008045031190599627
13.5954609375 -1.0093769317505177 0.0010562184500676475
13.596609375 -0.9998989872627104 -0.010986964740840766
13.5977578125 -1.0094760885760192 -0.0006805438061435742
13.59890625 -1.0083534179353784 0.0025720483816010775
13.6000546875 -0.999650890903206 -0.008968146669805943
13.601203125 -1.0092432115103718 -0.0029390539210907285
13.6023515625 -1.0093319497449347 0.0039737295131205275
13.6035 -1.0049796945933769 0.0019292872207890555
13.6046484375 -1.0068779694338559 -0.0005958489085049479
13.605796875 -1.0104166584581096 0.0018531485991029606
13.6069453125 -1.0157077626040107 0.0020910487356579632
13.60809375 -1.000680415438454 -0.010711967159337976
13.6092421875 -1.0070056128325833 0.007282784823351873
13.610390625 -1.010696110907977 0.0036101503851598826
13.6115390625 -1.0025090292839725 -0.004018553449820272
13.6126875 -1.005522360151403 0.0009622726612206756
13.6138359375 -1.0068346554678285 0.000861037810699794
13.614984375 -0.9985272118024198 -0.0027757975764431952
13.6161328125 -1.0032878815884376 -0.007022535989459788
13.61728125 -1.013178354368166 -0.0014811820924063857
13.6184296875 -1.0114661714672808 0.0019487263731255422
13.619578125 -1.0074983588756068 -0.010650619170641806
13.6207265625 -1.0017584247879088 -0.0011332172044558608
13.621875 -1.0043287923272897 0.0024905834326908183
13.6230234375 -0.9993167277599433 -0.012955891671280195
13.624171875 -1.0109787406283977 -0.005261991746285666
13.6253203125 -1.0211310831011189 0.003112552834286686
13.62646875 -1.0024925547676609 -0.006131783352213094
13.6276171875 -0.9967200246391488 -0.0041751962184403135
13.628765625 -1.0051159807686747 -0.00312515456666812
13.6299140625 -1.0189587943866616 -0.010367693705510439
13.6310625 -1.0095574886031957 -0.011541523496633177
13.6322109375 -1.0102292464166895 -0.0045387467875099285
13.633359375 -1.0191649406528323 -0.010603722823093853
13.6345078125 -1.0091768113556943 -0.002323370911599898
13.63565625 -1.0127831992485947 -0.0007010647806993675
13.6368046875 -1.0065112878880564 0.0024240398562219156
13.637953125 -1.0070650153166767 -0.007356862039954004
13.6391015625 -1.0122977023991595 0.002828419729624776
13.64025 -1.0152670486527255 -0.002094241493590665
13.6413984375 -1.0030047506081252 -0.009579956366739362
13.642546875 -1.0037371839051343 -0.011994944215583059
13.6436953125 -1.0167764734111884 0.011688809271108769
13.64484375 -1.0140916966142237 0.0029612994797206804
13.6459921875 -1.007809427427562 -0.004542330118673166
13.647140625 -1.012712784818679 -0.002336782690618322
13.6482890625 -1.008836999203686 0.0015769651762129744
13.6494375 -1.002342529244229 -0.010391710927410647
13.6505859375 -1.0137124067875438 0.008526538554631397
13.651734375 -1.0061706085733038 -0.00351335668775396
13.6528828125 -1.004038824381323 -0.003460426914900089
13.65403125 -1.0139541446498332 0.004436040277969844
13.6551796875 -1.0080200011210443 0.009048793202438454
13.656328125 -1.0120797131404644 0.009962870790458794
13.6574765625 -1.0116355804931225 0.005574269725984515
13.658625 -1.0192511624085585 0.007879111992919768
13.6597734375 -1.013247550525781 -0.0013312579496640442
13.660921875 -1.0124841595500738 0.00010058797687219345
13.6620703125 -1.0181755592751944 0.015986143601423364
13.66321875 -1.0169143374097342 0.009853445861015137
13.6643671875 -1.0028092782678848 0.00022716718359275245
13.665515625 -1.0075110843992627 0.010703532268238482
13.6666640625 -1.0242412587133383 0.013817858808674643
13.6678125 -1.0130039358239982 0.0055605418285746555
13.6689609375 -1.0045912584592924 0.007876140608709947
13.670109375 -1.0067578240281638 0.015466950857353556
13.6712578125 -1.0053065423029208 0.016691115183117902
13.67240625 -1.0068198087871258 0.018534837217000118
13.6735546875 -1.0184331415327326 0.01413848302549512
13.674703125 -1.0042095516985117 0.02357243204609579
13.6758515625 -1.005830274618232 0.005584530606346491
13.677 -1.0184182447867633 0.01267375337957713
13.6781484375 -1.0145413200317275 0.019907655950262698
13.679296875 -1.0037066877075749 0.010130219676703578
13.6804453125 -1.0014961589513733 0.017576059700299518
13.68159375 -1.0087356524559048 0.02041081432641023
13.6827421875 -1.0036916392660697 0.012569182514684252
13.683890625 -1.0057061901655746 0.018389771182783787
13.6850390625 -1.008686135704811 0.017491096967031133
13.6861875 -1.0154286419758496 0.02119105351885056
13.6873359375 -1.0057587078590426 0.017646503226110166
13.688484375 -1.0084154624377608 0.018044362922885387
13.6896328125 -1.0142665853046986 0.020911792695772285
13.69078125 -1.004834523218452 0.005590999974553645
13.6919296875 -1.0126486077909607 0.018840082733204006
13.693078125 -1.0150486097539895 0.02113174315658839
13.6942265625 -1.0058986420822067 0.008483633907031385
13.695375 -1.0073688470258215 0.01130613567358052
13.6965234375 -1.0138278699868608 0.018986475874739672
13.697671875 -1.0083811752999108 0.01825537593743609
13.6988203125 -1.003655816179986 0.017526137576510226
13.69996875 -1.0154938740290809 0.020725461413049873
13.7011171875 -1.011286506675871 0.019832025381041563
13.702265625 -1.0061667439413053 0.009330774855536406
13.7034140625 -1.009384314103191 0.016042279900240874
13.7045625 -1.0117618397486838 0.02166699721109777
13.7057109375 -1.0044483563707494 0.009754359158570314
13.706859375 -1.009225586040728 0.019127345177505473
13.7080078125 -1.014540894465878 0.020047358950869232
13.70915625 -1.0073606732827667 0.011831934950388978
13.7103046875 -1.0035802679103876 0.015524701346181002
13.711453125 -1.0104773206014583 0.016597957350709014
13.7126015625 -1.0124215135160373 0.016182077339363332
13.71375 -1.0054235663161928 0.01552584143873581
13.7148984375 -1.0067701181469895 0.018141064088885106
13.716046875 -1.0047621098347537 0.021943639628457856
13.7171953125 -0.9962171054888822 0.010279973787243435
13.71834375 -1.0048514431077773 0.020692324550920627
13.7194921875 -1.0035947274855423 0.0176847234439787
13.720640625 -0.9921738527978358 0.008942138682016487
13.7217890625 -1.0030143704842747 0.012508093213431493
13.7229375 -1.00263404828734 0.014204819525270751
13.7240859375 -0.995327994510411 0.010481442006389563
13.725234375 -0.9973984472893119 0.009310350067807949
13.7263828125 -1.0042667027790606 0.013149314093220177
13.72753125 -1.0020030576676142 0.013430958851561231
13.7286796875 -0.994712530464701 0.007987831548695562
13.729828125 -0.9998208958833368 0.011023303876463608
13.7309765625 -1.0029503660673922 0.010438967563765333
13.732125 -0.9941807007365 -0.002366198785652751
13.7332734375 -1.000308695611517 0.010766479813936747
13.734421875 -1.0018983483624853 0.005180738699319537
13.7355703125 -0.9949181482822869 -0.0019360448101229666
13.73671875 -0.9961841865241134 0.002576543538644921
13.7378671875 -1.0000830494505495 0.006761264212623241
13.739015625 -0.9997172321738711 0.004350961803904679
13.7401640625 -0.9973279436186371 0.007285953827026681
13.7413125 -1.0022179474324608 0.0024794125958591123
13.7424609375 -1.0056393232018546 0.005964333520760326
13.743609375 -0.995239896943861 -0.008389067704378264
13.7447578125 -1.0077392728756558 0.0028852326400957973
13.74590625 -1.0054592721559261 0.006698797614118929
13.7470546875 -0.998821807001125 -0.00268733663239773
13.748203125 -1.0062338442927754 0.005594782764843636
13.7493515625 -1.0048564242649478 0.007436007776326647
13.7505 -0.9958794606027604 -0.00024127531700834232
13.7516484375 -1.0018376567235896 0.001409752490632063
13.752796875 -1.0026788130968738 0.0038836491076365
13.7539453125 -1.0059011858537876 0.004942740286583827
13.75509375 -1.0003259155931736 -2.2036638729211466e-06
13.7562421875 -1.002661110085393 0.0036765960833890776
13.757390625 -1.0037589243270415 0.0055015755592317805
13.7585390625 -0.9967136186470575 -0.009963276231328366
13.7596875 -1.0045622407493817 -0.0018175386914476566
13.7608359375 -1.0046085675487535 -0.0009599282339406989
13.761984375 -1.0029300725043395 -0.00491680321584842
13.7631328125 -1.0046985625118352 -0.002215328664773114
13.76428125 -1.0046224491714704 0.004104823324661416
13.7654296875 -1.0038944775997891 -0.003957590837265962
13.766578125 -1.0070026308383884 -0.004741514242348671
13.7677265625 -1.0104725703461905 -0.0016774394095938894
13.768875 -1.010872687643215 0.0013642251279961104
13.7700234375 -1.0038542379182278 -0.009283550289009124
13.771171875 -1.0091409273312812 -0.0011936042602311014
13.7723203125 -1.0112544433205186 0.0018823502856768481
13.77346875 -1.0068435634756108 -0.008210392222427643
13.7746171875 -1.0125651509653466 0.0028432260171698254
13.775765625 -1.0157711634055326 0.002435246245018785
13.7769140625 -1.0082652841441924 -0.0021934531758713016
13.7780625 -1.0132539116760328 -0.0032051312035186463
13.7792109375 -1.0167281303524474 0.0007515543572899352
13.780359375 -1.0219154279020726 2.6647012980413054e-05
13.7815078125 -1.0100363290717778 -0.0033769269679195246
13.78265625 -1.0113274201379703 -0.002299624069707129
13.7838046875 -1.019274851868415 0.0010006901234315968
13.784953125 -1.0110940237403636 -0.010528438562248582
13.7861015625 -1.0206411906083586 -0.0030452772448347626
13.78725 -1.0226797630753561 0.0019543599159566605
13.7883984375 -1.0201729739195233 -0.007962347812483589
13.789546875 -1.0177502104829674 -0.004030032293067948
13.7906953125 -1.0232517746693888 0.0014574687312747525
13.79184375 -1.016855342089583 -0.006468426874800398
13.7929921875 -1.0230642072238878 -0.0032240627778660214
13.794140625 -1.022271490389166 0.00041123180492970424
13.7952890625 -1.0228309754682534 0.0028997393180054364
13.7964375 -1.0168897644805692 -0.0036466525354728885
13.7975859375 -1.0277875526937694 0.0014036214138680309
13.798734375 -1.0269430150177095 0.00841783346963644
13.7998828125 -1.0180276182265657 -0.002821568697038049
13.80103125 -1.0302332723010021 0.0027762850901234953
13.8021796875 -1.029643957243826 0.005594994993580404
13.803328125 -1.0184719495417127 0.0029420423136012896
13.8044765625 -1.0212034370911462 0.005904280547092661
13.805625 -1.023615329346515 0.0072613727003369155
13.8067734375 -1.0260078699142423 0.005731040128222453
13.807921875 -1.0238602596484716 0.0047950257527795415
13.8090703125 -1.0231014591004322 0.005698686800066383
13.81021875 -1.02646630567155 0.004091593710599695
13.8113671875 -1.016371788684089 -0.00041496357949888374
13.812515625 -1.0268998721031424 0.006757359194048074
13.8136640625 -1.0273843833952534 0.012861968355928066
13.8148125 -1.0198038017987656 0.005118719445270814
13.8159609375 -1.0249274947771458 0.007248228556518799
13.817109375 -1.0232370897058658 0.013087339070162962
13.8182578125 -1.0198892499479228 0.005346701815971078
13.81940625 -1.0266090850694272 0.008964056433632406
13.8205546875 -1.0278928016394597 0.011631614901611742
13.821703125 -1.027291709695945 0.012677259176665234
13.8228515625 -1.0183361992093174 0.0070290387386401365
13.824 -1.0262027696423952 0.006484953732456944
13.8251484375 -1.02663614432733 0.010804358791238478
13.826296875 -1.0231364814562576 0.002996503500965142
13.8274453125 -1.0323100637734925 0.013759445559834771
13.82859375 -1.0294939957910083 0.01813441169463814
13.8297421875 -1.0237925177171108 0.006635371214552821
13.830890625 -1.027986273414216 0.012373600286667341
13.8320390625 -1.028645428062391 0.01790636738105822
13.8331875 -1.0261269058203002 0.015453224842617908
13.8343359375 -1.027337356799032 0.01804251219279296
13.835484375 -1.0275183323345352 0.01960592409520201
13.8366328125 -1.0320838208270209 0.023316922266243045
13.83778125 -1.0234836110895233 0.014103603645810758
13.8389296875 -1.0280498655236043 0.015440748756015643
13.840078125 -1.0269991830325087 0.02241807074265656
13.8412265625 -1.0190766608500605 0.013042891212534213
13.842375 -1.0267615317951595 0.016956001852858615
13.8435234375 -1.028878442932201 0.019200856464029914
13.844671875 -1.0271555947476823 0.017989540970225648
13.8458203125 -1.024097437519276 0.015612068389333156
13.84696875 -1.0273102132240801 0.021371415311198683
13.8481171875 -1.0253022957135352 0.018773588952208264
13.849265625 -1.0218507179640672 0.011406884356870428
13.8504140625 -1.0279725888377902 0.019874213275575925
13.8515625 -1.0334228924899675 0.021105895914620754
13.8527109375 -1.0236169615093682 0.011596431166364884
13.853859375 -1.030731114861146 0.020036533818419744
13.8550078125 -1.032461699248033 0.02158789936242711
13.85615625 -1.0246341664251482 0.013585956666352317
13.8573046875 -1.028679881594492 0.018652017557216904
13.858453125 -1.027733236243332 0.023377901413167868
13.8596015625 -1.0230254619954189 0.020509012663628035
13.86075 -1.02923047318595 0.01829838775141046
13.8618984375 -1.0308744212652763 0.017795054834747193
13.863046875 -1.0307087591915027 0.024565374927309813
13.8641953125 -1.025727154269411 0.013298420894795493
13.86534375 -1.0310739631463763 0.02081463192684674
13.8664921875 -1.0313976513340588 0.02667827589083205
13.867640625 -1.0266708500350272 0.016940421906706526
13.8687890625 -1.027248779414962 0.02268661435960595
13.8699375 -1.0351771227164348 0.024666216858982626
13.8710859375 -1.0281777972348047 0.01997859826870685
13.872234375 -1.0327225057489142 0.022684280099912746
13.8733828125 -1.0305713718851506 0.02810698497428099
13.87453125 -1.0288537721001036 0.0301254745040066
13.8756796875 -1.0219110003331333 0.025165441753700946
13.876828125 -1.0280455421767019 0.029807211558322444
13.8779765625 -1.0273092315858403 0.029364027916314983
13.879125 -1.0206501655445321 0.014153782528664505
13.8802734375 -1.0301795631634205 0.025001688252556997
13.881421875 -1.02853381250268 0.02678584897549019
13.8825703125 -1.018488478687468 0.024603310577860804
13.88371875 -1.0215464720212708 0.03212980596899684
13.8848671875 -1.0201467055855684 0.030083557855821397
13.886015625 -1.0153839676265528 0.0301543131190527
13.8871640625 -1.0149602960510626 0.025710095757789708
13.8883125 -1.015437408237454 0.026336930943749004
13.8894609375 -1.0157772072156974 0.032992867885906774
13.890609375 -1.012104195751363 0.0223571944447844
13.8917578125 -1.01690949472601 0.026640081506311475
13.89290625 -1.016269626312873 0.028303490448563007
13.8940546875 -1.010063511501627 0.022250305732403663
13.895203125 -1.0141293164976648 0.0278524897855853
13.8963515625 -1.013941025647585 0.02716848635628799
13.8975 -1.0086804630726431 0.024434237698384487
13.8986484375 -1.0120386616296189 0.026918159855744916
13.899796875 -1.0132304458507388 0.02698425439202007
13.9009453125 -1.012001116446542 0.024563545464797276
13.90209375 -1.0088693119060452 0.02167785889139756
13.9032421875 -1.012787753294237 0.023919944081757627
13.904390625 -1.012475241521138 0.026413509160312876
13.9055390625 -1.0055534139726718 0.016787800280669785
13.9066875 -1.0123685443597776 0.024132433224437144
13.9078359375 -1.0124740007891742 0.023958835078026153
13.908984375 -1.0080286630202262 0.01568339595917989
13.9101328125 -1.0143060939612587 0.02097344961010633
13.91128125 -1.0167444883482948 0.0247129264019795
13.9124296875 -1.0102094059250208 0.021088699804857947
13.913578125 -1.0120989146263772 0.02069544711471641
13.9147265625 -1.0147039100902167 0.024457529370557674
13.915875 -1.0145530013560655 0.027399744506222123
13.9170234375 -1.0074134893161435 0.02031706811820752
13.918171875 -1.0137021566992834 0.02750439483814346
13.9193203125 -1.0128393925076855 0.03004976865659914
13.92046875 -1.0073152133932346 0.01939115893502466
13.9216171875 -1.0119683830855468 0.025764966414168422
13.922765625 -1.0106666265974775 0.02943256249471718
13.9239140625 -1.0028104330785266 0.020420143808291824
13.9250625 -1.0046661585970813 0.025460832625968738
13.9262109375 -1.0075479130009062 0.025232944833012583
13.927359375 -1.0042075811577327 0.02361532080153686
13.9285078125 -1.0038725495068634 0.019414324460155646
13.92965625 -1.0049835889440244 0.02246585643533422
13.9308046875 -1.0057329153159442 0.02263198098750524
13.931953125 -1.002127742046891 0.012394346392197803
13.9331015625 -1.006334128085495 0.020976950388603977
13.93425 -1.0079687307934644 0.02242397399622431
13.9353984375 -1.003522232154789 0.014314315142659406
13.936546875 -1.0056300738205044 0.02079535973804636
13.9376953125 -1.0052468315405387 0.02272617647393549
13.93884375 -1.0019250148852423 0.01722731083610185
13.9399921875 -1.001065568329501 0.015808221130240163
13.941140625 -1.00290517039241 0.01948609027036563
13.9422890625 -1.0047162474285865 0.02134848380175336
13.9434375 -0.9997082722424523 0.010155922187795818
13.9445859375 -1.001448015968181 0.015285436974684652
13.945734375 -1.0023921084016663 0.01576742115081664
13.9468828125 -0.9945224466895828 0.00459782316760976
13.94803125 -0.9993921861494925 0.010989486347508626
13.9491796875 -1.0010060242488232 0.011342130659103
13.950328125 -0.9944283455876234 0.004074140639104329
13.9514765625 -0.9983435256494841 0.006810691602700147
13.952625 -1.0000288557205868 0.008321109682425942
13.9537734375 -0.9958374474203697 0.003660756622727579
13.954921875 -0.9957031080631772 0.00037092118178433386
13.9560703125 -0.9962643883112363 0.002435153935625156
13.95721875 -1.0011861704516358 0.0006745059482419213
13.9583671875 -0.9952378386715145 -0.010360849412536344
13.959515625 -1.0024851065773013 -0.008098812414032652
13.9606640625 -1.0035492995579278 -0.007686015555580572
13.9618125 -0.9999270031977259 -0.015109915264765461
13.9629609375 -1.0049535099888165 -0.012896523208656419
13.964109375 -1.0094419493487448 -0.013880965257765832
13.9652578125 -1.0081690934153456 -0.01592457188779317
13.96640625 -1.0131760372860452 -0.01449251139735408
13.9675546875 -1.0168063403583885 -0.011813835514663085
13.968703125 -1.0197892353571567 -0.011218520165792056
13.9698515625 -1.0191409159015454 -0.020372144964332817
13.971 -1.024685578874763 -0.010880059384967167
13.9721484375 -1.0263220446392145 -0.013618365384564624
13.973296875 -1.0196502345738867 -0.017514072674743697
13.9744453125 -1.0259684330632366 -0.013751046453245985
13.97559375 -1.0281509059188145 -0.010445036892711146
13.9767421875 -1.0242594578354571 -0.013480220167309986
13.977890625 -1.0309025175685003 -0.01199339569525093
13.9790390625 -1.0331702886735554 -0.0076729061594099646
13.9801875 -1.034068209006859 -0.0079407842355107
13.9813359375 -1.0313301125898553 -0.011008054490497798
13.982484375 -1.035901538823661 -0.0027484435693090337
13.9836328125 -1.0361561061314792 -0.0017483082057746513
13.98478125 -1.030548616921007 -0.007235130359444342
13.9859296875 -1.031002099270864 -0.004536931926854115
13.987078125 -1.0349090867639459 -0.002522997816173822
13.9882265625 -1.0329694274564378 -0.011637352998442596
13.989375 -1.0380148811643877 -0.006643190622721673
13.9905234375 -1.0431867313934382 -0.0023874056065311677
13.991671875 -1.033988603943535 -0.010402560203795486
13.9928203125 -1.0388482236885594 -0.0054455905876681365
13.99396875 -1.0400244607086502 -0.001268047306239195
13.9951171875 -1.0415777986869075 -0.0005188167259897458
13.996265625 -1.0400507819602987 -0.005201332607961517
13.9974140625 -1.0444139257484957 0.0005960505516873216
13.9985625 -1.0441222584522083 0.0019684749506759802
13.9997109375 -1.038315009865061 -0.010709377812318954
14.000859375 -1.0463700277706507 -0.0013301062991175616
14.0020078125 -1.0459704633977018 0.001103695055608367
14.00315625 -1.0456115622170459 -0.0047068669970085075
14.0043046875 -1.0495155193055936 -0.0028748192022339802
14.005453125 -1.0479053048119324 0.002599250882958981
14.0066015625 -1.0441612337568817 0.0013331489793173557
14.00775 -1.0479263702211434 -0.0011943174631526832
14.0088984375 -1.0494570855123286 0.00013506207078994859
14.010046875 -1.0479578542787717 0.004630643816967872
14.0111953125 -1.0449565584351161 -0.0035480125068935164
14.01234375 -1.0514231174383528 0.0020719219174860637
14.0134921875 -1.052643093541335 0.008179927401809506
14.014640625 -1.0468767465426978 -0.003237635052253718
14.0157890625 -1.0506105687127893 0.005119363267322097
14.0169375 -1.051142937464201 0.003962594722661361
14.0180859375 -1.0475911694956856 0.0038097795159656167
14.019234375 -1.0548510490518774 0.005798517079662391
14.0203828125 -1.054925347927438 0.006911807505834311
14.02153125 -1.050555390970768 0.007844952034073094
14.0226796875 -1.0493862254026152 0.004431723074817984
14.023828125 -1.0544511782396424 0.006856058055912495
14.0249765625 -1.0543893070539725 0.009138540093340919
14.026125 -1.0488053418655565 0.004703572339032958
14.0272734375 -1.0532774707305663 0.009452774524448038
14.028421875 -1.0544820590830777 0.009965208781835155
14.0295703125 -1.0521961888812552 0.0037991485928560165
14.03071875 -1.0580791227153992 0.010087355778836793
14.0318671875 -1.0594689272864706 0.014274468528179596
14.033015625 -1.0568686328901264 0.012959677421632287
14.0341640625 -1.0545688391280876 0.015269777097407733
14.0353125 -1.0566583077249527 0.020194841903982685
14.0364609375 -1.057336324591819 0.021428908714068884
14.037609375 -1.0550816947207453 0.021215054052574955
14.0387578125 -1.0531282176174372 0.027313772019941784
14.03990625 -1.0563727308306148 0.021345618162616375
14.0410546875 -1.0463219427236103 0.01255120711194535
14.042203125 -1.0540970448442375 0.018238738626197293
14.0433515625 -1.0507436377806623 0.01929584976323362
14.0445 -1.048240445069145 0.011253812024237142
14.0456484375 -1.0544030730976413 0.021571729563535813
14.046796875 -1.0587319442308663 0.02416476404653789
14.0479453125 -1.0594567600281022 0.02886602522081383
14.04909375 -1.0576312174895965 0.028944606891757818
14.0502421875 -1.054234454685591 0.023363389907866683
14.051390625 -1.0530182246559472 0.024167718657743364
14.0525390625 -1.0490217826850854 0.025548317253392905
14.0536875 -1.0611651338969508 0.025881640723393273
14.0548359375 -1.0587459781183193 0.03141988261346895
14.055984375 -1.0530792707359031 0.029033795012220365
14.0571328125 -1.0519744256267385 0.0213436994441335
14.05828125 -1.056119734247676 0.031082078567152727
14.0594296875 -1.051926086938922 0.03502326639757358
14.060578125 -1.051962211069337 0.033437041119327326
14.0617265625 -1.0520231386374679 0.03101567508760039
14.062875 -1.0524252882831067 0.031405303577134225
14.0640234375 -1.052807272255406 0.033426375973041766
14.065171875 -1.0569670635035628 0.034780008486976044
14.0663203125 -1.0566473884146945 0.03793375285650813
14.06746875 -1.0491996268574146 0.020901221524286084
14.0686171875 -1.0526168948916224 0.031642299932952866
14.069765625 -1.0519091441002961 0.031711608800793045
14.0709140625 -1.0556857011394345 0.029163011301410857
14.0720625 -1.0514401627276857 0.024544730512533475
14.0732109375 -1.0590203643917513 0.03086273605138623
14.074359375 -1.0588636004764802 0.03284284884547173
14.0755078125 -1.05322639727481 0.03721617056044724
14.07665625 -1.0574857011143235 0.04197026346287558
14.0778046875 -1.0584971857881655 0.03503855653000265
14.078953125 -1.0547350469110897 0.029537157211540155
14.0801015625 -1.048420491816334 0.03299804651994176
14.08125 -1.0519969216381702 0.03950678046032008
14.0823984375 -1.0542997959376108 0.02594065156371339
14.083546875 -1.0570835467038417 0.033169218309711423
14.0846953125 -1.0623211634983485 0.038366036201892384
14.08584375 -1.0559790924420023 0.028638677620278274
14.0869921875 -1.059972767692133 0.03462002168332168
14.088140625 -1.0636584111724388 0.03997323603700409
14.0892890625 -1.0650717638225562 0.0405468138349403
14.0904375 -1.0598700591931296 0.03825005963089423
14.0915859375 -1.065494235663505 0.043974942748581713
14.092734375 -1.0649610886187584 0.04573511191379598
14.0938828125 -1.0555990225195508 0.03522290026649366
14.09503125 -1.0646694350791437 0.04782769181968538
14.0961796875 -1.0637107300144923 0.049382618220918384
14.097328125 -1.053564922093009 0.042549397258199284
14.0984765625 -1.0578928743392435 0.04694574330254975
14.099625 -1.0565279636952432 0.046754763750347594
14.1007734375 -1.0510302224116161 0.04228848376690608
14.101921875 -1.0598682318720396 0.04504482489534145
14.1030703125 -1.060619639165327 0.04727203524512125
14.10421875 -1.060087643141711 0.05676128669725189
14.1053671875 -1.057525917764147 0.04594297614224685
14.106515625 -1.0580910715924818 0.05066458162286003
14.1076640625 -1.0543685418419337 0.055167179760539975
14.1088125 -1.0466536054731608 0.047722637280425806
14.1099609375 -1.0499130994504706 0.05106708636723223
14.111109375 -1.0466686202429543 0.05322609809410739
14.1122578125 -1.0450561535559786 0.04813923943470655
14.11340625 -1.0539534183745856 0.04879946866621887
14.1145546875 -1.0486470024982208 0.052880927253591836
14.115703125 -1.0516269718656028 0.0490971588225384
14.1168515625 -1.0486174222725007 0.05008521560887358
14.118 -1.053473039365071 0.05307492150845938
14.1191484375 -1.0523563470802195 0.05945209480236868
14.120296875 -1.048900518578678 0.0483083971310756
14.1214453125 -1.0507757562052225 0.05627283581666298
14.12259375 -1.0465026805283912 0.05297447164095048
14.1237421875 -1.0516542267416027 0.049819104351422006
14.124890625 -1.0468702561154526 0.058935574030892
14.1260390625 -1.0455787961570921 0.06550709648287945
14.1271875 -1.0459325910514037 0.06131115457500025
14.1283359375 -1.040890602978835 0.06491003100422288
14.129484375 -1.0471030938352437 0.0644096049809032
14.1306328125 -1.0497810793449158 0.06585962643453447
14.13178125 -1.0356112497896335 0.05969665560222348
14.1329296875 -1.0470756718376935 0.06051511088310835
14.134078125 -1.0351777781304408 0.06604002152697419
14.1352265625 -1.0229805577004176 0.0587491072056584
14.136375 -1.0366326954629077 0.059189433951549186
14.1375234375 -1.0394365885350387 0.058668814566931626
14.138671875 -1.0283297489517946 0.051148057790919355
14.1398203125 -1.0347600995575994 0.05828368741874457
14.14096875 -1.039647028279688 0.060666127432984274
14.1421171875 -1.0326214981155244 0.05908370601317958
14.143265625 -1.0279176222180715 0.06210644002635146
14.1444140625 -1.0385371625601878 0.06138014957501825
14.1455625 -1.04342460133917 0.05536954657015114
14.1467109375 -1.027915044130047 0.058626773340241134
14.147859375 -1.0308832056009316 0.058193918594567906
14.1490078125 -1.0333002755983558 0.06552564643584935
14.15015625 -1.0268939515641753 0.050637200942743155
14.1513046875 -1.0210755395756776 0.05772309811871068
14.152453125 -1.0248706988512757 0.053128286144611625
14.1536015625 -1.0254525984660299 0.0525111662402179
14.15475 -1.030038134756714 0.0458859213720163
14.1558984375 -1.0344844102206174 0.052305134437847456
14.157046875 -1.0324914981165616 0.05377234044841517
14.1581953125 -1.0330084454046822 0.04484382089599448
14.15934375 -1.041963428403473 0.05177552568989707
14.1604921875 -1.0352254705302315 0.05441886156735565
14.161640625 -1.0281075923767284 0.052713282438290765
14.1627890625 -1.0330753027312827 0.051631441736291306
14.1639375 -1.031193998474322 0.05945498531095417
14.1650859375 -1.0244435432341041 0.04621149135836944
14.166234375 -1.0318257556669481 0.05320788725698289
14.1673828125 -1.0330093961812903 0.05562016704114836
14.16853125 -1.0310530363006367 0.05156273502259945
14.1696796875 -1.0309680314005663 0.04976397726494086
14.170828125 -1.0342949622648434 0.05353718473772323
14.1719765625 -1.0406349604206475 0.05969176955005273
14.173125 -1.0283937128595693 0.039799986780886365
14.1742734375 -1.033576650606531 0.05586107953510433
14.175421875 -1.036820562390101 0.060136546915673605
14.1765703125 -1.0339277845962145 0.062279648765861284
14.17771875 -1.0340740364551153 0.06788211972489994
14.1788671875 -1.0331256872439507 0.06850107657946403
14.180015625 -1.0305698086334267 0.07277466701438001
14.1811640625 -1.0308582624278257 0.06964245177946138
14.1823125 -1.0214825104591534 0.07319136366153528
14.1834609375 -1.0239380683001547 0.07628634402620615
14.184609375 -1.015025170720031 0.07053384850419347
14.1857578125 -1.019734562687313 0.07854358730336253
14.18690625 -1.012835625123771 0.08413468057623508
14.1880546875 -1.0049655330237566 0.07972010735655749
14.189203125 -1.0070819792553802 0.08272537698796956
14.1903515625 -1.0050598889649816 0.07805818262882125
14.1915 -1.0002963975946526 0.07533192388425858
14.1926484375 -0.9953922741795165 0.07416106161480673
14.193796875 -0.9954556565137628 0.07731385624919351
14.1949453125 -0.9912757145856 0.07613346905476237
14.19609375 -0.9919443993277637 0.07084151394655169
14.1972421875 -0.9877922803420834 0.06943174349037928
14.198390625 -0.984368703756856 0.07231830639609904
14.1995390625 -0.9717556715575163 0.05875704185965158
14.2006875 -0.9818101899150498 0.05834903693150173
14.2018359375 -0.9775455667828747 0.055365041119202596
14.202984375 -0.9771043958772181 0.049030549506990706
14.2041328125 -0.9843990098752256 0.048615029743214855
14.20528125 -0.9840809021303849 0.05624079504462476
14.2064296875 -0.9743863099547276 0.05044373089263099
14.207578125 -0.9841953084980247 0.047860276376028854
14.2087265625 -0.9793762000205679 0.04938075929708241
14.209875 -0.9852267186848671 0.04836753021598261
14.2110234375 -0.97880649042887 0.0368456560198438
14.212171875 -0.9774312314493405 0.03744558726292757
14.2133203125 -0.9793716413491069 0.03783418778073733
14.21446875 -0.9791976532155717 0.023797961546515034
14.2156171875 -0.9920213566164695 0.031634804087627644
14.216765625 -0.9957272041926273 0.03223673263890603
14.2179140625 -0.9851654566725189 0.02846728691691014
14.2190625 -0.9887844330158017 0.021139306536213653
14.2202109375 -0.9946705746801596 0.02637493965303983
14.221359375 -0.991873313753517 0.02346588512298131
14.2225078125 -0.9928796713626957 0.01183014676894556
14.22365625 -1.0037794337005017 0.014632460059493702
14.2248046875 -0.9978169419457584 0.025351123429529165
14.225953125 -1.003261659195178 0.009723868157860083
14.2271015625 -1.0080831112198883 0.014014636812017311
14.22825 -1.0170949212148261 0.019337938493602547
14.2293984375 -1.0177171368585083 0.0169707763567003
14.230546875 -1.0212677293861232 0.022082415488184792
14.2316953125 -1.0188401175527881 0.013190557443208961
14.23284375 -1.029225514167651 0.019390001043878335
14.2339921875 -1.024848105502228 0.009755060304364904
14.235140625 -1.0376706886513012 0.019284021539826557
14.2362890625 -1.042431254517636 0.02484501880217227
14.2374375 -1.027114201504503 0.017070100829983725
14.2385859375 -1.0383606918765353 0.03135034244058832
14.239734375 -1.049302806273829 0.03934455772009804
14.2408828125 -1.023073260644658 0.02418789120050202
14.24203125 -1.031308759627604 0.01746792778845596
14.2431796875 -1.0425849527508388 0.03034092429619406
14.244328125 -1.0410156201640315 0.03397406855100826
14.2454765625 -1.0517941318497583 0.026838197517286666
14.246625 -1.0498638454184297 0.03310350035583409
14.2477734375 -1.0487048517929114 0.04062795197915503
14.248921875 -1.0456658808308197 0.028643787998133163
14.2500703125 -1.0544701376936645 0.03155631266005787
14.25121875 -1.0521195137045758 0.042523884041630655
14.2523671875 -1.0552852300456106 0.017498256280328195
14.253515625 -1.0485406756659028 0.036701556135040114
14.2546640625 -1.064965937874769 0.04310160024396603
14.2558125 -1.0557597320362193 0.019823566498942014
14.2569609375 -1.0544695721406936 0.04287454189464435
14.258109375 -1.072407825429675 0.0540664362138743
14.2592578125 -1.0681002662682582 0.05643406185362432
14.26040625 -1.0598554313730386 0.052402301349109726
14.2615546875 -1.0615726841950146 0.07001087083915059
14.262703125 -1.0541440580812667 0.07176672598713751
14.2638515625 -1.05598695709227 0.06150401716438947
14.265 -1.0536274342936363 0.07809283162898317
14.2661484375 -1.0649171182511161 0.08162399539688725
14.267296875 -1.0564314172994833 0.07223458273939931
14.2684453125 -1.0608346737179764 0.08126565435748767
14.26959375 -1.0601464357795942 0.0773814278818512
14.2707421875 -1.0483524017548078 0.07735169429934119
14.271890625 -1.041017990778868 0.08623787733305222
14.2730390625 -1.0378985505510163 0.08513267680010739
14.2741875 -1.032537077917309 0.08433492638851636
14.2753359375 -1.032610593413422 0.06007177184161416
14.276484375 -1.037234289664735 0.07541628232110809
14.2776328125 -1.0309333684026187 0.0844818787041266
14.27878125 -1.029360926877692 0.06500850566594785
14.2799296875 -1.026949933433627 0.07547599099364988
14.281078125 -1.0278010309459567 0.07193776630829996
14.2822265625 -1.0268719546278284 0.0631900668592249
14.283375 -1.0244790805174278 0.06923911200465116
14.2845234375 -1.029361076846682 0.0651809012200617
14.285671875 -1.0261297960303686 0.06629106952962682
14.2868203125 -1.0282188795104514 0.060080561914263364
14.28796875 -1.0250281859093995 0.06645002582529402
14.2891171875 -1.0252038281165878 0.06757951633982118
14.290265625 -1.01869991261016 0.05977049176902349
14.2914140625 -1.0222217767716355 0.06231205341339341
14.2925625 -1.0230354547335454 0.06940086112637467
14.2937109375 -1.0286254211922876 0.05131376119510045
14.294859375 -1.0309498472061858 0.06384589461693685
14.2960078125 -1.0247194132330906 0.06547410037508883
14.29715625 -1.0208462677419186 0.05232776564889752
14.2983046875 -1.0277817643802487 0.05860469725430545
14.299453125 -1.02617044162043 0.06082085516450064
14.3006015625 -1.0301860407268402 0.06895202275685275
14.30175 -1.0229835631655089 0.06411900733581755
14.3028984375 -1.0180978472872213 0.06287575630202896
14.304046875 -1.0125506253620666 0.06826571979553014
14.3051953125 -1.0173350221948803 0.055823481663572316
14.30634375 -1.0141795720409679 0.06264889964087317
14.3074921875 -1.0171878694803183 0.056676818432400355
14.308640625 -1.0073229753951998 0.039617547408765275
14.3097890625 -1.0096761619945145 0.05408935131569986
14.3109375 -1.0125565365591491 0.05521216426579634
14.3120859375 -1.0051616793482854 0.05262201993962767
14.313234375 -1.0051682482440742 0.052032024025669865
14.3143828125 -1.013875030604598 0.05384297954526779
14.31553125 -1.005475219092646 0.050449860373552535
14.3166796875 -0.9990745573854516 0.03857542392374408
14.317828125 -1.0085969607837952 0.04876567683172106
14.3189765625 -1.0095751689123205 0.0518452977212151
14.320125 -1.0092222751804691 0.04080738763991876
14.3212734375 -1.0104640932601234 0.04360167036449869
14.322421875 -1.01422710163409 0.0463511542632043
14.3235703125 -0.99854375309052 0.035324984280408755
14.32471875 -0.9996955841857827 0.05061026261228216
14.3258671875 -0.998023698440285 0.05559757686136438
14.327015625 -0.989605428831553 0.04381041116658266
14.3281640625 -0.9937135964303774 0.03245556033026609
14.3293125 -0.9942673078361881 0.037830725655024655
14.3304609375 -0.9918960314619463 0.035914296406237556
14.331609375 -0.9980019132621404 0.02935722095504606
14.3327578125 -1.001702906778494 0.03140655335073958
14.33390625 -1.0087114655253187 0.031139827370427753
14.3350546875 -1.006276087052946 0.030372248725675982
14.336203125 -1.0112300494324973 0.03412397394906744
14.3373515625 -1.0083475190034932 0.035102434409865685
14.3385 -1.007880949467573 0.03212069592975128
14.3396484375 -1.0101595047328262 0.032620619751184854
14.340796875 -1.0052526054549973 0.031407383143999046
14.3419453125 -1.0043612513557454 0.033326608670390556
14.34309375 -1.006374847074552 0.027436242871388863
14.3442421875 -1.0092589324558823 0.03302629930247425
14.345390625 -1.005400080727095 0.04166411950693927
14.3465390625 -1.0007069595950724 0.026171496312363207
14.3476875 -1.0064676288387266 0.03926389443570941
14.3488359375 -1.0030961062129011 0.04745281957411468
14.349984375 -1.0037309954714568 0.03601122449387065
14.3511328125 -1.0018581515857499 0.03831163932636661
14.35228125 -0.9958672121414498 0.0402888836286632
14.3534296875 -1.003305765748952 0.03332496943387636
14.354578125 -1.0013981080344765 0.032674516118689656
14.3557265625 -1.0030009802786304 0.026114561605415032
14.356875 -1.005550513546241 0.03909885852086048
14.3580234375 -1.0045115185542342 0.028813833076108714
14.359171875 -1.010524757309274 0.03297801848420967
14.3603203125 -1.0082120574450482 0.04151320573629236
14.36146875 -1.0067933071379198 0.02962357877896396
14.3626171875 -1.009452981093133 0.0330943775020483
14.363765625 -1.003013772234225 0.041785841340847396
14.3649140625 -1.0087649853947045 0.03135289816813158
14.3660625 -1.0118386047655044 0.04146432166113362
14.3672109375 -1.0196383815732282 0.05127656557567961
14.368359375 -1.0106137399306532 0.04924445587281767
14.3695078125 -1.0127949851717233 0.0451918051208548
14.37065625 -1.0041228155196524 0.04773797335880242
14.3718046875 -1.0096844505789062 0.05067207450893774
14.372953125 -1.003607070453972 0.04400073432334345
14.3741015625 -1.0077403898040025 0.05296356526132501
14.37525 -1.0043328666069589 0.04980201734334483
14.3763984375 -1.0013146627597656 0.04425721834131402
14.377546875 -0.9975447470829455 0.05577992264418152
14.3786953125 -1.004331918646308 0.05050456301320494
14.37984375 -0.9994076085595015 0.05823449005872999
14.3809921875 -0.9946428798737046 0.0533260757997282
14.382140625 -0.994270997172291 0.047860297123241136
14.3832890625 -1.0027647947671796 0.04781182537486073
14.3844375 -1.0000401384310469 0.03507717746670047
14.3855859375 -0.9958249397463214 0.0490146884575926
14.386734375 -1.0061353955693724 0.06122423034993274
14.3878828125 -1.0008242030945287 0.043373693102397304
14.38903125 -0.989949704383108 0.05863155524205749
14.3901796875 -0.9864356606054508 0.04666785958751235
14.391328125 -0.9801745603537482 0.043802707273103036
14.3924765625 -0.9846331845602941 0.05671118477477449
14.393625 -0.983580818989609 0.056090197936749575
14.3947734375 -0.9785611575284381 0.042479034985623
14.395921875 -0.9813561120630958 0.030101593275706717
14.3970703125 -0.9715133954866289 0.046457100056367606
14.39821875 -0.9786908384582789 0.02634480312925347
14.3993671875 -0.983765097888769 0.02427421352607606
14.400515625 -0.984981584167375 0.031861456309971725
14.4016640625 -0.9913938822759107 0.030424992531248585
14.4028125 -0.9807231455231562 0.017256773154083693
14.4039609375 -0.9834687030158762 0.024147801395834723
14.405109375 -0.9901029182936125 0.023017236759272586
14.4062578125 -0.9879505968679876 0.021924576248441574
14.40740625 -0.9899450343208775 0.020220552149547488
14.4085546875 -0.9968749565592842 0.022362816863233992
14.409703125 -0.9941261943709228 0.03710089475975564
14.4108515625 -1.0003558913650643 0.022153734915176193
14.412 -0.9908465759939562 0.00930641723520187
14.4131484375 -0.9987318201217685 0.01968736958185585
14.414296875 -0.9835635972087251 0.01507695908954787
14.4154453125 -0.9969462731882883 0.01348709515772284
14.41659375 -0.9944617772020423 0.01994445768427555
14.4177421875 -0.9956758186509056 0.007232211428537583
14.418890625 -1.0091174808040688 0.024938656022466532
14.4200390625 -1.0006985456582493 0.01662627992196175
14.4211875 -0.9944451477379501 0.016387499783410697
14.4223359375 -1.001233366898635 0.008344203061257965
14.423484375 -0.9984827806753372 0.01922516188735915
14.4246328125 -1.0148408331261793 0.016625857414170497
14.42578125 -1.0093357657229496 0.012056038176229522
14.4269296875 -1.0099281211658795 0.004748452933303587
14.428078125 -1.0034822261356484 0.022728619112051707
14.4292265625 -1.0024249473531663 0.01065405093514421
14.430375 -1.0075669144039567 0.015716510747947887
14.4315234375 -1.0048147989553622 0.017818555657961366
14.432671875 -0.9999735924100238 0.012250418469168411
14.4338203125 -0.9992151553082695 0.01433337662315412
14.43496875 -0.9958220524862325 0.012213675727324291
14.4361171875 -0.9989837343775663 0.006388933925431384
14.437265625 -1.0021778210283456 0.005990849957082378
14.4384140625 -1.0023240149698829 0.010508779794033252
14.4395625 -0.9954709778254653 0.006371861102338561
14.4407109375 -1.0039991155058199 -0.006014913225549756
14.441859375 -0.9973552411070192 -0.005592232814628673
14.4430078125 -1.002115934308674 0.004805256559368198
14.44415625 -1.005375508486361 -0.0008973209387863612
14.4453046875 -1.0078030971624892 -0.004706623629982878
14.446453125 -1.0270375201006152 0.0033701799198976867
14.4476015625 -1.0028282822527923 -0.008567980850141071
14.44875 -1.0170713989015825 -0.010460341845209054
14.4498984375 -1.0042584201077824 -0.0038584845536288603
14.451046875 -1.0172608204944498 -0.0004594503554422036
14.4521953125 -1.0210182380528536 -0.002290787454982124
14.45334375 -1.0244087731549174 -0.01278973666958666
14.4544921875 -1.0121494666222968 0.0010391530713871333
14.455640625 -1.0113004490694315 -0.008140642904286538
14.4567890625 -1.0150656921103338 -0.01814402602446262
14.4579375 -1.0154377639687253 -0.0010728304439912434
14.4590859375 -1.0101231031023756 -0.014913880420551279
14.460234375 -1.0092848874244555 -0.011616023450007062
14.4613828125 -1.0169599885744969 -0.0033745349820165638
14.46253125 -1.0168448491506772 -0.01075052297048179
14.4636796875 -1.0119530441581266 -0.01013390776383094
14.464828125 -1.0136636293253427 -0.0030659931534106066
14.4659765625 -1.0032914548541945 -0.007087445972617512
14.467125 -1.0178563764513495 -0.03228385832322736
14.4682734375 -1.0083494914514004 -0.028569533093377383
14.469421875 -1.0096362117563036 -0.021690563778570426
14.4705703125 -1.040143562866418 -0.04016244182643097
14.47171875 -1.0291994836368161 -0.027580227530499213
14.4728671875 -1.038914474148203 -0.024680242319037204
14.474015625 -1.0355683268823095 -0.014768639522214022
14.4751640625 -1.0511998283464397 -0.022514146664081136
14.4763125 -1.0459899256747907 -0.0398934723151487
14.4774609375 -1.0449951924153673 -0.026995664496983873
14.478609375 -1.0606724672598606 -0.03572103811472488
14.4797578125 -1.034283526734783 -0.03252937623280788
14.48090625 -1.049996420036527 -0.00974793738982388
14.4820546875 -1.0517271827095187 -0.028121249118431613
14.483203125 -1.0452750795852006 -0.040297746536629375
14.4843515625 -1.0547710775874208 -0.022419953034601037
14.4855 -1.050724947814914 -0.025797319477988745
14.4866484375 -1.0496644149667151 -0.02244239042651136
14.487796875 -1.0571017475736433 -0.017678821408092793
14.4889453125 -1.0527492281794868 -0.020729057948901147
14.49009375 -1.0607044790994933 -0.019770500712545186
14.4912421875 -1.0615818510319048 -0.018938681985918082
14.492390625 -1.064908399852109 -0.017918841332241975
14.4935390625 -1.0767533438903223 -0.03332349387851624
14.4946875 -1.0692703570775233 -0.011021862181221809
14.4958359375 -1.065053958078138 -0.009194113344968391
14.496984375 -1.0645721820401328 -0.024095877029826157
14.4981328125 -1.0688160533009738 -0.015115796591017944
14.49928125 -1.0659140684257442 -0.015281766402319874
14.5004296875 -1.0620598068943405 -0.020234819118754327
14.501578125 -1.0698555177869002 -0.015942391317596116
14.5027265625 -1.0658294742167977 -0.010425745827287225
14.503875 -1.0689199802778282 -0.010858685417404701
14.5050234375 -1.067870401630007 -0.008237984791766295
14.506171875 -1.0748668917099087 -0.003839619451043552
14.5073203125 -1.062731448574971 0.000929926007031151
14.50846875 -1.0676336922350895 -0.02491949132742155
14.5096171875 -1.0745427893464354 -0.012604162892728588
14.510765625 -1.0740583781497963 -0.013701501426786417
14.5119140625 -1.074314958282733 -0.031611155349138775
14.5130625 -1.0858713333469898 -0.023594294606928523
14.5142109375 -1.0912783867019589 -0.02270020643190146
14.515359375 -1.087563237718578 -0.01623178355989824
14.5165078125 -1.090739856166635 -0.002521544858104463
14.51765625 -1.0918845222413984 0.005227442694212825
14.5188046875 -1.0838348774986573 -0.00886672233431543
14.519953125 -1.0947939261166917 -0.005603221898445976
14.5211015625 -1.0994797103415759 -0.004354735401943033
14.52225 -1.1095729522681719 0.0021486274160965324
14.5233984375 -1.1040479050540273 -0.0015694144855074033
14.524546875 -1.1066219201518093 0.016515164006930372
14.5256953125 -1.0992628927902994 0.01698086295258422
14.52684375 -1.1017668527792341 0.015003099165260825
14.5279921875 -1.10794039980905 0.012217295555813606
14.529140625 -1.1119243695621244 0.019990756496027384
14.5302890625 -1.1116308623999396 0.01431173115129572
14.5314375 -1.1145535554330004 0.028905198203938748
14.5325859375 -1.1119880042143249 0.03195040209264613
14.533734375 -1.1144643053931305 0.02071059710148443
14.5348828125 -1.109441434885813 0.020434122140802258
14.53603125 -1.108999763805168 0.01998231129065739
14.5371796875 -1.12783230349903 0.04310818794770674
14.538328125 -1.1159787707448006 0.021405880462225024
14.5394765625 -1.1042426146427078 0.03736182259019499
14.540625 -1.1092840480826216 0.05527801884045075
14.5417734375 -1.110758455070127 0.04179671362313425
14.542921875 -1.1073853311233979 0.04555391999488728
14.5440703125 -1.1169140797339066 0.034517412488066446
14.54521875 -1.1157942989566956 0.05409858467679918
14.5463671875 -1.1162631496521453 0.04758438365050635
14.547515625 -1.11416844875832 0.06026516030336018
14.5486640625 -1.109942940792505 0.07905860571228138
14.5498125 -1.1002518744188245 0.05759807863369626
14.5509609375 -1.1119145064182585 0.06734557098058092
14.552109375 -1.1037906912888622 0.08335615298547419
14.5532578125 -1.1062539706774792 0.06373167733281243
14.55440625 -1.0907357539358902 0.07637771559449558
14.5555546875 -1.0971662799246626 0.08666092965581146
14.556703125 -1.0945729161213622 0.07306487176909968
14.5578515625 -1.090765926810716 0.07847570490396935
14.559 -1.0974515325649665 0.08797049024733014
14.5601484375 -1.0946858098615335 0.09914173621525638
14.561296875 -1.0796151701680206 0.08023993074670943
14.5624453125 -1.090589413907234 0.09111588811941781
14.56359375 -1.0758047527393488 0.09362765142705642
14.5647421875 -1.0690128979824853 0.0802047748466963
14.565890625 -1.0629447526302391 0.08611621576702366
14.5670390625 -1.0584220266295272 0.08717696720724455
14.5681875 -1.0613978006916498 0.08714670757257731
14.5693359375 -1.0698302477158754 0.08132386243938625
14.570484375 -1.0732845486681828 0.0973985661860749
14.5716328125 -1.067782672525703 0.09832409563686811
14.57278125 -1.0570109323309933 0.0869648769341681
14.5739296875 -1.0596054997661302 0.09199490211595085
14.575078125 -1.0558730334092628 0.09829876763204864
14.5762265625 -1.0517378177027075 0.08442163569511069
14.577375 -1.050898030534938 0.09116594176159143
14.5785234375 -1.0411337846863402 0.09932554499504875
14.579671875 -1.035869483726605 0.0794742112808875
14.5808203125 -1.0316469252094826 0.08116013480544063
14.58196875 -1.0433245152048218 0.08396107508287493
14.5831171875 -1.0368822365371604 0.06723757898046523
14.584265625 -1.0378238078376198 0.06608886132066738
14.5854140625 -1.04106660368075 0.06434141388488368
14.5865625 -1.047662700924681 0.06386957256273373
14.5877109375 -1.0445617740137927 0.05566858623952714
14.588859375 -1.0502315524187569 0.06820268759191947
14.5900078125 -1.049348096832574 0.0721980438794963
14.59115625 -1.0552676495010282 0.05777673791186627
14.5923046875 -1.0542475723478084 0.06450147791142591
14.593453125 -1.0510537633163102 0.06454088962462806
14.5946015625 -1.0411714247396628 0.05362654478143697
14.59575 -1.0466741100296646 0.06053119624132319
14.5968984375 -1.0530535096060123 0.052163727565468665
14.598046875 -1.049706373000622 0.055651657664743115
14.5991953125 -1.0489495075311992 0.054081544485240496
14.60034375 -1.064176256966186 0.060984700022758465
14.6014921875 -1.0712895365366153 0.0610123198278027
14.602640625 -1.0677812555196982 0.057966618760565414
14.6037890625 -1.0668711291977817 0.06518099851786735
14.6049375 -1.067925055962145 0.07602137188844565
14.6060859375 -1.0629579047995794 0.07055660295852972
14.607234375 -1.0578159816139734 0.08774260671967826
14.6083828125 -1.066154672354823 0.07776843746383139
14.60953125 -1.0722390772151629 0.08198267803280401
14.6106796875 -1.0624289867325563 0.09061959567635675
14.611828125 -1.0676935213791263 0.0781463586252722
14.6129765625 -1.0686731344652074 0.09221954999239518
14.614125 -1.0538441502244695 0.08332756143659226
14.6152734375 -1.0587437752123967 0.09978128884223592
14.616421875 -1.0622992432763119 0.09404909675132739
14.6175703125 -1.0471447367810365 0.0732296791986291
14.61871875 -1.0481612100674587 0.09193375656369474
14.6198671875 -1.0415613849968208 0.09565727318693495
14.621015625 -1.0430301823057793 0.09210176376148643
14.6221640625 -1.047704383717414 0.09149686755196185
14.6233125 -1.048287113203758 0.0919471162008384
14.6244609375 -1.0444515352251562 0.08783793428059922
14.625609375 -1.0431607807225896 0.06574652687823918
14.6267578125 -1.0445880578190623 0.10752677931213983
14.62790625 -1.0371214079961062 0.1070230142344441
14.6290546875 -1.0343359963843681 0.0895909076257162
14.630203125 -1.0298931666761877 0.11184733597660729
14.6313515625 -1.0241719948107044 0.11559265380559469
14.6325 -1.0248649782613037 0.0815875361872454
14.6336484375 -1.0091988774481009 0.11858830183587837
14.634796875 -1.0193064742357716 0.11601232056300076
14.6359453125 -1.016877180546005 0.10544042988954994
14.63709375 -1.0034164960578653 0.10125885778348498
14.6382421875 -0.9990748384294557 0.11003908331604234
14.639390625 -1.0059694692404113 0.1089176172087245
14.6405390625 -1.0082171528123252 0.09789119316258804
14.6416875 -0.9959096662629285 0.11308964419156559
14.6428359375 -0.9961655485142673 0.09757245377367257
14.643984375 -0.9955664327585976 0.06890721137890876
14.6451328125 -0.9882353383562847 0.0873049844290501
14.64628125 -0.9786089617145717 0.09949118817265562
14.6474296875 -0.9849725129334435 0.07786563559610482
14.648578125 -0.9906420237554878 0.07790664470877795
14.6497265625 -0.9934688277959384 0.0805602732950993
14.650875 -0.9725399625028636 0.07902536295556828
14.6520234375 -0.978546195625488 0.06385892362163464
14.653171875 -0.9749551237827553 0.060710040627072526
14.6543203125 -0.9802378491763998 0.058415802138756245
14.65546875 -0.9674482688521331 0.05867542830847694
14.6566171875 -0.9803079786681956 0.07132214577291096
14.657765625 -0.9747880154209813 0.06726148047468522
14.6589140625 -0.959806376864442 0.03446816252790186
14.6600625 -0.972345190463136 0.04393636804010842
14.6612109375 -0.9757231091674701 0.048233983782519974
14.662359375 -0.9816262179839426 0.03941713451914197
14.6635078125 -0.9891804689807906 0.024215455744040715
14.66465625 -0.9886153720660913 0.021442820547170283
14.6658046875 -0.9911023683731317 0.03755552046337374
14.666953125 -1.0146600132399626 0.028407280491098086
14.6681015625 -0.9850861589552353 0.04402111901948347
14.66925 -0.9864742412780356 0.039942366102876825
14.6703984375 -0.9745697770970089 0.03275326927886668
14.671546875 -0.9980820666115833 0.027126351181886554
14.6726953125 -0.9873316415985751 0.032339415540867944
14.67384375 -1.0089778429929324 0.012680617674119321
14.6749921875 -0.9936054633788216 0.020524882005377276
14.676140625 -0.9978971330436779 0.010427811487511152
14.6772890625 -0.9967076866724793 0.006989729144090018
14.6784375 -0.9971374122701909 0.000788447351073307
14.6795859375 -1.0140229215784906 -0.002339182203758061
14.680734375 -0.9962434050396669 0.007434276561959052
14.6818828125 -1.0155728648075546 0.004394303505445563
14.68303125 -1.0146982867758896 0.008777012760300518
14.6841796875 -1.0175375165295857 0.014472930903590364
14.685328125 -1.0094485858252422 0.007247572280419057
14.6864765625 -1.0129520734462722 0.0019028964088758649
14.687625 -1.03620792511134 -0.009496126464727972
14.6887734375 -1.024720664806326 -0.0011255546167923125
14.689921875 -1.029956640993341 -0.0022662743385618578
14.6910703125 -1.0375402684638 -0.001326887621131756
14.69221875 -1.043478105881128 0.00040778725293399987
14.6933671875 -1.0293288738994884 0.014434332010021866
14.694515625 -1.0364754279347994 0.011284120479755577
14.6956640625 -1.0302605630731434 0.0065854397379918606
14.6968125 -1.0119232942055922 -0.012813957665238629
14.6979609375 -1.030352068495393 -0.002483630469263698
14.699109375 -1.0362471819614094 0.00483768820018049
14.7002578125 -1.0298203647257451 -0.010595144074954765
14.70140625 -1.0386729874305707 -0.000734254572536952
14.7025546875 -1.0352500778077371 -0.004398693507266405
14.703703125 -1.0353823517069707 -0.01518736219908623
14.7048515625 -1.0367843262189016 -0.009146796776620336
14.706 -1.0369934003348962 -0.01255478246767594
14.7071484375 -1.0368101947368968 -0.004208962712864639
14.708296875 -1.0273320239033181 -0.02942353285932897
14.7094453125 -1.041654240172363 -0.023373280029821863
14.71059375 -1.0464287933010017 -0.029304998848626918
14.7117421875 -1.0498064291520768 -0.027734157425482797
14.712890625 -1.0636669420790903 -0.009364258189748287
14.7140390625 -1.0563816696908885 -0.011962163393299363
14.7151875 -1.0599840285971618 -0.02307211956465638
14.7163359375 -1.082510607965203 -0.01825420167558134
14.717484375 -1.0644833399600013 -0.02718036657563272
14.7186328125 -1.062042038118933 -0.007177554014158649
14.71978125 -1.0608832692549823 -0.020856338774124072
14.7209296875 -1.0677194777054355 -0.01082789855842925
14.722078125 -1.0664736521497233 -0.014992313493936038
14.7232265625 -1.0775649178912832 -0.03180243657971571
14.724375 -1.0706941056389456 -0.013845804167818887
14.7255234375 -1.081593814295649 -0.019271837639237455
14.726671875 -1.0574797274891552 -0.02688304277301934
14.7278203125 -1.0647045545387894 -0.04282997880653849
14.72896875 -1.0708865586546876 -0.03241946055418532
14.7301171875 -1.0851485142847899 -0.025623075932137862
14.731265625 -1.0924046501217017 -0.05071299125468609
14.7324140625 -1.0960937096015435 -0.025667700613864697
14.7335625 -1.105077422844729 -0.019466912079991072
14.7347109375 -1.0991395197756963 -0.03497487266065691
14.735859375 -1.1045607370729016 -0.014631276630111656
14.7370078125 -1.1166957209608979 0.00010224885779286375
14.73815625 -1.1189438616737661 -0.00996999036882884
14.7393046875 -1.1117890590621133 -0.008704683628239396
14.740453125 -1.1184665308924586 -0.006218281047674412
14.7416015625 -1.1225668644194824 -0.0013594628475583903
14.74275 -1.1235197955015634 -0.0016165632605723568
14.7438984375 -1.123120870026202 0.007609287711546453
14.745046875 -1.136189883057968 0.011122453376933183
14.7461953125 -1.125000116534065 0.014725673156338548
14.74734375 -1.135249361894024 0.030859040336725374
14.7484921875 -1.130564863885648 0.03925919886415641
14.749640625 -1.1243970078869054 0.022981867504839548
14.7507890625 -1.1231574247551657 0.032362953503340064
14.7519375 -1.1232127743854197 0.03153177819918962
14.7530859375 -1.1163627684587205 0.02521695519000533
14.754234375 -1.1262701046757164 0.02681083676006557
14.7553828125 -1.1216233414353984 0.036587751775260635
14.75653125 -1.1252909776548927 0.03240660923305083
14.7576796875 -1.120734244085308 0.02730433784662012
14.758828125 -1.1360119006112126 0.04009338017132669
14.7599765625 -1.131983084369868 0.05145127726120413
14.761125 -1.12753736519083 0.03862117319571157
14.7622734375 -1.1218206764293142 0.05682348265787762
14.763421875 -1.1182879746556533 0.0625625910227986
14.7645703125 -1.1109362857154144 0.039221249327843766
14.76571875 -1.1139979273489615 0.06439560051269216
14.7668671875 -1.1159407888788233 0.05522078134064673
14.768015625 -1.1050704956129491 0.05321221366587947
14.7691640625 -1.0928469249911519 0.04035498144243771
14.7703125 -1.1032328508940588 0.04498372047372223
14.7714609375 -1.1040281288634834 0.05094614235428602
14.772609375 -1.1061506377165973 0.03404580878520763
14.7737578125 -1.1090544001261815 0.05518740710594611
14.77490625 -1.1036593731032818 0.05255897326589509
14.7760546875 -1.1090827405596273 0.036764021965686844
14.777203125 -1.103713853197526 0.050787160950351296
14.7783515625 -1.1116744794182674 0.05699387115888216
14.7795 -1.1087008279439798 0.055261314669573625
14.7806484375 -1.0897031159397388 0.043468800753366676
14.781796875 -1.0949242049796593 0.05156187829132183
14.7829453125 -1.1089144025480853 0.0468102247701917
14.78409375 -1.1099679504861222 0.03744345397789167
14.7852421875 -1.102020798205688 0.06696670887094858
14.786390625 -1.1195069529058799 0.06349938547108167
14.7875390625 -1.1194562855469041 0.05203046454770294
14.7886875 -1.1143176453244996 0.08763413775861995
14.7898359375 -1.1089188203794935 0.0740678236170802
14.790984375 -1.0955043240849496 0.06619000485686752
14.7921328125 -1.0972830384736734 0.06902532531250333
14.79328125 -1.0947121400824766 0.07505282614154485
14.7944296875 -1.0927481762422424 0.04520130448077536
14.795578125 -1.0995884668800993 0.05979721032521232
14.7967265625 -1.102170109224493 0.06629786574739896
14.797875 -1.1003887030374642 0.07065834239831931
14.7990234375 -1.1192098370778756 0.05943630118568466
14.800171875 -1.108357751291035 0.06631727759765305
14.8013203125 -1.104120329060092 0.0765232135047822
14.80246875 -1.095191522625291 0.05107699744011307
14.8036171875 -1.0958451428262252 0.06631085201976195
14.804765625 -1.0979773684212235 0.08621973522819043
14.8059140625 -1.10390809061203 0.07376035664884417
14.8070625 -1.0975075330321644 0.07548055708305501
14.8082109375 -1.1040300119337054 0.08377686034133891
14.809359375 -1.1053961728757413 0.08157987888669416
14.8105078125 -1.0912043204313262 0.08748484096616949
14.81165625 -1.096821571538943 0.09658535815829083
14.8128046875 -1.1068762297540062 0.08808454821260825
14.813953125 -1.100772750368906 0.08851530320682033
14.8151015625 -1.0934530592114777 0.08849884311901046
14.81625 -1.0865796112636417 0.1012962647811887
14.8173984375 -1.0973211930753575 0.08345614667945678
14.818546875 -1.0930344829557497 0.09653720996390558
14.8196953125 -1.0923372512117726 0.0869967379335127
14.82084375 -1.0847617333929054 0.0806809295073102
14.8219921875 -1.0902062431907011 0.08506172784257904
14.823140625 -1.09088645426324 0.09381266514131781
14.8242890625 -1.099635158029506 0.08794482270172421
14.8254375 -1.0936261745621283 0.08843108698298074
14.8265859375 -1.092543369094367 0.09030532932867508
14.827734375 -1.0862943785888226 0.10313746398068102
14.8288828125 -1.085407921157946 0.0867101494670941
14.83003125 -1.0925347132386907 0.10725091971560952
14.8311796875 -1.0863387315477486 0.1021119529699408
14.832328125 -1.0870188354598667 0.09685946726314398
14.8334765625 -1.080298066052927 0.1021587423086372
14.834625 -1.074290071376865 0.11241977901662692
14.8357734375 -1.080425555973605 0.09124174027245324
14.836921875 -1.0787263078518141 0.10338123531940224
14.8380703125 -1.0762097652708857 0.10967204873947667
14.83921875 -1.0857420997110174 0.10195349733837566
14.8403671875 -1.0827538693815524 0.1020780910814918
14.841515625 -1.0675788263648758 0.10528306634764906
14.8426640625 -1.0654589710082525 0.10764627236634183
14.8438125 -1.0674633304829861 0.10253727397447343
14.8449609375 -1.0754500302294416 0.10009056155474472
14.846109375 -1.083485144940666 0.10611710201525582
14.8472578125 -1.0719820391166177 0.07972906613452968
14.84840625 -1.075869869978198 0.08009483983211729
14.8495546875 -1.0872696353818372 0.07925125499186692
14.850703125 -1.0760181889510518 0.09613675583794734
14.8518515625 -1.0695520158513918 0.08365279802298597
14.853 -1.0646416722541594 0.05823345274377645
14.8541484375 -1.079650289622054 0.09428118028274701
14.855296875 -1.069448165317575 0.07887055617448913
14.8564453125 -1.069130054584858 0.08323969314883528
14.85759375 -1.062554786847397 0.0812063974812155
14.8587421875 -1.0599678960291694 0.0754424786934682
14.859890625 -1.080462530356837 0.06236478058694184
14.8610390625 -1.0774152185596662 0.09196788331195038
14.8621875 -1.0831838111930754 0.08501155747459044
14.8633359375 -1.065871344873511 0.0764938890692527
14.864484375 -1.0691532831619321 0.09926606736268229
14.8656328125 -1.091603742268182 0.0688559044254855
14.86678125 -1.090048405357065 0.06695305364070614
14.8679296875 -1.0851568140716719 0.06158735824372852
14.869078125 -1.0932643536469897 0.11044785388923783
14.8702265625 -1.0542654161815406 0.10708741940508837
14.871375 -1.0949464780816622 0.06491892469855443
14.8725234375 -1.074543306193586 0.10549254238155847
14.873671875 -1.0926555404281373 0.06653679813673818
14.8748203125 -1.0725914949266022 0.08134444506526295
14.87596875 -1.0909056488431357 0.09047451990131838
14.8771171875 -1.0642752642152242 0.07388202017091161
14.878265625 -1.0363374615053402 0.0777679172239607
14.8794140625 -1.0933145188919497 0.0830959544669374
14.8805625 -1.0905277633215245 0.07065305272354294
14.8817109375 -1.0554706195796857 0.053447973704490837
14.882859375 -1.080245046761212 0.0703044089536824
14.8840078125 -1.0775957497104407 0.07955808048836888
14.88515625 -1.0759375914685976 0.06365226971509363
14.8863046875 -1.0925339063660788 0.07094790184149224
14.887453125 -1.0707970913114673 0.04273715425326108
14.8886015625 -1.074625586064988 0.06515636628639787
14.88975 -1.0826931078208413 0.06682424390886421
14.8908984375 -1.0856934306810186 0.088015366011309
14.892046875 -1.0850464755765015 0.06400545942396851
14.8931953125 -1.0720722532885845 0.06801626696362573
14.89434375 -1.0547117646348947 0.07787592751726335
14.8954921875 -1.101472553480026 0.07361954132604676
14.896640625 -1.1012594644862213 0.049211824197024745
14.8977890625 -1.0890723829702003 0.07900324480578758
14.8989375 -1.1015490573076558 0.09038804676612555
14.9000859375 -1.0939991157364084 0.08428053909831723
14.901234375 -1.1084268328632756 0.09003449127349339
14.9023828125 -1.1003486666845679 0.0923771152522026
14.90353125 -1.0914318796183253 0.09884295409381094
14.9046796875 -1.0924593547259414 0.09701863377323128
14.905828125 -1.088178610558802 0.10478857468726521
14.9069765625 -1.0912222051258902 0.11184951356308837
14.908125 -1.085753703754516 0.08034141570602338
14.9092734375 -1.1111740001333807 0.09723229350932483
14.910421875 -1.099461249788964 0.11229077481474081
14.9115703125 -1.076865970389016 0.1051993338799474
14.91271875 -1.0864691128869528 0.11695624062114973
14.9138671875 -1.0754268573543107 0.10988236933141848
14.915015625 -1.0831870874653564 0.10338803950789599
14.9161640625 -1.0778099857371108 0.11538498070671155
14.9173125 -1.0676091313590694 0.12088705616789175
14.9184609375 -1.0743672947315046 0.11934319040666175
14.919609375 -1.0558003347830058 0.1057720538505934
14.9207578125 -1.0578228659444378 0.11274370076407125
14.92190625 -1.0638554108069544 0.11787241719819075
14.9230546875 -1.05514418421855 0.09241588339188411
14.924203125 -1.0532243857763401 0.09886296286703777
14.9253515625 -1.0655971178341013 0.10405973354513054
14.9265 -1.0662100283156764 0.08133900542366457
14.9276484375 -1.0623917228665887 0.0895639391011675
14.928796875 -1.070089432122315 0.10699679146560359
14.9299453125 -1.0590734970176126 0.09241427636193567
14.93109375 -1.0539840791686599 0.10471087545076868
14.9322421875 -1.0582379252357021 0.12342225627519121
14.933390625 -1.0512963802701405 0.11018761887180317
14.9345390625 -1.043227820843933 0.0986694909618554
14.9356875 -1.0441616788668504 0.11247551513857307
14.9368359375 -1.0497812652708074 0.11127535603545266
14.937984375 -1.0371548849287606 0.08203878411432011
14.9391328125 -1.02804570326062 0.10449762319432497
14.94028125 -1.0331291381308474 0.09864652353951471
14.9414296875 -1.0397967632175613 0.08400192415308924
14.942578125 -1.0260868519968565 0.08240710353251554
14.9437265625 -1.029976055063603 0.09418101730939316
14.944875 -1.02077485735166 0.10202402586458012
14.9460234375 -1.01519671798527 0.08750321730541671
14.947171875 -1.028946385696038 0.0996269976510743
14.9483203125 -1.0275533747626002 0.09266099280231586
14.94946875 -1.0125895910411298 0.07340020218884138
14.9506171875 -1.0107579449018247 0.07671765557330959
14.951765625 -1.0033916667406395 0.08203368294653796
14.9529140625 -0.9995971445847242 0.07485656521094805
14.9540625 -0.9920051653467233 0.08465826800370777
14.9552109375 -0.9965449639502935 0.08083534061693176
14.956359375 -0.9973384852275077 0.05857303230176889
14.9575078125 -0.9883199134316047 0.04300050967953522
14.95865625 -0.9861126352556538 0.04881656658912738
14.9598046875 -0.9911947491468932 0.05241434347036106
14.960953125 -0.9929954487700497 0.03432599714527487
14.9621015625 -1.0011028764950993 0.03844452328573075
14.96325 -1.0006493889143238 0.03751130526624605
14.9643984375 -1.0105408483514702 0.020297527874719834
14.965546875 -0.996645983944542 0.02123113133244467
14.9666953125 -1.0197200919155665 0.013477156009722602
14.96784375 -1.0107324751269833 0.007236412030427131
14.9689921875 -1.0101105102527208 0.010310136531626268
14.970140625 -1.0270678664298074 0.01930740013008192
14.9712890625 -1.0268430686114847 0.023939147712250752
14.9724375 -1.020167991712373 0.0031557470445743308
14.9735859375 -1.034664941078196 0.014808825310407281
14.974734375 -1.0402032453889432 0.0032527752137095356
14.9758828125 -1.0390573523982851 -0.013166732533424985
14.97703125 -1.0560653117014251 0.014753849891456228
14.9781796875 -1.0729484303632382 0.02443804153942264
14.979328125 -1.0713636788331269 0.014638961821619167
14.9804765625 -1.0689376553891434 0.01774028888581103
14.981625 -1.0694038864778617 0.03256424757967946
14.9827734375 -1.0854382531771662 0.026050312601278214
14.983921875 -1.0720890344902387 0.03473316489144618
14.9850703125 -1.0740786733481313 0.04273098452698154
14.98621875 -1.0837518260675523 0.056644195494811145
14.9873671875 -1.0690632453464062 0.02122331066959393
14.988515625 -1.0720855559528097 0.045813143892576624
14.9896640625 -1.0691455956605977 0.038390125581233336
14.9908125 -1.0659354766949138 0.025390795427679302
14.9919609375 -1.083974014702055 0.03450159098559302
14.993109375 -1.0970456332165412 0.049279262784520994
14.9942578125 -1.0947304673720901 0.035081851057007896
14.99540625 -1.0744006868804588 0.03224497557074757
14.9965546875 -1.0991670735746983 0.024616609664161904
14.997703125 -1.1108560991521041 0.05984234363333096
14.9988515625 -1.100752604591912 0.0331848189844941
15.0 -1.1036558444721234 0.036941607219436845
