! Created with skrf 1.8.0 (http://scikit-rf.org).
# GHz S RI R 50.0 
!freq ReS11 ImS11
0.3 -0.9609239592401069 0.20437758950893326
0.3011484375 -0.9597228982232064 0.20756534297257967
0.302296875 -0.9594109796157019 0.2100047588112227
0.3034453125 -0.9601508461551607 0.2111705127003225
0.30459375 -0.9608265479404376 0.2129803029916147
0.3057421875 -0.9608285253259752 0.21259655605954791
0.306890625 -0.9613374724866184 0.21421119165975505
0.3080390625 -0.9626643318468302 0.21448985744306803
0.3091875 -0.9623962427611699 0.2133664368614651
0.3103359375 -0.9620704810818526 0.21492738772725892
0.311484375 -0.9610093440832346 0.2156654563842454
0.3126328125 -0.9617262922355578 0.21566739011100522
0.31378125 -0.9625328595665201 0.21643705906202138
0.3149296875 -0.961708180343843 0.21783561587126143
0.316078125 -0.9620928299021658 0.21885131135406755
0.3172265625 -0.9615915116146019 0.2184211780988772
0.318375 -0.9620772079501281 0.2182569549735137
0.3195234375 -0.9609339512240812 0.21959522044717397
0.320671875 -0.9611068138072507 0.2202248788848875
0.3218203125 -0.9605942448820574 0.2235781362595447
0.32296875 -0.9624593552197116 0.2239027753301434
0.3241171875 -0.960242732768924 0.22204428749628835
0.325265625 -0.9604713774942022 0.22313916183779708
0.3264140625 -0.9619295052311857 0.2240916590758945
0.3275625 -0.9619209396004818 0.2230964168105457
0.3287109375 -0.9614547028107223 0.22532253887359377
0.329859375 -0.9608405508824615 0.23030714903008362
0.3310078125 -0.9629402040673902 0.23000837165986945
0.33215625 -0.9577987135970869 0.22703377905487473
0.3333046875 -0.9595783280106346 0.226475992792257
0.334453125 -0.9606284869392191 0.22762006418016126
0.3356015625 -0.9591994382403655 0.2303342276796047
0.33675 -0.9601466298931796 0.22988269494154845
0.3378984375 -0.9603703630162506 0.23307446335536847
0.339046875 -0.9586872654182588 0.2337525559040709
0.3401953125 -0.9590242480532636 0.23481430938827452
0.34134375 -0.9597134357437813 0.23409765672417143
0.3424921875 -0.9572652777812707 0.23469512380972915
0.343640625 -0.9557746811130128 0.23808800743490924
0.3447890625 -0.9554867995693369 0.23700037779068667
0.3459375 -0.9591605305337954 0.23401620347233654
0.3470859375 -0.9574468478236797 0.2370742509763925
0.348234375 -0.9588807859253631 0.23626083934318126
0.3493828125 -0.9563493169827905 0.23840878279249855
0.35053125 -0.9599030397549317 0.24063205168308194
0.3516796875 -0.9571396156912843 0.2420364996571489
0.352828125 -0.9543857328528145 0.24265059742022468
0.3539765625 -0.956224622854806 0.24314800674837617
0.355125 -0.9575030710959479 0.24182557485189649
0.3562734375 -0.9561446542542607 0.24390316349754695
0.357421875 -0.9566546106183152 0.24578274720921156
0.3585703125 -0.9563100121048419 0.24745067076223098
0.35971875 -0.9555327838647893 0.24747658813648737
0.3608671875 -0.954482926814495 0.24882809950279783
0.362015625 -0.9541625850246748 0.25024409392347324
0.3631640625 -0.9532683324454325 0.25056827152927486
0.3643125 -0.9538300992474595 0.252175124677289
0.3654609375 -0.953224385650004 0.2526766500775207
0.366609375 -0.954428353332754 0.25343667557303334
0.3677578125 -0.9539298657170004 0.2550409473915173
0.36890625 -0.9532909841885955 0.2558361652678223
0.3700546875 -0.9523435648537228 0.25659425900167554
0.371203125 -0.9527913260785981 0.25876016510660627
0.3723515625 -0.9521540507655979 0.2584077491219956
0.3735 -0.9528530390162414 0.2604859790744184
0.3746484375 -0.951719964594886 0.2605274440526212
0.375796875 -0.9517920461553553 0.2621275802719866
0.3769453125 -0.9510461548124352 0.26320906298320557
0.37809375 -0.9515929979750225 0.26463663673002247
0.3792421875 -0.9506736481096347 0.2648907872322449
0.380390625 -0.9505409276183803 0.2669320046388852
0.3815390625 -0.950454611319929 0.26799186202937997
0.3826875 -0.9505301811750608 0.26902240891361684
0.3838359375 -0.9509637658525288 0.2702737021860917
0.384984375 -0.9512879891193107 0.27040488906161664
0.3861328125 -0.9509924963754537 0.27126147354920055
0.38728125 -0.9505162869512398 0.27222310943265543
0.3884296875 -0.950679353347672 0.2730824387639808
0.389578125 -0.9502295724487283 0.2738507895308076
0.3907265625 -0.9497671926283705 0.2753395989273541
0.391875 -0.9491356968320197 0.2767833620587094
0.3930234375 -0.949172502266476 0.2765394366266962
0.394171875 -0.94915757669825 0.27727805060509625
0.3953203125 -0.9489930018726145 0.27875360626171264
0.39646875 -0.9488707546214251 0.27980365521581296
0.3976171875 -0.9486384357936146 0.28075617629265603
0.398765625 -0.9484717308894816 0.2815270639283239
0.3999140625 -0.9483495072520726 0.2823194124897093
0.4010625 -0.9484697270545857 0.2833864887849232
0.4022109375 -0.9483493766654671 0.2846813644082617
0.403359375 -0.9480998102042886 0.2849866466774962
0.4045078125 -0.9481231380693846 0.2848158511303472
0.40565625 -0.9470295802785186 0.28502423252462694
0.4068046875 -0.9469233496729517 0.28628006546574203
0.407953125 -0.9464520764501095 0.28681699165604724
0.4091015625 -0.9463226610506578 0.28842801200922563
0.41025 -0.9451794027201921 0.2890552614183312
0.4113984375 -0.9454523960439 0.28946383994584335
0.412546875 -0.9451770021958288 0.2903587824448744
0.4136953125 -0.9453342937051745 0.29054285579187517
0.41484375 -0.9447209609321545 0.29189543184397965
0.4159921875 -0.9446810567220161 0.2931864504907157
0.417140625 -0.9440503954459258 0.2941044388366715
0.4182890625 -0.9441819807157936 0.2944540685929919
0.4194375 -0.944485040081296 0.2955288940775005
0.4205859375 -0.9437886366266683 0.29689586276928803
0.421734375 -0.9428142777039011 0.2972477863710352
0.4228828125 -0.9436432966196588 0.29802173895231526
0.42403125 -0.942977683617463 0.2992618485484156
0.4251796875 -0.9429231532879196 0.3000843795426315
0.426328125 -0.9428715576671733 0.30154189152869326
0.4274765625 -0.9424325131227123 0.30242221605991754
0.428625 -0.9409684305362385 0.30140586462589336
0.4297734375 -0.9425311027593415 0.3033762184740577
0.430921875 -0.9415828444057965 0.3044270221916676
0.4320703125 -0.9402114131073461 0.3040440902115282
0.43321875 -0.9409987042616215 0.305917511248501
0.4343671875 -0.9398709232870683 0.30478525997549105
0.435515625 -0.9411680533057052 0.3073825477167025
0.4366640625 -0.940233378716165 0.3083428751905351
0.4378125 -0.9388372409543941 0.30872800064502876
0.4389609375 -0.9394651485200974 0.3091743760551141
0.440109375 -0.9395385281486239 0.31155418822577285
0.4412578125 -0.9384502640439107 0.31061744310129036
0.44240625 -0.9379424285846724 0.3116920390931948
0.4435546875 -0.9378402287112576 0.3132364823882
0.444703125 -0.9386087008037571 0.31299179538033467
0.4458515625 -0.9377402826471202 0.3150601999750886
0.447 -0.937915955104333 0.3162441286996513
0.4481484375 -0.9359901887116244 0.3133728498208598
0.449296875 -0.9362475862151168 0.3170119995736589
0.4504453125 -0.9362375846133523 0.3165440747006174
0.45159375 -0.9359012796762292 0.31827139347591815
0.4527421875 -0.9353605708976339 0.3182484578756591
0.453890625 -0.9366185229858622 0.32012881042112873
0.4550390625 -0.9358438976500032 0.3194964957985613
0.4561875 -0.9354804235328018 0.3206294566578718
0.4573359375 -0.9351441583807927 0.3210858411457474
0.458484375 -0.9357263444033391 0.32230324820805245
0.4596328125 -0.9356987998345567 0.321755854962788
0.46078125 -0.9350221363962444 0.3238125678755739
0.4619296875 -0.9343831362394184 0.3238068412872993
0.463078125 -0.9346261231541807 0.32457605986458277
0.4642265625 -0.9345200059006717 0.3247309519939029
0.465375 -0.9339817349502302 0.32568899883962826
0.4665234375 -0.9345127223014063 0.3277310096509637
0.467671875 -0.9327597749705718 0.3268842252526132
0.4688203125 -0.9336236800510204 0.3287308793908439
0.46996875 -0.9332158163155228 0.32957992814782905
0.4711171875 -0.9326023307726813 0.33034999615664545
0.472265625 -0.9327154857564162 0.331080615679048
0.4734140625 -0.9317277734308245 0.3317839681282845
0.4745625 -0.9300303353628645 0.3334952480955298
0.4757109375 -0.9320776446972564 0.3326538997906734
0.476859375 -0.9319350071743103 0.3336175345224114
0.4780078125 -0.9318959006999127 0.33383236241324477
0.47915625 -0.9314870909859707 0.3352819333298729
0.4803046875 -0.9308813704730945 0.3362239411928351
0.481453125 -0.9304924021078866 0.3366014067602314
0.4826015625 -0.9299718519798704 0.3381833776747851
0.48375 -0.9295446271189616 0.3386792615906461
0.4848984375 -0.9290946894808955 0.3387580907968205
0.486046875 -0.929329954883729 0.3396441044801676
0.4871953125 -0.9295966595591767 0.3404035038069488
0.48834375 -0.9287498917408048 0.340053801097616
0.4894921875 -0.9285102024594265 0.3405391470941401
0.490640625 -0.9277548451707491 0.3410439093781395
0.4917890625 -0.9273462859075121 0.34160001591519473
0.4929375 -0.9265553014277585 0.3422049483229692
0.4940859375 -0.926040383169475 0.3431632955361176
0.495234375 -0.9253874111977987 0.34399098711372933
0.4963828125 -0.9247032403995428 0.3450371245904088
0.49753125 -0.9244767812455598 0.34646150806940806
0.4986796875 -0.9237802383380058 0.34724081361211845
0.499828125 -0.9236784892628894 0.34903986742344123
0.5009765625 -0.923286952121808 0.3495826724240483
0.502125 -0.922787561812821 0.3506884356830108
0.5032734375 -0.9221615466361699 0.35166982028475297
0.504421875 -0.9229194113691666 0.352367471505234
0.5055703125 -0.922384456765377 0.3535034072429117
0.50671875 -0.9222371508280462 0.3553309258982303
0.5078671875 -0.9214777128281333 0.3553303793280614
0.509015625 -0.9213482124986915 0.3566042859218959
0.5101640625 -0.9213906330790567 0.357639135232122
0.5113125 -0.921637164973152 0.3586685607885275
0.5124609375 -0.9214791742294616 0.35940251809905766
0.513609375 -0.9210780260338087 0.3602364966292883
0.5147578125 -0.922037073874332 0.3608466436879998
0.51590625 -0.9199735431924235 0.36112048112158157
0.5170546875 -0.9198115307406399 0.3623712107414882
0.518203125 -0.9194564532869282 0.3631573991432472
0.5193515625 -0.919672941073846 0.36402400632599474
0.5205 -0.9180949205397428 0.3642724293101352
0.5216484375 -0.9182867673244347 0.36577912260557655
0.522796875 -0.9184811574207442 0.36651767416502845
0.5239453125 -0.9178715836677827 0.36804058475129353
0.52509375 -0.9182428539071212 0.3688009960114308
0.5262421875 -0.9178417982538488 0.36925913730252724
0.527390625 -0.9173774901842536 0.371042510187852
0.5285390625 -0.9165064814360468 0.3715458252745909
0.5296875 -0.9169711874435799 0.37207569454600575
0.5308359375 -0.9165500068940193 0.37318625746493417
0.531984375 -0.9161302232193003 0.3743662448200358
0.5331328125 -0.9159846522934116 0.37487966347217927
0.53428125 -0.9160016213965636 0.37607606981514785
0.5354296875 -0.9158932699017714 0.37676903099732306
0.536578125 -0.915873282214781 0.3781450008560352
0.5377265625 -0.9155461554103558 0.3792809728000489
0.538875 -0.9151176514196292 0.37999526317652044
0.5400234375 -0.9149392471176733 0.38065539722280367
0.541171875 -0.914640644961722 0.38180803782329886
0.5423203125 -0.913784563976049 0.3827758465742586
0.54346875 -0.9138908820911362 0.382969949880251
0.5446171875 -0.913607442251894 0.38454208483678226
0.545765625 -0.9136725407305474 0.3849432570045901
0.5469140625 -0.9129859436019088 0.38539845355670277
0.5480625 -0.9128821861186014 0.3859272164203374
0.5492109375 -0.9121680645093455 0.3875538346521282
0.550359375 -0.9118854261189628 0.3882996988467035
0.5515078125 -0.9115488776536158 0.38878087064370553
0.55265625 -0.9112705388140329 0.38965142828408683
0.5538046875 -0.9108223809195988 0.3902263307309838
0.554953125 -0.9101017301393973 0.3919180316443144
0.5561015625 -0.9102588326689414 0.3923943822481013
0.55725 -0.909540485329511 0.39328734847184277
0.5583984375 -0.9094950174073752 0.3941525111840519
0.559546875 -0.9088026332741476 0.3954815449697924
0.5606953125 -0.9094660127888059 0.39629922321021704
0.56184375 -0.9088535677772275 0.3970039101029126
0.5629921875 -0.9071236014676416 0.39813929023947026
0.564140625 -0.9071390740450681 0.39883209740613457
0.5652890625 -0.9069659475084738 0.3994654536148919
0.5664375 -0.9062259300356381 0.4007212423516574
0.5675859375 -0.9058617083069777 0.40134851620487233
0.568734375 -0.9054469301763339 0.40203642154004704
0.5698828125 -0.9049901305476845 0.40202339580083574
0.57103125 -0.9047189853049409 0.40393928660309847
0.5721796875 -0.9044122790522713 0.4045890018710562
0.573328125 -0.9037636726983442 0.4052920869620896
0.5744765625 -0.9032006520995142 0.4064385395896838
0.575625 -0.9030302473213713 0.4073659893852941
0.5767734375 -0.9028364762641845 0.40897314820856334
0.577921875 -0.9028361278789871 0.40989163046773236
0.5790703125 -0.9016678769121241 0.41059825930255506
0.58021875 -0.9009994246553581 0.41150108369733535
0.5813671875 -0.9005835639418301 0.41250503539737804
0.582515625 -0.8999497611620172 0.41379978779490456
0.5836640625 -0.899796559738237 0.4145483375071761
0.5848125 -0.8985755635774251 0.4157329929008322
0.5859609375 -0.8990820214915616 0.41684498326915276
0.587109375 -0.8984198976621733 0.417322204034833
0.5882578125 -0.8985348724632942 0.41792990982736045
0.58940625 -0.8977587079652417 0.41860024081933384
0.5905546875 -0.8976068680491819 0.41984896996800447
0.591703125 -0.8975201351940918 0.42077418835737734
0.5928515625 -0.8964659784144835 0.42189508992819647
0.594 -0.8968543340943055 0.42207597764757543
0.5951484375 -0.8967828568054355 0.42302403716584436
0.596296875 -0.8960735430952879 0.4240639831408363
0.5974453125 -0.8956639598186567 0.42443277279246777
0.59859375 -0.8963867436883821 0.42566987315078764
0.5997421875 -0.8957348457751502 0.42645168427073554
0.600890625 -0.8953158744893354 0.42725653217445136
0.6020390625 -0.8951063444697309 0.4284195687034839
0.6031875 -0.8945152369679003 0.4294658539044752
0.6043359375 -0.8945306191815575 0.42991203685629187
0.605484375 -0.8945106178342362 0.43080058910516295
0.6066328125 -0.8945282450149354 0.43163407102161144
0.60778125 -0.8944329531138129 0.432242632327174
0.6089296875 -0.8942501544672328 0.4318731955199474
0.610078125 -0.8940041393613578 0.4322717624923626
0.6112265625 -0.8934724060825169 0.43294799389436517
0.612375 -0.8927644684256263 0.4339051351054796
0.6135234375 -0.8921768340845764 0.4344194510724151
0.614671875 -0.8913194275454093 0.4353728278458838
0.6158203125 -0.8904608278327852 0.436203901705853
0.61696875 -0.8902553050457455 0.43701783042719716
0.6181171875 -0.8903556484261115 0.43758984935315653
0.619265625 -0.8901030216264222 0.4384929634696803
0.6204140625 -0.8897574043688598 0.4393569826933317
0.6215625 -0.8895675389366516 0.4402753707816248
0.6227109375 -0.8892247259198174 0.44090850463246345
0.623859375 -0.8889248857055122 0.4415799579879466
0.6250078125 -0.889433425620471 0.4422923624083369
0.62615625 -0.8879779806951849 0.4424091393692529
0.6273046875 -0.8882538098706291 0.44234536356080933
0.628453125 -0.8880495403583841 0.44378073982354643
0.6296015625 -0.8871605250856338 0.44451995010937134
0.63075 -0.8866713516918071 0.4459281731165535
0.6318984375 -0.8867316992597828 0.44604875170576774
0.633046875 -0.8865235742435154 0.4466476955436226
0.6341953125 -0.8849412616523722 0.44790462832670197
0.63534375 -0.8839578084881737 0.4466386684304347
0.6364921875 -0.8856140258612246 0.44947899013692144
0.637640625 -0.8849228107828911 0.4494104117644973
0.6387890625 -0.8826864759806405 0.44821397493951093
0.6399375 -0.8833740052027131 0.4511920821669195
0.6410859375 -0.8830217599931247 0.451031368746381
0.642234375 -0.8809699388822512 0.4528020340447033
0.6433828125 -0.8815809918485347 0.45338169029630826
0.64453125 -0.8815713809100281 0.454198564405831
0.6456796875 -0.8801599739338646 0.45552277151764087
0.646828125 -0.8802273921754996 0.4549257928851208
0.6479765625 -0.8812532611289497 0.45565761258917115
0.649125 -0.8793517697447004 0.45878071867744113
0.6502734375 -0.8786002251450526 0.46020848313977153
0.651421875 -0.8795062247960618 0.45906739796077
0.6525703125 -0.8786052386024265 0.4590614086100794
0.65371875 -0.878897598687347 0.4603213729690285
0.6548671875 -0.8785989157026575 0.4606534783346511
0.656015625 -0.8777121147086209 0.4616059276358939
0.6571640625 -0.8778347398828499 0.4624388368922361
0.6583125 -0.8766698281832446 0.4627217747561011
0.6594609375 -0.8775667825057077 0.46427195853047654
0.660609375 -0.8760745549005353 0.4642695257001913
0.6617578125 -0.8758002852094082 0.4657468910456241
0.66290625 -0.8762262450521356 0.4665651431952774
0.6640546875 -0.8758416151368684 0.46753604378105096
0.665203125 -0.874736195885658 0.4683264439539212
0.6663515625 -0.8749472375775437 0.46887467645162606
0.6675 -0.8744594535632324 0.47066596843574215
0.6686484375 -0.8737159973429693 0.47012550022768007
0.669796875 -0.8735795559688497 0.4717078164240035
0.6709453125 -0.8736124257299739 0.47287707058506656
0.67209375 -0.8728033734316512 0.47333986978873416
0.6732421875 -0.8730884741656915 0.474332351133904
0.674390625 -0.8728659470130069 0.4754144560843927
0.6755390625 -0.8723594123992066 0.47594642796886866
0.6766875 -0.8718781692235924 0.4763755758572271
0.6778359375 -0.8712714453478582 0.4770235628327631
0.678984375 -0.870555977231474 0.4780137031302577
0.6801328125 -0.8703626225979992 0.47866961361544863
0.68128125 -0.8698530911998723 0.4796659445915255
0.6824296875 -0.8687242297230211 0.4808027352118493
0.683578125 -0.8695311910434413 0.4809088902468821
0.6847265625 -0.8687355843844473 0.4817618759958499
0.685875 -0.8680769475351884 0.4832269260680635
0.6870234375 -0.8682910414308813 0.48364707435914883
0.688171875 -0.8681042356065524 0.48423826454615326
0.6893203125 -0.8678541501411534 0.48475050344807624
0.69046875 -0.8674431119492544 0.48495512320511197
0.6916171875 -0.8664296893948534 0.4861003629113929
0.692765625 -0.8657273413149786 0.48647044165795106
0.6939140625 -0.8652705334491548 0.4877823933269932
0.6950625 -0.8646418937171556 0.4884218348912398
0.6962109375 -0.8645605865310115 0.489669882823835
0.697359375 -0.8643278507530908 0.49024635429027696
0.6985078125 -0.8636968568713969 0.49134264614851364
0.69965625 -0.8632821364977689 0.4922916257434972
0.7008046875 -0.8627620754787205 0.4928335056135704
0.701953125 -0.8619950121470312 0.49316312592167466
0.7031015625 -0.8620823535693621 0.4943921621278724
0.70425 -0.8614088954555066 0.4952994400168365
0.7053984375 -0.8608344441685525 0.49543043315729896
0.706546875 -0.8603708987515674 0.4969970704449276
0.7076953125 -0.8600407377012759 0.4985639563255333
0.70884375 -0.8597271052135694 0.49860308857139823
0.7099921875 -0.8592152138059608 0.4994358889532776
0.711140625 -0.8584724582913466 0.5006314809408995
0.7122890625 -0.8576778026895384 0.5010529070285641
0.7134375 -0.8574212991874967 0.503207204004777
0.7145859375 -0.8569914249055893 0.5030302672359769
0.715734375 -0.8564789578681556 0.5041844978644974
0.7168828125 -0.8558509225264236 0.5046455547718536
0.71803125 -0.8551991337774312 0.5060351594174602
0.7191796875 -0.854901584593237 0.5060466983350194
0.720328125 -0.8541828869053116 0.5075437307303287
0.7214765625 -0.8532929789800419 0.5082372587879267
0.722625 -0.8532246711861539 0.5093055570219942
0.7237734375 -0.8525168531645384 0.5101538913569739
0.724921875 -0.851867559935792 0.5114094246085015
0.7260703125 -0.8513943785407401 0.5117316807720735
0.72721875 -0.8508473979499689 0.51288218572218
0.7283671875 -0.8504376581174833 0.514735378682313
0.729515625 -0.8499181786259705 0.5146822083540921
0.7306640625 -0.8494820356914571 0.5158090526940717
0.7318125 -0.8487665345443777 0.5167862174411131
0.7329609375 -0.8483532656949745 0.5174493311510133
0.734109375 -0.8474156649535712 0.5187440601878557
0.7352578125 -0.847354543988817 0.5191891954881875
0.73640625 -0.8468934283173424 0.5199365622739383
0.7375546875 -0.8461958023880596 0.520759211417828
0.738703125 -0.8459911162447904 0.5219060202735417
0.7398515625 -0.8451756064804573 0.5227839656747995
0.741 -0.8447475419873519 0.5236341814993556
0.7421484375 -0.844313724353693 0.5245390547597168
0.743296875 -0.8437757599443134 0.5253332535972469
0.7444453125 -0.8432409714399624 0.5263114575699241
0.74559375 -0.8427355194986583 0.5274446588075153
0.7467421875 -0.8426796608369738 0.5281333888282642
0.747890625 -0.8420972206871522 0.5285925892539435
0.7490390625 -0.8415374606347841 0.5291902397724697
0.7501875 -0.8409322444014782 0.530229027881107
0.7513359375 -0.8405505505504085 0.5312831141298469
0.752484375 -0.8396563332104835 0.5321242581520905
0.7536328125 -0.8389395214255968 0.5328135811364281
0.75478125 -0.8385148584542059 0.5336582784830859
0.7559296875 -0.837974380057356 0.5347815900198193
0.757078125 -0.8374385421669159 0.5351101164139649
0.7582265625 -0.8372789353962289 0.5360284639642371
0.759375 -0.8367654337283852 0.5368361793280261
0.7605234375 -0.8366422791110908 0.5376675025735775
0.761671875 -0.835526908536353 0.5383960675720292
0.7628203125 -0.8353049077025607 0.5389229049691562
0.76396875 -0.8351177939445198 0.5401063555412031
0.7651171875 -0.8346161764072695 0.5405670853120693
0.766265625 -0.8335635003511342 0.5417225163385785
0.7674140625 -0.8329927311634617 0.5419666804499422
0.7685625 -0.8323888253402084 0.542839267304803
0.7697109375 -0.8320821812924091 0.5438146313391352
0.770859375 -0.8316212211112767 0.5440783487440308
0.7720078125 -0.8314787407699543 0.5453755809239436
0.77315625 -0.8313025615866685 0.5463797713361402
0.7743046875 -0.8299947032842527 0.547438415240757
0.775453125 -0.8299358617336645 0.5478358830083465
0.7766015625 -0.8296240168799315 0.5479687348455148
0.77775 -0.8299513604748107 0.5491594051066677
0.7788984375 -0.8283428976302444 0.5502679741969407
0.780046875 -0.8289965086848079 0.5517561848493217
0.7811953125 -0.8283623379211755 0.5521595388758274
0.78234375 -0.8275284903095845 0.5529443202567516
0.7834921875 -0.8270906515919787 0.5535916029789829
0.784640625 -0.8267282660863899 0.553921624481462
0.7857890625 -0.8262793330931368 0.5552687798868249
0.7869375 -0.825501252538097 0.5553567658795933
0.7880859375 -0.825130795616876 0.5565758719661579
0.789234375 -0.8245797951435678 0.5567775090983518
0.7903828125 -0.8241328138226548 0.5574960479262403
0.79153125 -0.8239537383392593 0.5581018574111027
0.7926796875 -0.8235788052841557 0.5583827697277561
0.793828125 -0.8224965096073673 0.5595342679574579
0.7949765625 -0.8223228475544606 0.5598718499198039
0.796125 -0.8228101875512902 0.5603605193795697
0.7972734375 -0.821943365447874 0.5620506510628047
0.798421875 -0.8209927052361506 0.5623615282938443
0.7995703125 -0.8206737464002546 0.5636432757124095
0.80071875 -0.819976443850899 0.5642862973437129
0.8018671875 -0.8197236530772185 0.5649890893053494
0.803015625 -0.8192655358559037 0.5655700805319672
0.8041640625 -0.8186383646517624 0.5664395971539946
0.8053125 -0.8181790023650386 0.5669469488652072
0.8064609375 -0.8174135023740119 0.5677908641776874
0.807609375 -0.8168528436815488 0.5682728506845056
0.8087578125 -0.816479638533689 0.5692330098913225
0.80990625 -0.8161190622899815 0.5703234596913855
0.8110546875 -0.8160865023022685 0.5709779861727393
0.812203125 -0.8159634629768499 0.5714888589247777
0.8133515625 -0.8157192473131709 0.5716217885371626
0.8145 -0.8150213559471864 0.5720792329856135
0.8156484375 -0.8143334395235017 0.5729400074809954
0.816796875 -0.8140585139621027 0.5737442947153648
0.8179453125 -0.8138181674335835 0.5744116339283813
0.81909375 -0.8129511898163212 0.5746636724756824
0.8202421875 -0.8129796145435753 0.5761278743821199
0.821390625 -0.8128417174907562 0.5765968526749472
0.8225390625 -0.8120453460772806 0.577127720499188
0.8236875 -0.8121950375929057 0.5776511907681963
0.8248359375 -0.81160212243329 0.5781554568301082
0.825984375 -0.8103918526822096 0.5788488777286728
0.8271328125 -0.8093314129824349 0.5791486745644596
0.82828125 -0.8087890854889106 0.5802191945937989
0.8294296875 -0.8103110705486377 0.5811979615853438
0.830578125 -0.8090673831806194 0.5824504017082357
0.8317265625 -0.8071965165517971 0.5821443976961252
0.832875 -0.8078150384372509 0.5831395471423289
0.8340234375 -0.8073276739058115 0.5828920549682786
0.835171875 -0.8058436346548785 0.5838959697238875
0.8363203125 -0.8070518054192668 0.585059342458939
0.83746875 -0.8059212543658482 0.5857905232990379
0.8386171875 -0.804744800762393 0.5867512197872481
0.839765625 -0.8040628302254079 0.5871011840507392
0.8409140625 -0.8039319196292887 0.5885890091786459
0.8420625 -0.8041808489561486 0.5881673057301047
0.8432109375 -0.8028122496658108 0.5882349104283455
0.844359375 -0.8029412910665762 0.590205292309933
0.8455078125 -0.8024531530628134 0.5909275299981643
0.84665625 -0.8019856352751249 0.591719455886861
0.8478046875 -0.8010118326506065 0.5914089276302449
0.848953125 -0.800751515001845 0.5923615040026298
0.8501015625 -0.7987344524782828 0.5942028595170489
0.85125 -0.7985499196611481 0.5941130067505807
0.8523984375 -0.798437277668089 0.5952817991235301
0.853546875 -0.7974700611866932 0.5955296912576369
0.8546953125 -0.7981864095926836 0.5975795667829303
0.85584375 -0.798229467255755 0.5980235363480605
0.8569921875 -0.7973439210701347 0.5990231418383954
0.858140625 -0.7972501534905239 0.6013514169319445
0.8592890625 -0.7957579857721857 0.6006240054305061
0.8604375 -0.7953573965542873 0.6013163557786265
0.8615859375 -0.794086064064931 0.6009583553537542
0.862734375 -0.7941297785989169 0.6028875502113815
0.8638828125 -0.7937981531160608 0.6030529392113828
0.86503125 -0.7932474167139955 0.6040942262135887
0.8661796875 -0.7921688401908457 0.6052194147268857
0.867328125 -0.7911965751018191 0.6061258875514851
0.8684765625 -0.7910862299691408 0.6073038730998589
0.869625 -0.7907938880951622 0.6084395118015393
0.8707734375 -0.7901081308155692 0.6087638338198197
0.871921875 -0.7891479422277904 0.6086888753308177
0.8730703125 -0.7891999703132271 0.610128795264797
0.87421875 -0.788353053178844 0.6104416050920186
0.8753671875 -0.7873143933598256 0.6118653193946867
0.876515625 -0.7873243551988123 0.6120957115877139
0.8776640625 -0.7867861335472273 0.6128535240979367
0.8788125 -0.7865785101963885 0.6136885854066858
0.8799609375 -0.785764929518293 0.6144514706550352
0.881109375 -0.785111055100243 0.6149653971614225
0.8822578125 -0.7846262966552718 0.6162936740262687
0.88340625 -0.7839505549879382 0.6171259077284105
0.8845546875 -0.7837207225097516 0.6179377574421768
0.885703125 -0.7833035101842802 0.6190906251862511
0.8868515625 -0.7824826079215488 0.619832781721002
0.888 -0.7827040522477171 0.6203777899828474
0.8891484375 -0.7821356094881791 0.6210444979080045
0.890296875 -0.7813064318836286 0.6215689103333958
0.8914453125 -0.780771129692816 0.6220177443011624
0.89259375 -0.7803745631997739 0.6223824147876613
0.8937421875 -0.7796220995544056 0.6230251101464582
0.894890625 -0.7791269164080759 0.6242146593014573
0.8960390625 -0.7787175103748857 0.6248943947752499
0.8971875 -0.7780145313029967 0.6256482449473433
0.8983359375 -0.7772241137157859 0.6264766408680446
0.899484375 -0.7763717578592548 0.6267529649974923
0.9006328125 -0.7757486322707995 0.6273429878922328
0.90178125 -0.7751365011063913 0.6284019458920019
0.9029296875 -0.7747339593935084 0.62931818963993
0.904078125 -0.7734083725308667 0.6294123018129574
0.9052265625 -0.7730311209730518 0.6307952887475814
0.906375 -0.7726780406151688 0.631009924149089
0.9075234375 -0.7714617142184901 0.6316837547869755
0.908671875 -0.7705058436335716 0.6322879596540936
0.9098203125 -0.7698783916809322 0.6329732860552342
0.91096875 -0.76972975046101 0.6336118169184236
0.9121171875 -0.7688319608665661 0.6340451151616305
0.913265625 -0.7681887006367352 0.6349557891927717
0.9144140625 -0.7671805068631217 0.6359077271070942
0.9155625 -0.7669481884855682 0.6365682527934233
0.9167109375 -0.7662705487135458 0.6372265747260921
0.917859375 -0.7652736741209272 0.6382631056349908
0.9190078125 -0.7643351264908087 0.6393872406944516
0.92015625 -0.7640578014780446 0.6397269560305463
0.9213046875 -0.7638969442186156 0.6409949827810588
0.922453125 -0.7627965428463035 0.6416810508671071
0.9236015625 -0.7619000308549166 0.6419114057185922
0.92475 -0.7611007240594005 0.6427905959059397
0.9258984375 -0.7607479177700711 0.6431918429063169
0.927046875 -0.7595466732552674 0.6444885632086779
0.9281953125 -0.7585245955769425 0.6453743902561536
0.92934375 -0.7582136014538765 0.6459770692821107
0.9304921875 -0.7577406828491635 0.6464929467424775
0.931640625 -0.7568359474140087 0.6472821049107979
0.9327890625 -0.7563804615413551 0.6480872746120966
0.9339375 -0.7557439739751466 0.6488758919844623
0.9350859375 -0.7550392781383661 0.6493780611173255
0.936234375 -0.7544004792911551 0.649546611253496
0.9373828125 -0.7534602181406899 0.6504734821111254
0.93853125 -0.7524863885793714 0.6522523185328013
0.9396796875 -0.7518012928447881 0.6527816780007507
0.940828125 -0.7512370264052745 0.653512755029532
0.9419765625 -0.7504191073378021 0.653945619366992
0.943125 -0.7495412239802182 0.654833627228779
0.9442734375 -0.7490319823221336 0.6557268478941438
0.945421875 -0.7485401348794579 0.6569019035565886
0.9465703125 -0.7477330305561732 0.6581622398930158
0.94771875 -0.747908693002733 0.6582489432507899
0.9488671875 -0.747520424159211 0.6599224941798468
0.950015625 -0.7464295715897267 0.660176398171346
0.9511640625 -0.7465895508936032 0.6607608380005264
0.9523125 -0.7465518908952951 0.661691423654204
0.9534609375 -0.7461956086017028 0.6625045109185348
0.954609375 -0.7456034073672055 0.6632934933949031
0.9557578125 -0.744901382860431 0.6641754227320493
0.95690625 -0.7444112408930583 0.6648913196172438
0.9580546875 -0.7436794920730806 0.6655220417129035
0.959203125 -0.743169227317319 0.665411539172573
0.9603515625 -0.7431601153543771 0.6665589372626086
0.9615 -0.7425938707808585 0.6663543197935464
0.9626484375 -0.7415367622787239 0.6673634512499863
0.963796875 -0.7418480780800938 0.668914790468151
0.9649453125 -0.7417859175001804 0.6684253667711149
0.96609375 -0.741535527731648 0.6701974442226447
0.9672421875 -0.7408462881532891 0.6705504460447964
0.968390625 -0.7390137496674025 0.6718238691491363
0.9695390625 -0.7395722998683772 0.6714967206709062
0.9706875 -0.7379320564062724 0.6718404726910595
0.9718359375 -0.7377592956814865 0.6732584926351802
0.972984375 -0.7376496909932968 0.6735290808153758
0.9741328125 -0.7364032299497683 0.6738317926024138
0.97528125 -0.7364168632229153 0.6755229473803099
0.9764296875 -0.7364752222889883 0.6763429778946843
0.977578125 -0.7357113838845908 0.6759891189407353
0.9787265625 -0.7344257787644304 0.675785062936132
0.979875 -0.7337962719782385 0.6757374469273233
0.9810234375 -0.7342990821161839 0.6764372136146135
0.982171875 -0.73347051588619 0.6787404715583251
0.9833203125 -0.7319889698701887 0.6793200831567345
0.98446875 -0.7326333965142369 0.68029348681364
0.9856171875 -0.7324977610534443 0.6802354633441123
0.986765625 -0.731282530924606 0.6805554964780458
0.9879140625 -0.7307207280368314 0.6819492653850052
0.9890625 -0.7296004706216653 0.6824974208410737
0.9902109375 -0.729604186406959 0.6830596997930013
0.991359375 -0.7290427318819603 0.6830177233239887
0.9925078125 -0.7276520946834748 0.6837621014200541
0.99365625 -0.7266175732938355 0.6838822902223852
0.9948046875 -0.7263888093702815 0.6843740819255009
0.995953125 -0.7254529572492535 0.6854653189466475
0.9971015625 -0.7252511054560432 0.6862003256918213
0.99825 -0.724818459317195 0.686241879590727
0.9993984375 -0.7238210312813746 0.6870910967106156
1.000546875 -0.7233088766162992 0.6870455627379719
1.0016953125 -0.7229564823981661 0.6881520206398919
1.00284375 -0.722213282484192 0.688490857431253
1.0039921875 -0.7218234395320291 0.6893970257296268
1.005140625 -0.7213429614328127 0.6895757415786323
1.0062890625 -0.7197196888283548 0.6904318995437444
1.0074375 -0.7197528300645221 0.6905916169201993
1.0085859375 -0.7181763495321725 0.6912185932167635
1.009734375 -0.7177581467740355 0.6917270092427008
1.0108828125 -0.7161646411503604 0.692686325477006
1.01203125 -0.715696149202379 0.6934791573088476
1.0131796875 -0.7157100887698984 0.6942284657018936
1.014328125 -0.7146722346277297 0.6951497912240121
1.0154765625 -0.7141581591712782 0.6960343908009308
1.016625 -0.7139955707459436 0.6967602043067659
1.0177734375 -0.713454044026632 0.6979526600442526
1.018921875 -0.7139140433981236 0.6987263379645051
1.0200703125 -0.7134386746180591 0.6993572374317663
1.02121875 -0.7124085950985343 0.6991776370833346
1.0223671875 -0.7122467825057274 0.7001674874678722
1.023515625 -0.7119017328257178 0.7007793005432301
1.0246640625 -0.711807225688033 0.7020634274732896
1.0258125 -0.7104156385910958 0.702223719892105
1.0269609375 -0.7102189169093907 0.7027503691428107
1.028109375 -0.7096714959146342 0.7037567890878227
1.0292578125 -0.709494072282771 0.7048809826572692
1.03040625 -0.7087669014387946 0.7051117390782848
1.0315546875 -0.7076591480916057 0.705832254063598
1.032703125 -0.7073979475992764 0.7059064818934604
1.0338515625 -0.7070306655303571 0.7068148305197837
1.035 -0.7063532185353428 0.7074992965345268
1.0361484375 -0.7061905746323255 0.7082698868085309
1.037296875 -0.7047892743308491 0.7084156478899077
1.0384453125 -0.7040716275076029 0.7095212993619089
1.03959375 -0.7054221456464627 0.7104509060872056
1.0407421875 -0.7037242204638535 0.7105835198379662
1.041890625 -0.7033617710633514 0.7113652348081283
1.0430390625 -0.703040454669659 0.7118146726505674
1.0441875 -0.7016135860613909 0.7127134958410982
1.0453359375 -0.7008747666325961 0.7129650252465117
1.046484375 -0.7012625360018614 0.7132997047957851
1.0476328125 -0.6999646587254027 0.7143598908743185
1.04878125 -0.6991912636012498 0.7143551398341973
1.0499296875 -0.6982298647299153 0.7160913570482561
1.051078125 -0.6968611176473003 0.7158135214409929
1.0522265625 -0.6961052292279407 0.7166570840185196
1.053375 -0.6952532951748157 0.7186471634362642
1.0545234375 -0.6953892564593759 0.7182273781641775
1.055671875 -0.6944783846553921 0.7190139455802376
1.0568203125 -0.6936314288136975 0.718764709970022
1.05796875 -0.6937823814252263 0.719401012877184
1.0591171875 -0.6926219339994489 0.7209279178625515
1.060265625 -0.6916672791109618 0.7216359098980153
1.0614140625 -0.6922721700218252 0.7213364765190461
1.0625625 -0.6912691079991903 0.7222245619785075
1.0637109375 -0.689507178786585 0.7228761691612078
1.064859375 -0.6889858674212519 0.7239260699817516
1.0660078125 -0.688880722732083 0.7241159247229088
1.06715625 -0.6882337129355932 0.7249220801371523
1.0683046875 -0.6871353712568686 0.7257044303108013
1.069453125 -0.6860576368775154 0.725985861078808
1.0706015625 -0.6849641306307556 0.7258879631588937
1.07175 -0.6845289464553087 0.7263277920389379
1.0728984375 -0.6835661122121778 0.7271009005206583
1.074046875 -0.6830643136843211 0.727721279935688
1.0751953125 -0.6824379529661637 0.7291828591004562
1.07634375 -0.6814658313241548 0.7289970355195687
1.0774921875 -0.6809424386877769 0.7296913191895359
1.078640625 -0.6803578586561139 0.7302747473792045
1.0797890625 -0.6789477900308715 0.7312503931317191
1.0809375 -0.6782473321808384 0.7316231170608365
1.0820859375 -0.6774201660609461 0.7324346576760271
1.083234375 -0.6767253537967278 0.7337881162404615
1.0843828125 -0.6765032870483576 0.734208194581004
1.08553125 -0.6753879645961326 0.7346171682727682
1.0866796875 -0.6752054428358946 0.735712570587084
1.087828125 -0.6745508781543209 0.7361357602784474
1.0889765625 -0.67340052118014 0.7372624824164783
1.090125 -0.6721802113923392 0.7379128155110712
1.0912734375 -0.671644284322601 0.7390192966368013
1.092421875 -0.6714478731470764 0.7391687633860226
1.0935703125 -0.6713510703221537 0.7399618064849733
1.09471875 -0.6703062145132577 0.7409328836681583
1.0958671875 -0.6703995043002838 0.741433312711147
1.097015625 -0.6692016545593166 0.7419856909938413
1.0981640625 -0.6690561813371121 0.7425897163608275
1.0993125 -0.6682509329113686 0.7430879224820213
1.1004609375 -0.6677692640433476 0.7442586646861123
1.101609375 -0.6658236016846864 0.744834860960569
1.1027578125 -0.6652132168925446 0.7449303143834939
1.10390625 -0.6649366381356633 0.7465413733886838
1.1050546875 -0.6639023852813609 0.745969055185758
1.106203125 -0.6632928884092498 0.7470441290304607
1.1073515625 -0.6632114879659639 0.7481714250752814
1.1085 -0.6624063985350879 0.7484853388749615
1.1096484375 -0.6609264779173658 0.748697303409201
1.110796875 -0.6606640670109301 0.7501778614165667
1.1119453125 -0.6605808997599455 0.7503160745021248
1.11309375 -0.6595371848816509 0.7515274520153497
1.1142421875 -0.6593120723165962 0.7516541725699619
1.115390625 -0.6583428350497763 0.7519430279311509
1.1165390625 -0.6568493534575106 0.7530346040255514
1.1176875 -0.65716642528746 0.7538486711696493
1.1188359375 -0.6557432760952966 0.7542435218088462
1.119984375 -0.6561698965051868 0.7540957144873629
1.1211328125 -0.6551306631773883 0.7554121550324233
1.12228125 -0.6546229600019988 0.7546428727802397
1.1234296875 -0.653667223177742 0.7560555043921257
1.124578125 -0.6527444601157596 0.7573039509357015
1.1257265625 -0.652266216189647 0.7570501665190548
1.126875 -0.6520029240566503 0.7578414346500648
1.1280234375 -0.6513518030303619 0.7582086220544213
1.129171875 -0.6505051801071713 0.7586713130114704
1.1303203125 -0.6494663365692498 0.7595257557737846
1.13146875 -0.6497209918701927 0.75974141285609
1.1326171875 -0.6488920113880234 0.7604026108740277
1.133765625 -0.6478518598225167 0.7607671513596972
1.1349140625 -0.6473876458360471 0.7609950540586139
1.1360625 -0.6464519754472177 0.7618637401722741
1.1372109375 -0.645794809149901 0.7624667791387889
1.138359375 -0.6453240794393902 0.7627498870773195
1.1395078125 -0.6447562722474562 0.7633169148839429
1.14065625 -0.6440102244700059 0.7636571508221701
1.1418046875 -0.6432282860577849 0.7642730536476291
1.142953125 -0.6418927586829775 0.7646620822849338
1.1441015625 -0.6409230650729004 0.7650913371705016
1.14525 -0.6404082952008612 0.7662969648857298
1.1463984375 -0.6397681219019542 0.766567614324619
1.147546875 -0.6401460520077761 0.7671280967701826
1.1486953125 -0.6393271483195667 0.7682124035699587
1.14984375 -0.6397566268345624 0.7681615648793445
1.1509921875 -0.6379833700958468 0.7687033506745526
1.152140625 -0.6375443370648973 0.7696723335760822
1.1532890625 -0.6369465558679831 0.7700325634312497
1.1544375 -0.6360534298935888 0.7709939666069718
1.1555859375 -0.6372755443835858 0.7714913799831085
1.156734375 -0.6360745187307999 0.7723895339292473
1.1578828125 -0.6352290256955998 0.7729264890555911
1.15903125 -0.635022312990661 0.772822482900888
1.1601796875 -0.6341851577498896 0.7738148716554463
1.161328125 -0.6343206932798622 0.7740787636915588
1.1624765625 -0.6330841592885251 0.7750597431071562
1.163625 -0.6323425472950819 0.7758887940260125
1.1647734375 -0.631624238573937 0.7753916725504004
1.165921875 -0.6307950241702843 0.776249132986418
1.1670703125 -0.6313441483871479 0.7766348905819629
1.16821875 -0.6308424758272454 0.7765142385705521
1.1693671875 -0.6294189400103811 0.7761092832533288
1.170515625 -0.6295919713622709 0.7766095287828538
1.1716640625 -0.6282349722627321 0.778171709069235
1.1728125 -0.6280906216859339 0.7791639104787114
1.1739609375 -0.6267845166661772 0.7777678459216639
1.175109375 -0.6261917464134422 0.777891590127183
1.1762578125 -0.6252628267319315 0.779733008984687
1.17740625 -0.6235508155709684 0.7796385721609917
1.1785546875 -0.623263781924785 0.7795716969712424
1.179703125 -0.6235258624307773 0.7798329547286714
1.1808515625 -0.6217588289466507 0.7811107191203663
1.182 -0.6216055485824581 0.7825700100245239
1.1831484375 -0.6201070547270372 0.7816910434103388
1.184296875 -0.6195390857309941 0.7822439226940514
1.1854453125 -0.6206784460313695 0.7828182480199358
1.18659375 -0.6191681904854995 0.7837550826695454
1.1877421875 -0.6182394981274502 0.7849176784926697
1.188890625 -0.6182419695203661 0.7862530799121197
1.1900390625 -0.6167967184816758 0.7848599594962498
1.1911875 -0.615522720549657 0.7860608495701386
1.1923359375 -0.6147685476292271 0.7862551002918104
1.193484375 -0.6139582506091503 0.7866548544124079
1.1946328125 -0.6139086618098002 0.7877586142933912
1.19578125 -0.6130539715523204 0.7877452965392254
1.1969296875 -0.6120202982265138 0.788747200178429
1.198078125 -0.611839464912777 0.7886008533339225
1.1992265625 -0.610667757542183 0.7896408000879364
1.200375 -0.609683666594493 0.7897268373045887
1.2015234375 -0.6092291862783513 0.7903671257565141
1.202671875 -0.6091898494149511 0.7907593194526197
1.2038203125 -0.608719395308202 0.7902711191309224
1.20496875 -0.6067014907180985 0.7910455674577113
1.2061171875 -0.6054339868442414 0.790963351502888
1.207265625 -0.6042707842636651 0.7925167502074952
1.2084140625 -0.6027686238602372 0.7931042029290539
1.2095625 -0.6021796653977985 0.793616264518037
1.2107109375 -0.6013374152488749 0.7948544575672629
1.211859375 -0.6010825775175465 0.795242639221333
1.2130078125 -0.6003276457749738 0.7959841597871401
1.21415625 -0.599658417361249 0.796671089683047
1.2153046875 -0.5992412081838396 0.7975319558348208
1.216453125 -0.5984078360142406 0.7985035133410581
1.2176015625 -0.5975261959735552 0.7989467577211137
1.21875 -0.5974411708575529 0.7999927229015826
1.2198984375 -0.5960400565494127 0.8009500999410692
1.221046875 -0.5962448801194647 0.8013460289511137
1.2221953125 -0.5950735507295926 0.8017745869396447
1.22334375 -0.5945698840571438 0.8023677895620567
1.2244921875 -0.5936417260586243 0.8030370031677688
1.225640625 -0.5939617609505562 0.8042584118231895
1.2267890625 -0.5935941354839882 0.804807969553619
1.2279375 -0.593040713852535 0.8051951691911192
1.2290859375 -0.5928803441499193 0.8065666159505039
1.230234375 -0.5909551663754713 0.8074413985093826
1.2313828125 -0.5904931738868732 0.8078765706710549
1.23253125 -0.5909017846672191 0.8080698358086319
1.2336796875 -0.5892616374593153 0.8080600559403565
1.234828125 -0.5891412342855068 0.8096352422056383
1.2359765625 -0.5882706138460989 0.8106415257682269
1.237125 -0.58794063832073 0.8095215350855614
1.2382734375 -0.586319063306048 0.8098206845606124
1.239421875 -0.5861145434776917 0.8108679478706801
1.2405703125 -0.5860888253253629 0.8113059756516218
1.24171875 -0.585007057935385 0.8123501479801761
1.2428671875 -0.5839768271183096 0.8126748387559029
1.244015625 -0.583466101541681 0.8135107849143489
1.2451640625 -0.5826925765349156 0.8133915120225198
1.2463125 -0.5824187676343431 0.8138149320173907
1.2474609375 -0.5819091608090252 0.8150881565610123
1.248609375 -0.5808783469296162 0.8149103635375133
1.2497578125 -0.5803499044715135 0.8145474846124786
1.25090625 -0.580336215470181 0.8164021288737794
1.2520546875 -0.5792634642794482 0.8163876485693137
1.253203125 -0.5779535149416167 0.8168919272427323
1.2543515625 -0.5767953886495206 0.8166165467367985
1.2555 -0.576728919121759 0.8168904972524648
1.2566484375 -0.5759700524238629 0.8170151918749589
1.257796875 -0.5755973016933206 0.8178545488046566
1.2589453125 -0.574696485095119 0.8185832063309662
1.26009375 -0.5730026067637658 0.8184724065477972
1.2612421875 -0.5720642420224277 0.8184079694185545
1.262390625 -0.5720588969041946 0.8192484215473228
1.2635390625 -0.5707965639353159 0.8191114895095002
1.2646875 -0.5705885496814606 0.820439424432373
1.2658359375 -0.5695585606620983 0.8213319895993525
1.266984375 -0.5681329585056728 0.8221919939156874
1.2681328125 -0.5671553258429167 0.8215250132877077
1.26928125 -0.5669249109650778 0.8222891999725128
1.2704296875 -0.5658444725500824 0.8232752989351718
1.271578125 -0.5649912395551 0.8231436893223122
1.2727265625 -0.5642706776507885 0.8244693091931625
1.273875 -0.5632149205886583 0.8241567693467018
1.2750234375 -0.5632169995301507 0.824820126069745
1.276171875 -0.5616867904396807 0.8249717122826503
1.2773203125 -0.5600699755114619 0.8257705926438341
1.27846875 -0.5596788740751226 0.8255176106178612
1.2796171875 -0.5590617803148529 0.8267405966560718
1.280765625 -0.5581925590893907 0.8268058448926379
1.2819140625 -0.557476336164723 0.8270082822121761
1.2830625 -0.5557695196642891 0.8268208535627982
1.2842109375 -0.5552406967988897 0.827730211056454
1.285359375 -0.5544238591813057 0.8283608298560741
1.2865078125 -0.5541045893232672 0.8285020920554637
1.28765625 -0.5527718604872456 0.829733047564892
1.2888046875 -0.5518969926100551 0.8303781415092619
1.289953125 -0.5505783495791015 0.8316283603776126
1.2911015625 -0.549868985484123 0.8313268081925977
1.29225 -0.5498935237518587 0.8319912133440892
1.2933984375 -0.5494958934330176 0.8333316923522892
1.294546875 -0.5487173277124138 0.8334391978271449
1.2956953125 -0.5483237525093071 0.833495232954869
1.29684375 -0.546718790329512 0.8343157748293476
1.2979921875 -0.5467838681799134 0.8350348690103961
1.299140625 -0.546823794051075 0.8356994912839494
1.3002890625 -0.5452655880474664 0.8363720648701933
1.3014375 -0.5442941142515456 0.8370743008021361
1.3025859375 -0.545508132862526 0.8387139686967797
1.303734375 -0.5452791073251808 0.8386756569180428
1.3048828125 -0.5438622195505782 0.8392269781360058
1.30603125 -0.5427959578693875 0.8389720794688132
1.3071796875 -0.5420706080188814 0.8399456294714721
1.308328125 -0.5413801008150061 0.8407101064896232
1.3094765625 -0.5413418358298385 0.8409592781000823
1.310625 -0.5409422262833268 0.8414653170001607
1.3117734375 -0.5392579609098964 0.8414145763480507
1.312921875 -0.5383866141903786 0.84106203859963
1.3140703125 -0.5376721830183259 0.8410822882372305
1.31521875 -0.5382594325262667 0.8424119351612749
1.3163671875 -0.5373982265120365 0.841795808837615
1.317515625 -0.5368278726190919 0.843094698326054
1.3186640625 -0.5365260014015351 0.8435167803105036
1.3198125 -0.5348743293791416 0.8436676664703954
1.3209609375 -0.53493702280159 0.8450129207039541
1.322109375 -0.5350025666595173 0.844500977176653
1.3232578125 -0.5341812596957143 0.8456110709095035
1.32440625 -0.5332383066309123 0.846242276233695
1.3255546875 -0.5329849358756177 0.8467976044301766
1.326703125 -0.5320672674254587 0.846355759577971
1.3278515625 -0.5321132583398243 0.8462271112726047
1.329 -0.5319036559437416 0.8465735275344266
1.3301484375 -0.5306917080595874 0.8471036408124222
1.331296875 -0.5299435800825973 0.847345483108312
1.3324453125 -0.5293895961352781 0.8474137509563276
1.33359375 -0.5293947318153384 0.8474689065162668
1.3347421875 -0.527671873793662 0.8480529790593241
1.335890625 -0.5267492483018561 0.8482072736334583
1.3370390625 -0.5259448839167079 0.8481520309267288
1.3381875 -0.5248240339256369 0.8487292048555759
1.3393359375 -0.5241000892100771 0.849185898834198
1.340484375 -0.5235313408889348 0.8494281745115487
1.3416328125 -0.5229124726348027 0.8499192947247605
1.34278125 -0.5218046331745693 0.8497501248845509
1.3439296875 -0.5214801865001253 0.8502509306597771
1.345078125 -0.521168773753384 0.8503355338166552
1.3462265625 -0.5195295995017642 0.8504616477282498
1.347375 -0.518573865069232 0.8507347182067698
1.3485234375 -0.5174582187699608 0.8509292519868805
1.349671875 -0.5166832370946409 0.8508676767614141
1.3508203125 -0.5157828525817509 0.8515616440719145
1.35196875 -0.515274720688401 0.8527384075947271
1.3531171875 -0.5141924326303262 0.8526700422725702
1.354265625 -0.5130881523902014 0.8526050294773193
1.3554140625 -0.5126114401748769 0.8542897143339638
1.3565625 -0.511042764251681 0.8542948782182842
1.3577109375 -0.5115286725314272 0.8542302133639366
1.358859375 -0.5108866815914632 0.8554180526382629
1.3600078125 -0.5087467313721687 0.8549831318618475
1.36115625 -0.5088675955308111 0.8562828753582801
1.3623046875 -0.5067319407658855 0.8565001122690378
1.363453125 -0.5072806596110436 0.8560759419627781
1.3646015625 -0.5053036029685279 0.8572855066857834
1.36575 -0.5054104416972236 0.8571690983354424
1.3668984375 -0.5045261766273452 0.8584740708149246
1.368046875 -0.5040031030508434 0.8587798487914414
1.3691953125 -0.5032731969354419 0.8597095585165332
1.37034375 -0.502726655931209 0.8602521063665499
1.3714921875 -0.5011871734422516 0.8615391659257808
1.372640625 -0.5024452808960915 0.8619843114202967
1.3737890625 -0.5006253663725575 0.8626439229094214
1.3749375 -0.4999854407402524 0.8644290796315109
1.3760859375 -0.49954281034409015 0.8631392624676334
1.377234375 -0.49849184707863814 0.8633774213672363
1.3783828125 -0.4991408544995844 0.86440691356821
1.37953125 -0.4968163276613907 0.8653899509272285
1.3806796875 -0.4970824909749427 0.8647406966488969
1.381828125 -0.49585599010526205 0.8674046058671461
1.3829765625 -0.4966210560684203 0.8668067333599957
1.384125 -0.4947758091625653 0.8679706367932963
1.3852734375 -0.4940397215945269 0.8684847280476686
1.386421875 -0.49349824623261607 0.8674987253826987
1.3875703125 -0.4937792096210946 0.8682994597056267
1.38871875 -0.4934510830184705 0.8682314602886024
1.3898671875 -0.4929803524767049 0.8696338356578056
1.391015625 -0.4922562687855476 0.8698366173378
1.3921640625 -0.4909643998787068 0.8711849011276065
1.3933125 -0.4905177996294306 0.870593786917159
1.3944609375 -0.49000705389326893 0.8711537064188726
1.395609375 -0.4894737177735246 0.87192493946078
1.3967578125 -0.4887960868049535 0.8720225470187669
1.39790625 -0.4872605116666558 0.872986369959317
1.3990546875 -0.48759637066168915 0.8726837936498345
1.400203125 -0.48666018761878893 0.873090864032165
1.4013515625 -0.48656800586028104 0.873619603645934
1.4025 -0.48567684191531535 0.8738470150197085
1.4036484375 -0.48474294186340183 0.8741535860893379
1.404796875 -0.4843898934638082 0.8740464264076703
1.4059453125 -0.4833308653917252 0.8747862639229537
1.40709375 -0.4827710793231553 0.8743733215548658
1.4082421875 -0.4819255929628475 0.8749805060467132
1.409390625 -0.48106295705824775 0.8751499384069912
1.4105390625 -0.47976201472711844 0.8749694109691958
1.4116875 -0.4794530401542113 0.8752577678223392
1.4128359375 -0.47821428637815605 0.8754489907603196
1.413984375 -0.4775770159826942 0.8763628479367807
1.4151328125 -0.47708355482046727 0.8769700624930717
1.41628125 -0.47633567917677083 0.8768742267260746
1.4174296875 -0.4755587539764704 0.8774413323456978
1.418578125 -0.4748343072939803 0.8773255227320726
1.4197265625 -0.4737321966572132 0.8778590362650744
1.420875 -0.4732451162530044 0.8778076674018108
1.4220234375 -0.4720915385681454 0.8785015121069014
1.423171875 -0.47188142117834947 0.8788375044812177
1.4243203125 -0.4705787497287207 0.8790823094400906
1.42546875 -0.4696987308409693 0.8790537465934657
1.4266171875 -0.4687633007813764 0.8792112297848174
1.427765625 -0.46739148786396545 0.8801470020044699
1.4289140625 -0.46681608128447727 0.8804072518909996
1.4300625 -0.46556049589179443 0.8805621902104029
1.4312109375 -0.4647186463888284 0.8812210684023412
1.432359375 -0.46337098239221647 0.8814283176549268
1.4335078125 -0.4632024025231972 0.8824153966035995
1.43465625 -0.4622827079028547 0.8826397614429742
1.4358046875 -0.46113255752673626 0.8837280824218396
1.436953125 -0.4607144038512113 0.883548010081528
1.4381015625 -0.45961149466029744 0.8840836287401368
1.43925 -0.45829733527789207 0.8839901185601764
1.4403984375 -0.4581721256031681 0.8846334102155735
1.441546875 -0.4568604202776065 0.8852900219990596
1.4426953125 -0.4558563706837066 0.8858827563344761
1.44384375 -0.45512625139641444 0.885998821475257
1.4449921875 -0.45446309959275866 0.8859623229298821
1.446140625 -0.45387612534791666 0.8866982954954236
1.4472890625 -0.4527627098509627 0.8876192191733595
1.4484375 -0.45176057225554755 0.887855317215928
1.4495859375 -0.45081605187477514 0.8879250643446283
1.450734375 -0.45006230996317437 0.888770341472942
1.4518828125 -0.44917287415457374 0.8898136327844635
1.45303125 -0.44886540817674436 0.8899090954256933
1.4541796875 -0.44803636269362607 0.8904883291272533
1.455328125 -0.4476812846169756 0.8912740492537897
1.4564765625 -0.44710230027405773 0.8921085829799591
1.457625 -0.4465278313851292 0.8929224966232289
1.4587734375 -0.4457604947550936 0.8931317979067815
1.459921875 -0.44516780070292544 0.8935240586694917
1.4610703125 -0.4446099864665772 0.894195887137267
1.46221875 -0.4437921735068485 0.8944529221342323
1.4633671875 -0.4432889722790249 0.8948183133035629
1.464515625 -0.44306071139987446 0.8946562891452218
1.4656640625 -0.4420376802531478 0.8953238294977747
1.4668125 -0.4409207346939549 0.8956286555263491
1.4679609375 -0.4407117818144474 0.8958303504950074
1.469109375 -0.4394884654208976 0.8961181535293955
1.4702578125 -0.43898137128491765 0.8965671067426131
1.47140625 -0.4384853067014576 0.8970366966354161
1.4725546875 -0.43783127064859656 0.8972574887032372
1.473703125 -0.4367288342961524 0.8982962708506259
1.4748515625 -0.43638585796855983 0.8980505304940748
1.476 -0.4359168037436901 0.8985533676494201
1.4771484375 -0.4351390094887524 0.8991286545712175
1.478296875 -0.4343159312320208 0.8990207936826897
1.4794453125 -0.4339227784038464 0.8994317735570361
1.48059375 -0.4333284108297199 0.8996331481694222
1.4817421875 -0.4328279347480632 0.8992229849346904
1.482890625 -0.4320132054563026 0.899976775773247
1.4840390625 -0.43120938764276134 0.901176781559469
1.4851875 -0.4300892716990429 0.9001449682884375
1.4863359375 -0.4293836192603714 0.9006550763865093
1.487484375 -0.4291988037582436 0.9004010388521971
1.4886328125 -0.428404054533955 0.9020945382368266
1.48978125 -0.4276264216175361 0.9018731333389658
1.4909296875 -0.426548439823766 0.9017163901231767
1.492078125 -0.42688120424374754 0.9022709512017535
1.4932265625 -0.42597282125161173 0.9026853073203345
1.494375 -0.424602251102722 0.9013761016425682
1.4955234375 -0.4239391141178714 0.9023350548661951
1.496671875 -0.42375531501282165 0.9029629364912467
1.4978203125 -0.4235056998491674 0.9027497940252955
1.49896875 -0.422562897699872 0.9037117069393121
1.5001171875 -0.4216506540228394 0.9025510088319635
1.501265625 -0.42088996032001913 0.9037153514829884
1.5024140625 -0.42015463294069755 0.9026612571746948
1.5035625 -0.4191018276955134 0.9034773566386605
1.5047109375 -0.4184248115490168 0.9034505634545507
1.505859375 -0.41758412823974206 0.9047349690126475
1.5070078125 -0.4167524071971742 0.9043782321512877
1.50815625 -0.4160952919149353 0.9047954879333024
1.5093046875 -0.414163305486659 0.906445614947055
1.510453125 -0.4144118544416897 0.9062806672289031
1.5116015625 -0.41350768101148283 0.9052405061647997
1.51275 -0.4123715084330631 0.907209484830477
1.5138984375 -0.4117510838359602 0.9066198015424571
1.515046875 -0.41175563643834656 0.9078151927959077
1.5161953125 -0.4105833113524284 0.9085305713452111
1.51734375 -0.40923699810119374 0.9078399866158869
1.5184921875 -0.40882986632441537 0.9086840021910709
1.519640625 -0.40808380434136343 0.9090627805168601
1.5207890625 -0.40792650622315607 0.9091039644389094
1.5219375 -0.40670573993689774 0.9098425509829611
1.5230859375 -0.4060302656822502 0.910159994563394
1.524234375 -0.4055323659568889 0.9105632845391419
1.5253828125 -0.40430456731083686 0.9109349560891852
1.52653125 -0.4041479271564824 0.9110290045344897
1.5276796875 -0.40316865416569736 0.9121643413748013
1.528828125 -0.40255798810456184 0.911799762706261
1.5299765625 -0.401637808629815 0.9125792906455288
1.531125 -0.40090985631431336 0.9131968224550976
1.5322734375 -0.4002373633695972 0.9136641651128071
1.533421875 -0.3996083419966256 0.9138634856154814
1.5345703125 -0.39896988398653477 0.9142750797595058
1.53571875 -0.3982452588755761 0.9148496936383189
1.5368671875 -0.397801368442524 0.9150090936766582
1.538015625 -0.39731734347852404 0.9154824768472665
1.5391640625 -0.3964535273663353 0.9153598048493541
1.5403125 -0.39535587236422687 0.9153998694501273
1.5414609375 -0.39463885902484347 0.91577588992761
1.542609375 -0.3938345332522445 0.9161021626403417
1.5437578125 -0.3932667299459847 0.9165523424419355
1.54490625 -0.3927485200706983 0.9165043261716154
1.5460546875 -0.3923676261744359 0.917106920512455
1.547203125 -0.3915377974673001 0.9173549728452324
1.5483515625 -0.3906807140491873 0.9179484112568073
1.5495 -0.39049169543687823 0.9182799807942508
1.5506484375 -0.3896595630231103 0.9185464413206655
1.551796875 -0.38821663868296696 0.9186413934387722
1.5529453125 -0.38772119432031804 0.9188450311150795
1.55409375 -0.38781769655618337 0.919593550026969
1.5552421875 -0.38704849835032623 0.9192876597851167
1.556390625 -0.38614309908765604 0.9194639251199426
1.5575390625 -0.3854426638255939 0.9193734605113246
1.5586875 -0.38424738108079093 0.9196771922910119
1.5598359375 -0.383524510553794 0.9203622836137502
1.560984375 -0.3835340965433976 0.9204497871916499
1.5621328125 -0.38234279782808417 0.9205753176793445
1.56328125 -0.38142734230145625 0.9207212846441197
1.5644296875 -0.3803250062775611 0.9211872773727552
1.565578125 -0.3801468852022327 0.9210502420116581
1.5667265625 -0.3789603454036189 0.9214126605569329
1.567875 -0.37812666613135115 0.9210953005548466
1.5690234375 -0.3779084330758019 0.9218091733084
1.570171875 -0.37656707746909934 0.9230233876766196
1.5713203125 -0.3766986066596482 0.9221319960734266
1.57246875 -0.3754127195318064 0.9233334173830041
1.5736171875 -0.3748890482681785 0.9233194038046066
1.574765625 -0.37341665489127895 0.9241053216996593
1.5759140625 -0.37379233730240197 0.9246307197419084
1.5770625 -0.3723898372038069 0.9246198080971892
1.5782109375 -0.37178013907171537 0.9243259217784394
1.579359375 -0.37061319085787037 0.9247053636211816
1.5805078125 -0.3701852924765422 0.9251014213779845
1.58165625 -0.36909084769998324 0.9251948966531129
1.5828046875 -0.36887036221702835 0.9254952057962933
1.583953125 -0.3679499713342274 0.9263223516686889
1.5851015625 -0.36554581345040194 0.9269853081501174
1.58625 -0.3654393605122015 0.9270541181948877
1.5873984375 -0.3648680012591704 0.9276556365173944
1.588546875 -0.36350865724564874 0.9276446420974662
1.5896953125 -0.36331289043228665 0.9277123255297582
1.59084375 -0.36276213754082076 0.9278810302995439
1.5919921875 -0.36178479385257906 0.9285571863629636
1.593140625 -0.3609429859499843 0.9287787707211081
1.5942890625 -0.35997533594904896 0.9293396758310228
1.5954375 -0.35954858845951787 0.9294759469051135
1.5965859375 -0.35865517642002515 0.929484438402352
1.597734375 -0.3573070385812717 0.9297548473907806
1.5988828125 -0.35719204020865397 0.930152569147819
1.60003125 -0.35610679412988244 0.9304868293324313
1.6011796875 -0.355283601476595 0.9305876757311262
1.602328125 -0.3544686248032157 0.9311413726044013
1.6034765625 -0.35373004924212315 0.9313020629366935
1.604625 -0.35315779425032084 0.9317880769947576
1.6057734375 -0.35251932795144136 0.9321373942269715
1.606921875 -0.3514311655588101 0.9321715938756157
1.6080703125 -0.35060043175646693 0.9323155795310545
1.60921875 -0.3497918446234691 0.9327136532058435
1.6103671875 -0.3490082061764261 0.9330415879380592
1.611515625 -0.3481489500913995 0.9331947193765842
1.6126640625 -0.3474317679847192 0.9336039806193532
1.6138125 -0.3466563091972847 0.9337389360084875
1.6149609375 -0.34578556668582633 0.9340826220526858
1.616109375 -0.34515947050073004 0.934303760838135
1.6172578125 -0.344268878621076 0.9348374200094755
1.61840625 -0.343684005533572 0.9349014941905759
1.6195546875 -0.3427118943868151 0.9349712026800858
1.620703125 -0.34200495714863577 0.9356416499746149
1.6218515625 -0.3411459703163735 0.9355334802138373
1.623 -0.3405072436010656 0.9359544130563523
1.6241484375 -0.33990763107979527 0.9362030947997592
1.625296875 -0.3389251637907589 0.9362717499122171
1.6264453125 -0.33835818687414343 0.9365437961230385
1.62759375 -0.337425234979746 0.9370958547639087
1.6287421875 -0.33631057630099176 0.9373080436875727
1.629890625 -0.3364586511785878 0.9368239351767931
1.6310390625 -0.33541608349128055 0.9370254103721118
1.6321875 -0.3344409386186162 0.9376457766427477
1.6333359375 -0.3334956471742744 0.9370238788805726
1.634484375 -0.33305421203361985 0.9375218884912513
1.6356328125 -0.33221427642463963 0.9376674046109768
1.63678125 -0.33145086988817324 0.9384027695545334
1.6379296875 -0.3304866041777139 0.9391348735274454
1.639078125 -0.3297262299109971 0.9390958181987626
1.6402265625 -0.3290052990224891 0.9392830651004367
1.641375 -0.3283235651982565 0.939637323456534
1.6425234375 -0.3274630169778106 0.939850926450647
1.643671875 -0.32692608783245664 0.9405779795546333
1.6448203125 -0.3256882101708236 0.9403061038579152
1.64596875 -0.32507440488410555 0.9412787174947129
1.6471171875 -0.324560744078111 0.9413762112677717
1.648265625 -0.3237444881113954 0.9414621963154536
1.6494140625 -0.32305182430990775 0.9418950368177507
1.6505625 -0.3218792658052822 0.9423085279582077
1.6517109375 -0.32113882572881414 0.9423372036014239
1.652859375 -0.3207386982065493 0.942454042892345
1.6540078125 -0.31967654567036896 0.9429094259404937
1.65515625 -0.31882702511729144 0.9432029811645687
1.6563046875 -0.31800814592571336 0.9436715334957666
1.657453125 -0.3172815549370745 0.9439142407862916
1.6586015625 -0.31662497367530934 0.9440563966435773
1.65975 -0.3159903090531408 0.9444355758288587
1.6608984375 -0.31528477269272553 0.9446031312345026
1.662046875 -0.3145449156355213 0.9453925784414217
1.6631953125 -0.3137610061797166 0.9457656850041839
1.66434375 -0.313166255712305 0.9457920209639108
1.6654921875 -0.3125502902818859 0.9459309150075111
1.666640625 -0.31205201458893184 0.946311433550128
1.6677890625 -0.3111014217321664 0.9466624306180378
1.6689375 -0.31006460840997296 0.9468826031695164
1.6700859375 -0.31017733652818974 0.9470089557648674
1.671234375 -0.30943697451339125 0.9472352493643519
1.6723828125 -0.30850649116774814 0.9473293758271472
1.67353125 -0.30761589509645615 0.9477042803069436
1.6746796875 -0.306810435689066 0.947918455621136
1.675828125 -0.3064992959989757 0.9480353529194208
1.6769765625 -0.30555844961853357 0.9483938256828288
1.678125 -0.30498917928904046 0.9480703233228126
1.6792734375 -0.3035931320090129 0.9483670281601531
1.680421875 -0.3028014448073773 0.9492059122177817
1.6815703125 -0.3027254269108547 0.9492820349205368
1.68271875 -0.3016850442980536 0.9488694683334806
1.6838671875 -0.3007707761339247 0.9488415892256374
1.685015625 -0.3009049521038521 0.9501957752376298
1.6861640625 -0.2995717109269035 0.9499046941277056
1.6873125 -0.2991448296514066 0.9496114064468858
1.6884609375 -0.29871472246486974 0.95036170345306
1.689609375 -0.2971281375068613 0.950893286984307
1.6907578125 -0.2959776684348264 0.9496632384087536
1.69190625 -0.2955755901223569 0.9511744031940428
1.6930546875 -0.29441484090212067 0.951240032590683
1.694203125 -0.29378685255676135 0.9513776264307187
1.6953515625 -0.2931607977497862 0.9501817874016399
1.6965 -0.2923259133419538 0.9507711375451929
1.6976484375 -0.29155996817645036 0.9512077551426715
1.698796875 -0.29160791211144305 0.9518231049779715
1.6999453125 -0.2902623216443833 0.951955886463424
1.70109375 -0.29034330357442484 0.9516030886271046
1.7022421875 -0.2890844315133567 0.9522100292491413
1.703390625 -0.28876314463953706 0.9510292072955788
1.7045390625 -0.28753528381394056 0.9532600488496275
1.7056875 -0.28587198219430326 0.9528833472467233
1.7068359375 -0.2853836892607538 0.9538776798273223
1.707984375 -0.28514772311284886 0.9533785568603966
1.7091328125 -0.283785160139229 0.9543460924288758
1.71028125 -0.282750129699364 0.9535610792508726
1.7114296875 -0.28240167431674024 0.9544538297008694
1.712578125 -0.2818046338774157 0.9537034931033801
1.7137265625 -0.28082206420673117 0.9548520593984487
1.714875 -0.27954512474106386 0.9559981616507969
1.7160234375 -0.2792649238537045 0.9554364507395905
1.717171875 -0.27848495564135695 0.9555825632823016
1.7183203125 -0.2771041090047385 0.9562182520115208
1.71946875 -0.27652553465220686 0.9561831437260573
1.7206171875 -0.27599915926360014 0.956184532423264
1.721765625 -0.27517289966331465 0.9563922495841074
1.7229140625 -0.27423149100105526 0.9569306333961854
1.7240625 -0.2734014648642732 0.9572762912535806
1.7252109375 -0.27260105375807886 0.9574000477316842
1.726359375 -0.27181497940399874 0.9580678830486304
1.7275078125 -0.27094987476877724 0.9582144859614237
1.72865625 -0.27021764637079315 0.9583075691966536
1.7298046875 -0.26953492743776997 0.9590130016959315
1.730953125 -0.26885575003860585 0.9599516652964468
1.7321015625 -0.26786101327850803 0.959688646353065
1.73325 -0.2673977172215158 0.9600376122437702
1.7343984375 -0.26684351447967425 0.9602475578136636
1.735546875 -0.26636760517110886 0.9603099279268394
1.7366953125 -0.26522221347380825 0.9606371387240529
1.73784375 -0.2647717618617641 0.9610614510974435
1.7389921875 -0.26398380270504973 0.9611188681029171
1.740140625 -0.2634741059157328 0.9612741073434292
1.7412890625 -0.2628122956876697 0.9617331994998707
1.7424375 -0.26169168783525437 0.9616791748329827
1.7435859375 -0.260956523223305 0.9618264935066272
1.744734375 -0.26021411338268885 0.9621757233369139
1.7458828125 -0.25975381034506645 0.9620622748030199
1.74703125 -0.25933742135091586 0.9628718284450857
1.7481796875 -0.2583081005134302 0.9627369785824926
1.749328125 -0.25757151126134464 0.9632653384075895
1.7504765625 -0.25667243799982464 0.9625080447153178
1.751625 -0.2556518087760633 0.9627865208654516
1.7527734375 -0.25518729025794645 0.9633511706230209
1.753921875 -0.2545637231699905 0.9632515979995877
1.7550703125 -0.25381671220227514 0.9631065491595096
1.75621875 -0.25373828950112476 0.9634601533320296
1.7573671875 -0.2525626410601376 0.9640147487820613
1.758515625 -0.2509945452192319 0.9636227060118026
1.7596640625 -0.2504751764862039 0.9632935363213446
1.7608125 -0.24945480280376067 0.9641570667699686
1.7619609375 -0.24880036379384565 0.9634475817448107
1.763109375 -0.2482407941400417 0.9636671248000532
1.7642578125 -0.24719526812705722 0.9641248470091622
1.76540625 -0.2474258201736656 0.9630176185457944
1.7665546875 -0.24488076101552458 0.963336843080338
1.767703125 -0.2452406094833451 0.9647573724089831
1.7688515625 -0.24427166827466196 0.964839113203281
1.77 -0.24364774956840807 0.9652101914465986
1.7711484375 -0.24255610417522874 0.9640218593063334
1.772296875 -0.24205630220154936 0.9651076472601496
1.7734453125 -0.24129400580643254 0.9641298228526997
1.77459375 -0.24043959013602906 0.9649175533987728
1.7757421875 -0.23955671765260034 0.9657056391398695
1.776890625 -0.23801974550634483 0.9653194314565139
1.7780390625 -0.2377039790993823 0.9649057719521013
1.7791875 -0.23675998763895806 0.9659803607519335
1.7803359375 -0.23526529737530866 0.9655706797071048
1.781484375 -0.23505556252202126 0.9654421310299102
1.7826328125 -0.23355918514937377 0.966386823137984
1.78378125 -0.23285240288714004 0.9667534813424243
1.7849296875 -0.2320152162852694 0.9666693375782407
1.786078125 -0.23177525970241955 0.9667654292879637
1.7872265625 -0.2310525902212085 0.9670561081353535
1.788375 -0.2294630670933575 0.967059345849108
1.7895234375 -0.22919829681920806 0.9673800587283148
1.790671875 -0.22820344121253988 0.9677113471892212
1.7918203125 -0.22749427436322991 0.9675075686248678
1.79296875 -0.22656983994336694 0.9678468775206186
1.7941171875 -0.225268646465033 0.968584186174964
1.795265625 -0.22505619734523952 0.9690556687917875
1.7964140625 -0.22366358649690504 0.9689036741787056
1.7975625 -0.2230484362567624 0.9690647038490126
1.7987109375 -0.2226364661088414 0.9698610595579943
1.799859375 -0.22159916775121022 0.9699795391891326
1.8010078125 -0.22094286293582688 0.9699760840033906
1.80215625 -0.21993207402410386 0.9698995146205313
1.8033046875 -0.22013352571964878 0.9706997564990457
1.804453125 -0.2189022251299566 0.9709702562859439
1.8056015625 -0.21807726624137508 0.9715296454705566
1.80675 -0.21658703764935078 0.9719243382142595
1.8078984375 -0.21603171465440485 0.9724117410249107
1.809046875 -0.21575857155844594 0.9721701362028675
1.8101953125 -0.21432131919023895 0.9716486330337036
1.81134375 -0.21375979759108338 0.9726098499921676
1.8124921875 -0.2131817204331791 0.9730430053364628
1.813640625 -0.21232305237724025 0.9730321557241387
1.8147890625 -0.21208510411209322 0.9731355673337352
1.8159375 -0.21106532724300497 0.9725735886812669
1.8170859375 -0.21008756151701513 0.9732388481026439
1.818234375 -0.20913751338944198 0.9730290496059618
1.8193828125 -0.20852060721035087 0.9737289982850107
1.82053125 -0.20750097687080332 0.9744100764082426
1.8216796875 -0.2068904603140769 0.9744492012752605
1.822828125 -0.2058495620144045 0.9745873978488542
1.8239765625 -0.20574946977095787 0.9745204793971258
1.825125 -0.20425822113987435 0.9745355341181672
1.8262734375 -0.2033763399182062 0.9742852117195154
1.827421875 -0.20307403646869449 0.9751358250956349
1.8285703125 -0.20225285688575023 0.9748069278172284
1.82971875 -0.2011479759348167 0.9751996920794415
1.8308671875 -0.20119866308304005 0.975151393722055
1.832015625 -0.2007455438592163 0.9750967477505363
1.8331640625 -0.20008450409252093 0.9748744890524805
1.8343125 -0.19903534164601677 0.9745115523885163
1.8354609375 -0.19808769954163213 0.9756073877571285
1.836609375 -0.19723639363486095 0.9757826695774093
1.8377578125 -0.19605161035060692 0.9758760389562933
1.83890625 -0.1952492981852839 0.9754302846562661
1.8400546875 -0.1941377546409808 0.9751890151091879
1.841203125 -0.1936872313121607 0.9754962351673498
1.8423515625 -0.1926728665085034 0.9763343556644665
1.8435 -0.1919278425854701 0.9769916831197374
1.8446484375 -0.19170847723884965 0.9755681033605486
1.845796875 -0.19067023170018754 0.9757811668135693
1.8469453125 -0.19034189059966006 0.9754465292941639
1.84809375 -0.18881631122042355 0.9756853482962329
1.8492421875 -0.1880819326098378 0.9764377404781722
1.850390625 -0.18763201760754059 0.9765914358855384
1.8515390625 -0.18671351659461485 0.9762627465185106
1.8526875 -0.18573609705830088 0.9765553119579042
1.8538359375 -0.18474949513689648 0.9768416458634225
1.854984375 -0.18354324026229576 0.9764672013496164
1.8561328125 -0.18322660373012506 0.976651715644109
1.85728125 -0.18259704320466968 0.976834665859805
1.8584296875 -0.18177715011326878 0.9767957618699359
1.859578125 -0.1806775816284402 0.9773855843207067
1.8607265625 -0.1801574282982784 0.9774930938890124
1.861875 -0.1792617172888719 0.9776346111583061
1.8630234375 -0.17810300508614296 0.9781580157532184
1.864171875 -0.1775402302211037 0.978134136399302
1.8653203125 -0.1762696012663447 0.9786638676949113
1.86646875 -0.1752013227438886 0.9788183491128849
1.8676171875 -0.1750263091765617 0.9784755601012872
1.868765625 -0.17416149660107844 0.9791245123803476
1.8699140625 -0.17352371450213616 0.9790347179232644
1.8710625 -0.1725758141962005 0.9794036641434869
1.8722109375 -0.17160858678939883 0.9795595078949549
1.873359375 -0.1709960592799447 0.9804276471655405
1.8745078125 -0.17002450257673432 0.9798926560735503
1.87565625 -0.16916837341354712 0.9806567796737237
1.8768046875 -0.16863315931128803 0.9811311482660849
1.877953125 -0.16778231134495444 0.9803338938830076
1.8791015625 -0.16732287541126914 0.9801119828915694
1.88025 -0.16581177639610378 0.9807315098703931
1.8813984375 -0.16544994725775938 0.9804529877132155
1.882546875 -0.1644383753405369 0.9811701577249714
1.8836953125 -0.16433091658254725 0.9808454288895749
1.88484375 -0.16321095056206672 0.9811352763198237
1.8859921875 -0.16174188159032998 0.9807551742843368
1.887140625 -0.16191595533383749 0.9802172886170676
1.8882890625 -0.16017155151257562 0.9805653789003356
1.8894375 -0.15968390040951708 0.981299174469141
1.8905859375 -0.15887835697578986 0.9819558627110307
1.891734375 -0.15856446476784622 0.981612045247767
1.8928828125 -0.1574128679130386 0.9817753845266064
1.89403125 -0.15713619255447053 0.981004272274493
1.8951796875 -0.15570114213363767 0.9814283839429844
1.896328125 -0.15600393345488683 0.9823698059602496
1.8974765625 -0.15456779061487644 0.9819869162247233
1.898625 -0.15307867618785967 0.9820854324490821
1.8997734375 -0.1526398986385403 0.9826501679079148
1.900921875 -0.15177498100037515 0.9823341888849344
1.9020703125 -0.15091864587094397 0.9823725858229032
1.90321875 -0.1504104768144483 0.9833813773403957
1.9043671875 -0.14993724934079514 0.9825277045448997
1.905515625 -0.14890759217847482 0.9831582056456265
1.9066640625 -0.14782848891395234 0.9833839745001938
1.9078125 -0.14661559409071928 0.9836360332304248
1.9089609375 -0.14557298954910258 0.9840132967287936
1.910109375 -0.145042914904625 0.9832460475436815
1.9112578125 -0.14425426086413035 0.9835534348559095
1.91240625 -0.14312159855087575 0.98355576815476
1.9135546875 -0.14235041926223677 0.9835327401277013
1.914703125 -0.14146437631680087 0.9834794343886376
1.9158515625 -0.14046433354018542 0.984267770079362
1.917 -0.13927580815372986 0.9840105935816775
1.9181484375 -0.13801409191788547 0.9843834940853228
1.919296875 -0.13745007649165622 0.9838565688453365
1.9204453125 -0.13665207580882116 0.9839202918690382
1.92159375 -0.13615988961707026 0.9840011147367573
1.9227421875 -0.13515211203059452 0.98431097436144
1.923890625 -0.134030948474485 0.9845182521881063
1.9250390625 -0.13273763494907392 0.9847169354634211
1.9261875 -0.13218842215462573 0.9856807235821703
1.9273359375 -0.1314315671588042 0.9858466212576387
1.928484375 -0.13007777867656403 0.9856617801860275
1.9296328125 -0.1292081415949774 0.9862781674184818
1.93078125 -0.12841686045781533 0.9857262695628313
1.9319296875 -0.12840440935329542 0.9862544306326406
1.933078125 -0.12696623026932527 0.9862933047293615
1.9342265625 -0.12584097984412854 0.9864065814458505
1.935375 -0.1260352215771413 0.9865331518592979
1.9365234375 -0.12407856595847383 0.9869874555531883
1.937671875 -0.12354402800914185 0.9873793852184382
1.9388203125 -0.12173658070862897 0.9869634970594414
1.93996875 -0.1217340838040159 0.986775508993382
1.9411171875 -0.12089446625672137 0.9887302476057194
1.942265625 -0.11982586258147578 0.9879940294379238
1.9434140625 -0.119482571809732 0.9882133298036754
1.9445625 -0.11871640572887351 0.988705451896033
1.9457109375 -0.11813911125462714 0.9891410962818723
1.946859375 -0.11746518298607941 0.9889402138189414
1.9480078125 -0.11700171225042641 0.9898308005678857
1.94915625 -0.11574244875548403 0.9906578932635252
1.9503046875 -0.11536149053014289 0.9894328028191302
1.951453125 -0.11413741498207494 0.9888448760953815
1.9526015625 -0.11331886831799992 0.9904875581750243
1.95375 -0.11214333804978213 0.990754547084182
1.9548984375 -0.11210025654568528 0.9899181374901909
1.956046875 -0.10976985127769126 0.9905285026036972
1.9571953125 -0.10963798659226127 0.9904245525698159
1.95834375 -0.10872833615943603 0.9901012838714025
1.9594921875 -0.10836119428457497 0.990675811148571
1.960640625 -0.10757476903366583 0.9907171961035512
1.9617890625 -0.10719510150055572 0.9914191172082858
1.9629375 -0.10672558777662192 0.9909945127595204
1.9640859375 -0.10572595479858651 0.9905988039031358
1.965234375 -0.1041566285307578 0.9906980395109416
1.9663828125 -0.10368396787907083 0.9901938012191838
1.96753125 -0.10302121164469935 0.990737699745147
1.9686796875 -0.10274134062735782 0.9907698563527236
1.969828125 -0.10184294230699603 0.9908999961713467
1.9709765625 -0.10095160651183915 0.9909483566580839
1.972125 -0.09977892168220337 0.9908219058490918
1.9732734375 -0.09944447536141024 0.9913986673509844
1.974421875 -0.098897689301254 0.991491882385535
1.9755703125 -0.09807454507069474 0.9910477159697726
1.97671875 -0.09702667419758446 0.9902147351810455
1.9778671875 -0.09562811869644783 0.9902389677951241
1.979015625 -0.09472898988069178 0.9907947458517119
1.9801640625 -0.0942116242465757 0.9907085023549626
1.9813125 -0.09303595636838008 0.9906771151547684
1.9824609375 -0.09179626512834 0.9911667750882043
1.983609375 -0.09076436383701 0.9904183820159227
1.9847578125 -0.09027300745830746 0.9911796531997443
1.98590625 -0.08954034198530447 0.9913722555628329
1.9870546875 -0.08898874476931626 0.9900714113254749
1.988203125 -0.08788973215144585 0.9902643533129469
1.9893515625 -0.08707436000368213 0.9908102268453982
1.9905 -0.08614578903008352 0.9909627432625784
1.9916484375 -0.08514572506134077 0.9910804697456334
1.992796875 -0.08419826397593366 0.9913404145158069
1.9939453125 -0.08440612559416066 0.9914274967436434
1.99509375 -0.08309797077921666 0.9928382617099959
1.9962421875 -0.08215906360066891 0.9919849835376222
1.997390625 -0.08141039331483313 0.9920748190082872
1.9985390625 -0.08085862566096824 0.9922256113371444
1.9996875 -0.07998959161066205 0.99172989220577
2.0008359375 -0.07926084106680154 0.9930004913536681
2.001984375 -0.07799784865914489 0.9918531236509613
2.0031328125 -0.07736300842361382 0.99181242239731
2.00428125 -0.07690396686017259 0.9931999902576427
2.0054296875 -0.07495101565396439 0.9935220418645947
2.006578125 -0.07475405085766579 0.9937073169619638
2.0077265625 -0.0734580210133961 0.9932935280071264
2.008875 -0.07434031721598647 0.9928192941559895
2.0100234375 -0.07345464828801335 0.9935599161840012
2.011171875 -0.07204006518602157 0.9933516176298625
2.0123203125 -0.07202739803859287 0.9934076410678463
2.01346875 -0.06887782353006111 0.9920948658925881
2.0146171875 -0.06991457306239768 0.9938435280530691
2.015765625 -0.06928547059773404 0.9944358231979031
2.0169140625 -0.067845169840893 0.9946953401691287
2.0180625 -0.06750301780844759 0.9954943446811922
2.0192109375 -0.06630702033223176 0.9950608602277433
2.020359375 -0.06610327193159354 0.9950496195826163
2.0215078125 -0.06530699663625589 0.9942776278657522
2.02265625 -0.06480154991892928 0.9954204509979463
2.0238046875 -0.06363035325588312 0.9954941634306208
2.024953125 -0.06369837156777802 0.995535886388426
2.0261015625 -0.06189868392181258 0.9953699350771212
2.02725 -0.06080421066998293 0.9960517719581113
2.0283984375 -0.06070185014128138 0.994457053691926
2.029546875 -0.05955600951929518 0.9950591929492499
2.0306953125 -0.058501984191484474 0.9946511872513595
2.03184375 -0.05762529754425172 0.9953764237866023
2.0329921875 -0.05658017541064703 0.9949604266929781
2.034140625 -0.05585018398654962 0.9944523131495737
2.0352890625 -0.05577251605073047 0.9950387785409652
2.0364375 -0.054253481397197295 0.9940620786877898
2.0375859375 -0.05267757141375107 0.994578403583872
2.038734375 -0.0518236947958122 0.9943272907796468
2.0398828125 -0.05189122762400103 0.994469211520587
2.04103125 -0.05058094375044403 0.9935936092530486
2.0421796875 -0.049951448479164884 0.9932146192504145
2.043328125 -0.04877485247274599 0.9930894736711231
2.0444765625 -0.04824129905693225 0.9931639781478648
2.045625 -0.04727851734017602 0.9933277037788769
2.0467734375 -0.046319682152558994 0.9935683534460494
2.047921875 -0.04581167898340835 0.9929441313349622
2.0490703125 -0.04519756154403977 0.992961614164568
2.05021875 -0.04365846321481806 0.9924958614390218
2.0513671875 -0.04340061028109171 0.9920205846181047
2.052515625 -0.04276170968956433 0.992321540630125
2.0536640625 -0.04164882523646786 0.9924396624657266
2.0548125 -0.040419149145027713 0.9921223448469906
2.0559609375 -0.039454337015273164 0.9923293620084306
2.057109375 -0.038626308446413044 0.9924571981237607
2.0582578125 -0.03782808330681668 0.9921580500346707
2.05940625 -0.036924289654446774 0.9921549282070534
2.0605546875 -0.03614628654063064 0.9926690739704778
2.061703125 -0.0337817463144557 0.992897373820228
2.0628515625 -0.03319128047300619 0.9927610243003214
2.064 -0.03189418927473525 0.9922013371539393
2.0651484375 -0.030725491015607273 0.9923144046288599
2.066296875 -0.02984300919755173 0.9930886290272396
2.0674453125 -0.02897893414169181 0.9926402738369394
2.06859375 -0.028676257899498445 0.9926088844709571
2.0697421875 -0.02745443806580064 0.993158380379524
2.070890625 -0.026960973407991487 0.9925708651450953
2.0720390625 -0.02553624045687359 0.9936709564812143
2.0731875 -0.023700526299149052 0.9936757135578682
2.0743359375 -0.023189596024915368 0.9934615402069271
2.075484375 -0.02368112368517425 0.9936170811671855
2.0766328125 -0.02139528467924283 0.994044504756704
2.07778125 -0.02141268284732807 0.9950723429210449
2.0789296875 -0.019065354670409353 0.9947668788390934
2.080078125 -0.0190261588930936 0.9952968153222408
2.0812265625 -0.018013388606449278 0.9956067959670878
2.082375 -0.017729884469654268 0.9956134988986198
2.0835234375 -0.01583370188153317 0.9955715403256424
2.084671875 -0.015561287541865941 0.9946969606773934
2.0858203125 -0.013912574119087397 0.9957757738907496
2.08696875 -0.013357547332397322 0.9965403975861952
2.0881171875 -0.012120716145731326 0.9954930004824084
2.089265625 -0.011847516344380443 0.9950023795203128
2.0904140625 -0.01108741758060109 0.995950063681503
2.0915625 -0.009590441764734475 0.9968048104466477
2.0927109375 -0.009003292214975166 0.9963586674474191
2.093859375 -0.008365213000439964 0.9958398893812036
2.0950078125 -0.007759091263524628 0.9963268041623639
2.09615625 -0.007521190095344993 0.9967610034739908
2.0973046875 -0.006073663103784446 0.9971901542078458
2.098453125 -0.005281106698051707 0.9975323414189167
2.0996015625 -0.004992666823353462 0.9965323188959435
2.10075 -0.004327046901011822 0.996395441378817
2.1018984375 -0.003815126596169144 0.9960536369850645
2.103046875 -0.002442730980508026 0.9965620123790878
2.1041953125 -0.002338912558534592 0.9965756013706953
2.10534375 -0.001477241902923171 0.9963938550917578
2.1064921875 -0.0012028076861396453 0.9963214708827027
2.107640625 -0.0004386354492345451 0.9960945738696156
2.1087890625 0.0008840958614485667 0.996117475365399
2.1099375 0.0012578501122763874 0.9959163078382556
2.1110859375 0.001656381641335719 0.9958724746064479
2.112234375 0.002875938627838942 0.9959746168777336
2.1133828125 0.003491092392404291 0.9959628150709896
2.11453125 0.0045725123304854315 0.9954267250217753
2.1156796875 0.004898299714988064 0.9954780885876595
2.116828125 0.0058224313078575896 0.99491768308828
2.1179765625 0.007342359605100268 0.9953357944915151
2.119125 0.008297444231312623 0.9943906616529055
2.1202734375 0.00870400416262851 0.9938979470489837
2.121421875 0.010244557394869458 0.9939143216622106
2.1225703125 0.011274851988766321 0.9936821536015449
2.12371875 0.012232112179194454 0.9935224159769243
2.1248671875 0.013007268616401696 0.9939140028436869
2.126015625 0.01378781517070149 0.9937277074314316
2.1271640625 0.014999174612727678 0.9938200767785257
2.1283125 0.0160386455523224 0.9940875644088303
2.1294609375 0.017556237888109394 0.9937940692250609
2.130609375 0.01811329260974931 0.9930820716985655
2.1317578125 0.018714880251608834 0.9928099564279946
2.13290625 0.021007023503585798 0.9936706927164071
2.1340546875 0.020702677727611363 0.9935702110852265
2.135203125 0.021426888077556744 0.9941807821215339
2.1363515625 0.023487196952728218 0.9943768563806601
2.1375 0.024095787140555075 0.994314169994295
2.1386484375 0.02593309099292443 0.9941036636525225
2.139796875 0.02599403925095825 0.9941097024483553
2.1409453125 0.027536251733231626 0.9934898043577253
2.14209375 0.028401358104756247 0.993763441318048
2.1432421875 0.02909865060601796 0.994424997094501
2.144390625 0.030993168143362587 0.9947761315680625
2.1455390625 0.0307918116932131 0.9939150563309356
2.1466875 0.03295943014245195 0.9941894284302688
2.1478359375 0.033608562680953025 0.9948723408026077
2.148984375 0.035028628088913605 0.9950310905085641
2.1501328125 0.03601494488100243 0.9947336328493543
2.15128125 0.03728399948509653 0.9941461817031396
2.1524296875 0.03825552175859448 0.9937862437549019
2.153578125 0.03896113542078755 0.9940183667514053
2.1547265625 0.039356538520404716 0.9942380173170888
2.155875 0.04124364499967759 0.9938149651263162
2.1570234375 0.041249447698764596 0.9947015331742756
2.158171875 0.04228783910596301 0.9940134888853517
2.1593203125 0.04313124136523888 0.9950334341950631
2.16046875 0.04388673480884869 0.9943518355299202
2.1616171875 0.04429510893188571 0.9947760415585983
2.162765625 0.04514074589266509 0.9946338255694124
2.1639140625 0.04575425439081138 0.9952020987735477
2.1650625 0.046485721981466055 0.9950147192109573
2.1662109375 0.048076550479736524 0.9951530826941553
2.167359375 0.04889877363452749 0.995702017552088
2.1685078125 0.04938268489879205 0.9954079955146059
2.16965625 0.04976576312426417 0.9960515539072352
2.1708046875 0.0506970448116249 0.9958336434630447
2.171953125 0.05098937965083744 0.9956607749328908
2.1731015625 0.05133668959143872 0.9958219973255653
2.17425 0.0521011390548064 0.9955419333341755
2.1753984375 0.052549163747472594 0.9948016493168421
2.176546875 0.05373019884695662 0.9943386173440547
2.1776953125 0.05457684202472357 0.9949167283237796
2.17884375 0.054986376455740116 0.9945104336556785
2.1799921875 0.05588987144168145 0.9944726045867951
2.181140625 0.05689335916508581 0.9939315322423073
2.1822890625 0.057171667617024635 0.9941107545135388
2.1834375 0.05850470128733509 0.993350543438198
2.1845859375 0.05893650693895236 0.9932324011821664
2.185734375 0.059685413538024035 0.9937273907557549
2.1868828125 0.06002825460529687 0.9932833124452055
2.18803125 0.06091004101819886 0.9932064078468867
2.1891796875 0.06137018254992782 0.9933822416795235
2.190328125 0.06271406568644483 0.9933476501732365
2.1914765625 0.06345984078923567 0.992420988938831
2.192625 0.06376735179762111 0.992456650403786
2.1937734375 0.06561813681399287 0.9923125426818061
2.194921875 0.06675052358599476 0.9921633385358894
2.1960703125 0.06647694777109764 0.9915840767031956
2.19721875 0.06709221155744238 0.9915846134512725
2.1983671875 0.06779784248885046 0.9916801775823657
2.199515625 0.06910537521983473 0.9915694723088757
2.2006640625 0.07080703380552045 0.9909710431784023
2.2018125 0.07159308079574211 0.991088728618581
2.2029609375 0.07205517531033856 0.990017239077716
2.204109375 0.07273181113403887 0.9907944358315539
2.2052578125 0.07374320156468797 0.9921731843213893
2.20640625 0.07537325768338715 0.9912913910008169
2.2075546875 0.07444547124409057 0.9920934962389922
2.208703125 0.07870642102481379 0.9906197436673643
2.2098515625 0.07730772154920448 0.9906500393686102
2.211 0.07815044089456036 0.9910356676709766
2.2121484375 0.079114849645196 0.990419842151008
2.213296875 0.08083750989580299 0.9912208712059287
2.2144453125 0.08119672678484138 0.9897231062873895
2.21559375 0.08285904771090338 0.9900525330084994
2.2167421875 0.08389401264663959 0.9898886500747044
2.217890625 0.08552491853945196 0.9897657887816133
2.2190390625 0.08681806545248352 0.9895248961175223
2.2201875 0.0862843924456135 0.990321933479747
2.2213359375 0.08934546907608101 0.9900154667831457
2.222484375 0.08976584098937782 0.9892965694336977
2.2236328125 0.09089091573600014 0.9902701068731399
2.22478125 0.09207329761474334 0.9890374955956898
2.2259296875 0.09220092952455977 0.989439263769756
2.227078125 0.09338740961963102 0.9897215687293246
2.2282265625 0.09405070860937009 0.9887996553716097
2.229375 0.09585478376182457 0.9905074521660092
2.2305234375 0.09579342981984229 0.9904845637763835
2.231671875 0.09702505660999422 0.9902019958908029
2.2328203125 0.09722361207778445 0.9904151593246602
2.23396875 0.09854904576919138 0.9900622656670819
2.2351171875 0.09841246066737261 0.9900174483640177
2.236265625 0.0994733248481256 0.9894496480729839
2.2374140625 0.10058779461701195 0.9899116868668276
2.2385625 0.10133694241562193 0.9903021833805543
2.2397109375 0.10202471156844131 0.9905429914828927
2.240859375 0.10348658271308785 0.9900576975939187
2.2420078125 0.10351772616307937 0.9901401243803966
2.24315625 0.10428174175272682 0.9905041113698803
2.2443046875 0.1058843854023017 0.989453570332961
2.245453125 0.10662793999025275 0.989994881250052
2.2466015625 0.10687228407262649 0.9898758421619496
2.24775 0.10783962809579373 0.9895033841305888
2.2488984375 0.10868665186573287 0.990112279777731
2.250046875 0.10916461383167701 0.9898745895343363
2.2511953125 0.1100317608092585 0.9895201522112536
2.25234375 0.11129951452457297 0.9888192118818477
2.2534921875 0.11197766304022398 0.9887443008239111
2.254640625 0.11232716005193527 0.9879281520251905
2.2557890625 0.11344838800415728 0.9874770226657723
2.2569375 0.11461473750848246 0.9876425855626131
2.2580859375 0.1152960576007052 0.9874184544395553
2.259234375 0.11635436076965268 0.9875757563799079
2.2603828125 0.11667433928202495 0.987766508429758
2.26153125 0.11746090390222624 0.9876533047374493
2.2626796875 0.11816753452126089 0.9868563258701456
2.263828125 0.11951365574771863 0.9870514581007285
2.2649765625 0.12018373573308344 0.9866230842167993
2.266125 0.12112735613696936 0.9863820035500563
2.2672734375 0.12184947360159437 0.9857225924472462
2.268421875 0.1224564410967383 0.9865046715752559
2.2695703125 0.12347220964283051 0.985770605112667
2.27071875 0.12438269802742703 0.985195440174702
2.2718671875 0.12514671424434187 0.9853158770054844
2.273015625 0.12652218897372527 0.9857875237725588
2.2741640625 0.12721328411020394 0.9848260354329066
2.2753125 0.12747220932533776 0.9849021736765357
2.2764609375 0.12956682373884862 0.9843481694719519
2.277609375 0.1297033223141143 0.9846761502487422
2.2787578125 0.1307259827816117 0.9849562586133128
2.27990625 0.13236777958553203 0.9833870967553682
2.2810546875 0.13430330292644527 0.9833465873786137
2.282203125 0.1349482226840404 0.9846011637835046
2.2833515625 0.13552392005587632 0.9842774435630864
2.2845 0.13663465695752866 0.9829279574616111
2.2856484375 0.13786231855164927 0.9829913603772518
2.286796875 0.13850357417563708 0.9844098764048106
2.2879453125 0.1399871187934903 0.9825267952041193
2.28909375 0.1415497771326879 0.9827113482255533
2.2902421875 0.14228344348536276 0.9817627142518952
2.291390625 0.14290844864111346 0.9818111043588205
2.2925390625 0.14320838987592804 0.9814491507972958
2.2936875 0.14390725527524326 0.9810651466964749
2.2948359375 0.1447802396931487 0.9817833297182884
2.295984375 0.1460082799299684 0.9813496371332182
2.2971328125 0.1476098966591567 0.9812041520354603
2.29828125 0.14862049485480644 0.9813276182958
2.2994296875 0.1493175014677202 0.9815929176054337
2.300578125 0.15058414443131676 0.9816012263438216
2.3017265625 0.15116570632818166 0.9815523841231981
2.302875 0.15166692320334188 0.9816200881137663
2.3040234375 0.1521341839462526 0.9808133823693143
2.305171875 0.15311736478092208 0.9806516715962376
2.3063203125 0.15444215680178297 0.9801438360553002
2.30746875 0.15533299007049667 0.9797953923420711
2.3086171875 0.15656706464632714 0.9792623007182739
2.309765625 0.157028174249803 0.9798147717513427
2.3109140625 0.15864939537038725 0.9795046062237245
2.3120625 0.15909116966168238 0.9793324881569002
2.3132109375 0.16008600242135176 0.9792170074267574
2.314359375 0.16071938791675638 0.9793827564204629
2.3155078125 0.16185653328661953 0.9794613848609988
2.31665625 0.16330762786692632 0.9797887330437627
2.3178046875 0.163695393942703 0.9792854278089016
2.318953125 0.16386585020381883 0.9786074801152331
2.3201015625 0.16476779639160688 0.978465240344697
2.32125 0.16563108284282602 0.9788626522637196
2.3223984375 0.16694769393586312 0.9787135577492828
2.323546875 0.16770664967811105 0.9781001710269244
2.3246953125 0.16779592667494544 0.9785951308374224
2.32584375 0.1687300079984367 0.9781320363263337
2.3269921875 0.17017371215892924 0.9776413358085128
2.328140625 0.17094683794264626 0.9771993160751408
2.3292890625 0.17203911685822326 0.9772450613368834
2.3304375 0.17256674816945394 0.9762419890140233
2.3315859375 0.17374668938865537 0.9757763980651013
2.332734375 0.1735950807999742 0.976453146694057
2.3338828125 0.17545789726770586 0.9759886025654715
2.33503125 0.1763711241257115 0.9763077959098768
2.3361796875 0.17655386943881515 0.9750413706851259
2.337328125 0.17673413453194392 0.9755942404407693
2.3384765625 0.17860243614575982 0.9759805365794401
2.339625 0.17939614286878602 0.9753072081973495
2.3407734375 0.1805213215624934 0.9749792131617688
2.341921875 0.18074240252382548 0.9749519084554039
2.3430703125 0.18012951554951412 0.9753189636236517
2.34421875 0.18248829028575844 0.9760172441862599
2.3453671875 0.18343288285339557 0.9750493632273519
2.346515625 0.18454311146880095 0.9750468760069004
2.3476640625 0.18488737443339898 0.9752259746608678
2.3488125 0.18671571509464463 0.9746672102384357
2.3499609375 0.18671528934608161 0.9735215438428684
2.351109375 0.18756651466488394 0.9733178100749067
2.3522578125 0.1876387195741268 0.9730551325366517
2.35340625 0.18880202942827076 0.9727547568444366
2.3545546875 0.18911368563716827 0.9739340193981589
2.355703125 0.19117269537941012 0.973239330422893
2.3568515625 0.1910534409718376 0.9734537009730156
2.358 0.19128773365988463 0.9735197043828072
2.3591484375 0.19378209214987843 0.9738272828629623
2.360296875 0.19504258534108954 0.972365782657581
2.3614453125 0.19553739438614276 0.9710205596379202
2.36259375 0.19725106936192652 0.972359849676235
2.3637421875 0.19749403621400974 0.9727424835640917
2.364890625 0.19886643830689077 0.9714355876001746
2.3660390625 0.19855871694883775 0.9716076937011247
2.3671875 0.19930859869461642 0.9711771190739542
2.3683359375 0.2008121873539033 0.9711212513290851
2.369484375 0.20264977298333253 0.9719030419974155
2.3706328125 0.2029732811467615 0.9712260084415058
2.37178125 0.203989194201176 0.9714262196344012
2.3729296875 0.2051262411395854 0.9701203385780388
2.374078125 0.20624535257742652 0.9703818972650484
2.3752265625 0.20729568039882815 0.9702017025832584
2.376375 0.20814058704185898 0.9705107683454692
2.3775234375 0.20962765562561736 0.9704261276186683
2.378671875 0.2102029315069508 0.9700581080030305
2.3798203125 0.21075669018393284 0.9692868678426325
2.38096875 0.2116808284060541 0.9695267865332396
2.3821171875 0.21225358541515776 0.9686299529193703
2.383265625 0.2130769417590184 0.9681032165133795
2.3844140625 0.2141535195664837 0.9677721414719989
2.3855625 0.2149753125457569 0.9682236544507087
2.3867109375 0.2154389545140566 0.9681695651865643
2.387859375 0.2163685472547453 0.9675394315107331
2.3890078125 0.21777116331332314 0.9672625504209567
2.39015625 0.21839630452067088 0.9671929728028876
2.3913046875 0.21854703002521628 0.9665923800342462
2.392453125 0.21971690147334216 0.9669105105436193
2.3936015625 0.2204857974921912 0.9668764891566698
2.39475 0.2211942624278489 0.9656974192943462
2.3958984375 0.22222857151045736 0.9670433870245388
2.397046875 0.2227812657657499 0.9660893924267393
2.3981953125 0.22355623945158926 0.9650962531659846
2.39934375 0.22549418211901892 0.96471449328752
2.4004921875 0.22486687608431288 0.9650852964300073
2.401640625 0.22588089713273612 0.964242289906028
2.4027890625 0.22676487065118708 0.962559917110603
2.4039375 0.2280638882033962 0.9643201077916868
2.4050859375 0.2285512546898119 0.9639305579019871
2.406234375 0.22965153782588088 0.9638721705619673
2.4073828125 0.23020499248184462 0.9653941352369332
2.40853125 0.231320694882062 0.9642948967504039
2.4096796875 0.23285286241775394 0.9631729315308887
2.410828125 0.23452469970418208 0.9646876304606666
2.4119765625 0.23306311345510716 0.9638110789712968
2.413125 0.23615865536424824 0.9639996729970662
2.4142734375 0.23585943136511334 0.9620638944380326
2.415421875 0.23602344530384725 0.9607842857660776
2.4165703125 0.23882598513328612 0.9609188662429019
2.41771875 0.2393876818654159 0.9618036039255173
2.4188671875 0.24124184304895524 0.9608827632024278
2.420015625 0.24130830544623993 0.9604421418105586
2.4211640625 0.24125113740199594 0.96060112175186
2.4223125 0.24347474961099685 0.9592567424389354
2.4234609375 0.24271008911814793 0.9601254074054312
2.424609375 0.24284736302407467 0.9611223055076228
2.4257578125 0.2465232105734487 0.9600866366782652
2.42690625 0.2443742682086002 0.9608483342754861
2.4280546875 0.24596065440118775 0.9608153456278438
2.429203125 0.24785996116678016 0.9607321718928113
2.4303515625 0.24876136526688142 0.960470619767359
2.4315 0.24940209249001166 0.9593226332355667
2.4326484375 0.24981116509983659 0.9587660041168795
2.433796875 0.251507911647057 0.9600161054844155
2.4349453125 0.25218420447691325 0.9587483025873575
2.43609375 0.2533009462253883 0.9579895907085834
2.4372421875 0.2550258491961727 0.9580464738634417
2.438390625 0.25493697210214494 0.9575918861911741
2.4395390625 0.25550522468740805 0.9574933045241468
2.4406875 0.25655231151313007 0.9569676667838058
2.4418359375 0.2576749105336425 0.9575408102618237
2.442984375 0.2584726283332051 0.9561007195618624
2.4441328125 0.2587308078287966 0.9560519897857443
2.44528125 0.2589657315264707 0.9560079600503958
2.4464296875 0.25930531256334066 0.9551637689556319
2.447578125 0.26029115844144546 0.9549610285754
2.4487265625 0.2620354227808266 0.9556330693057322
2.449875 0.2627577773947373 0.9551479624903155
2.4510234375 0.26323746408998727 0.9546357892486192
2.452171875 0.2645076694056574 0.9546637445118435
2.4533203125 0.26535887201577646 0.9544525371743683
2.45446875 0.2667677792618551 0.953469179437715
2.4556171875 0.267228800461903 0.9531539400649793
2.456765625 0.267487341760452 0.9534895346949881
2.4579140625 0.2686809086118943 0.9530281617072542
2.4590625 0.2694888353121207 0.9524717008837309
2.4602109375 0.271022108785043 0.9527443755525631
2.461359375 0.27186863697504177 0.9524899994000892
2.4625078125 0.2722331187773821 0.9519814984982449
2.46365625 0.27338777130617203 0.9511343666732709
2.4648046875 0.27438193309524017 0.9504562923188833
2.465953125 0.27520477673908306 0.9500175715262692
2.4671015625 0.2759903849095291 0.9504905728742757
2.46825 0.2762680313884214 0.9500543438104864
2.4693984375 0.27699972401133915 0.9494935516191534
2.470546875 0.2773051326271811 0.9499753604430594
2.4716953125 0.2782268199844205 0.9495142996618734
2.47284375 0.2793582854810631 0.948686440513696
2.4739921875 0.27992651002277513 0.9480837907398213
2.475140625 0.28141317132087024 0.9469053256302239
2.4762890625 0.2816524230688305 0.946689792045414
2.4774375 0.28251315824313494 0.9472781948131506
2.4785859375 0.283616332430633 0.9476669239668457
2.479734375 0.28472624253960893 0.9466760588363912
2.4808828125 0.2855569941091949 0.9452371777014825
2.48203125 0.28622589981789553 0.9454536613659299
2.4831796875 0.28675932911140467 0.9445383224741691
2.484328125 0.28764373565875595 0.9447809081489392
2.4854765625 0.290687543676915 0.9438519905709011
2.486625 0.2907787929517865 0.9438633011736243
2.4877734375 0.29114345112707235 0.9446045962813444
2.488921875 0.292661633490204 0.943882456693502
2.4900703125 0.29400032449359825 0.9443323291259376
2.49121875 0.29516800557590406 0.9438641672964346
2.4923671875 0.2959189945881608 0.9432692106823468
2.493515625 0.29833797313194205 0.9434713357482966
2.4946640625 0.2978937785154149 0.9416527402405803
2.4958125 0.29921956793850024 0.9409308019755788
2.4969609375 0.29983280881345353 0.9410061268842597
2.498109375 0.3010244005938201 0.9416849664390856
2.4992578125 0.30170279022638585 0.9413719289594955
2.50040625 0.3033647479057151 0.941088184030633
2.5015546875 0.3038368392685581 0.9412282298463855
2.502703125 0.30528763073806053 0.9401506875741195
2.5038515625 0.3057928511282567 0.9394903193765399
2.505 0.3066230953653818 0.9397675798057403
2.5061484375 0.3083890063421083 0.939030806408918
2.507296875 0.3091169177039773 0.9385451185449294
2.5084453125 0.30961751222164 0.9385379843538291
2.50959375 0.3104085319282345 0.9387388230949438
2.5107421875 0.3109261199508427 0.938633668447454
2.511890625 0.31203095521819657 0.9386015028016318
2.5130390625 0.31254918236412504 0.9389123225423983
2.5141875 0.31299950562677215 0.9383813836091894
2.5153359375 0.3138941121191963 0.9387233140105473
2.516484375 0.3156422397919644 0.938177828319236
2.5176328125 0.31608536532243153 0.9383410199470424
2.51878125 0.3165171898974367 0.9380181884375449
2.5199296875 0.31725137764613043 0.9370270228286155
2.521078125 0.3186475124119246 0.9363510442241921
2.5222265625 0.32061311921683217 0.9354117824230745
2.523375 0.320350147035707 0.9354794546377414
2.5245234375 0.3217894178120944 0.9360975841884869
2.525671875 0.3225450180265531 0.9348032040723506
2.5268203125 0.3241215991822507 0.9346576489158722
2.52796875 0.3241108715956216 0.9335292532625862
2.5291171875 0.32412203880583634 0.932900872547602
2.530265625 0.32613830070697764 0.9331693715963543
2.5314140625 0.3266628858376154 0.9330667262831649
2.5325625 0.3262696535372716 0.931648313661022
2.5337109375 0.32752918012174603 0.9308188379982613
2.534859375 0.3289175118265693 0.931451598661499
2.5360078125 0.32969241624229095 0.9309469087416677
2.53715625 0.3295020168045093 0.9306302362231977
2.5383046875 0.33100070392282677 0.9302783089860712
2.539453125 0.33221852061412493 0.9280111388525282
2.5406015625 0.3323983531661862 0.9307023979862115
2.54175 0.33283557390893115 0.929566486044558
2.5428984375 0.3334156302032345 0.929098494510519
2.544046875 0.3334506430879398 0.9284677762147224
2.5451953125 0.33667281539151706 0.9275546393507774
2.54634375 0.33600810933433034 0.9280774480239388
2.5474921875 0.33796958606655664 0.9265026271962555
2.548640625 0.33869497192882314 0.9259321904662952
2.5497890625 0.3401897962805067 0.9260998207090125
2.5509375 0.33855582841885284 0.9255580681000348
2.5520859375 0.3403644007057818 0.9245432549069466
2.553234375 0.34208847504888623 0.9234033577885028
2.5543828125 0.34222423501298294 0.9249224508508409
2.55553125 0.34314863866199546 0.9228129268820494
2.5566796875 0.3435106171932185 0.9228857665750336
2.557828125 0.34539243739395614 0.9233086702671209
2.5589765625 0.34662881133661694 0.9241358162091926
2.560125 0.34775807866624087 0.9233038733951513
2.5612734375 0.3471163878210973 0.9219051238745976
2.562421875 0.3491104779307064 0.9217506579985579
2.5635703125 0.35042983500913344 0.9209455186906437
2.56471875 0.35118558460469246 0.9201267474795425
2.5658671875 0.35097812900647696 0.9203303786631114
2.567015625 0.352306751849512 0.9204370255875647
2.5681640625 0.3534710008243905 0.9203784569281479
2.5693125 0.35370435537650974 0.9201363053495344
2.5704609375 0.35380760931557986 0.9190859900754773
2.571609375 0.35475286518399163 0.9181771071249183
2.5727578125 0.35533513866340233 0.9185196212332636
2.57390625 0.3563535351227185 0.918210697242354
2.5750546875 0.35724644983040355 0.9180595372223024
2.576203125 0.3580307130596873 0.9182694306557437
2.5773515625 0.3593132109694436 0.9176665876977153
2.5785 0.3600555611936135 0.9165027379369051
2.5796484375 0.36005933818030206 0.9163436118644477
2.580796875 0.3618395088441997 0.9159675985621125
2.5819453125 0.36264521014467316 0.9157870781215962
2.58309375 0.36415467182839134 0.9154032117809026
2.5842421875 0.3641373076480497 0.9158658791263222
2.585390625 0.36537565941075645 0.9155970828424893
2.5865390625 0.3658868780161337 0.9146579463392406
2.5876875 0.3666537356213349 0.914441723145146
2.5888359375 0.36608159640347443 0.9145352653670435
2.589984375 0.36701862375562566 0.9138961710706492
2.5911328125 0.3689097071018974 0.9140976693319717
2.59228125 0.3691020506907775 0.9133986641791898
2.5934296875 0.3702631660972364 0.9135016254977097
2.594578125 0.3698138879273455 0.913028177767625
2.5957265625 0.3709620626275081 0.9128470271516221
2.596875 0.3720872128187768 0.9112306911532739
2.5980234375 0.37234101665328345 0.9113278288205009
2.599171875 0.37299647137315706 0.911418828172686
2.6003203125 0.3728455728937097 0.9099807434852192
2.60146875 0.3760662574149268 0.908838923083202
2.6026171875 0.3770196337982422 0.9091834931214918
2.603765625 0.3783353207311686 0.9089542811054646
2.6049140625 0.3771368123441066 0.9082061709189783
2.6060625 0.3781646054447922 0.9077184167001713
2.6072109375 0.38043708942569293 0.9076595509414966
2.608359375 0.38002107197201995 0.9091002294377242
2.6095078125 0.3803542925678266 0.90590565204341
2.61065625 0.38157714963632233 0.90686329289697
2.6118046875 0.38062623178728666 0.9065299258549793
2.612953125 0.38386010482471355 0.904986102007459
2.6141015625 0.3837656617525577 0.9059730978419576
2.61525 0.3849490369993588 0.9066384735799838
2.6163984375 0.3849858143746571 0.9049834812635417
2.617546875 0.38631983148138316 0.9045297944376408
2.6186953125 0.3873192779950644 0.9032695389960922
2.61984375 0.3870753377564496 0.9059406805911281
2.6209921875 0.38661535126399227 0.9035923469213877
2.622140625 0.38898910825908506 0.9042514342886239
2.6232890625 0.38915720848320706 0.9032892006237921
2.6244375 0.3905338264238464 0.9033915775846232
2.6255859375 0.39202260095119035 0.9014169216766458
2.626734375 0.3931924061599299 0.9007856837620968
2.6278828125 0.39319237590233075 0.9008104638142448
2.62903125 0.39538007137419673 0.8999184598139622
2.6301796875 0.3964144023009733 0.8997960764642811
2.631328125 0.39744045430341646 0.8994052628702052
2.6324765625 0.4002062027754798 0.8990028155329934
2.633625 0.4002108043217086 0.898416672512458
2.6347734375 0.4006667123649176 0.8978757284088569
2.635921875 0.3999776438082439 0.8966426975459284
2.6370703125 0.4019141446526742 0.8971121079948051
2.63821875 0.40235541416806203 0.8963461602562748
2.6393671875 0.4030901899580983 0.8948564825821975
2.640515625 0.4034220951076459 0.895311458176098
2.6416640625 0.4038228381412198 0.8942770736725438
2.6428125 0.4050026987339647 0.8942790641196432
2.6439609375 0.4059471669272356 0.8940287760000644
2.645109375 0.4069073840738705 0.8937386697677341
2.6462578125 0.40706635717610484 0.8923748537547717
2.64740625 0.4073285662218718 0.8916871094198595
2.6485546875 0.40977763353344726 0.8926239949809669
2.649703125 0.4099026254509163 0.8915804422088807
2.6508515625 0.4106495363350989 0.8918668707072326
2.652 0.41146232494963497 0.8918658207054442
2.6531484375 0.41254488284269875 0.8906871670306865
2.654296875 0.41304977012637795 0.8902063815129866
2.6554453125 0.4138995459999197 0.8906227572664414
2.65659375 0.4149684481842349 0.8898188633871348
2.6577421875 0.4150538329971515 0.8895016489569062
2.658890625 0.4162097024879896 0.8887813518820322
2.6600390625 0.41817437506672667 0.8892471196295431
2.6611875 0.4185053986037372 0.8881367079089606
2.6623359375 0.4197624800094318 0.8882458799320881
2.663484375 0.4210835656243786 0.888169296863797
2.6646328125 0.4214168399308118 0.8865258477823865
2.66578125 0.42239837935344504 0.8862937745436494
2.6669296875 0.4241204295938466 0.8860858764311748
2.668078125 0.42358659134679116 0.8846808648055954
2.6692265625 0.4258457738809749 0.8827233062454567
2.670375 0.42543166927949516 0.8850008221470432
2.6715234375 0.4265141094623954 0.8839534676520724
2.672671875 0.4277616314776744 0.8839574612835677
2.6738203125 0.42809073507304507 0.8837333981679825
2.67496875 0.42954397579289544 0.8831539943825107
2.6761171875 0.4306136106122515 0.8831185551711063
2.677265625 0.4302496073288052 0.8822003928748536
2.6784140625 0.43207572082338236 0.8819951719080334
2.6795625 0.431146672485983 0.8827999646820307
2.6807109375 0.4326262336593782 0.8815379846708534
2.681859375 0.4326994086938406 0.8820361861704659
2.6830078125 0.43341248598433 0.8805354067074145
2.68415625 0.4342246523003732 0.8801093221063114
2.6853046875 0.43472480853830986 0.879495443325957
2.686453125 0.4366593356138215 0.8777928309050893
2.6876015625 0.43725520511600013 0.8783787599962177
2.68875 0.43698580257850217 0.8783362874282447
2.6898984375 0.4393094729741564 0.8774491788508606
2.691046875 0.4408393601391485 0.8765228617418024
2.6921953125 0.4401877833283401 0.8753599780315805
2.69334375 0.4406759384424282 0.8765052977432066
2.6944921875 0.44106050545241315 0.8760398917380197
2.695640625 0.4430530216266392 0.8751322115057437
2.6967890625 0.4441332170815809 0.8744507530895343
2.6979375 0.44484961615688323 0.8743589133380381
2.6990859375 0.4444828224876221 0.873544906357795
2.700234375 0.44601377912984685 0.8726966158528386
2.7013828125 0.4464882670949405 0.8719750662873562
2.70253125 0.44857772737047374 0.8714977426629096
2.7036796875 0.4484947186464495 0.8725173557507471
2.704828125 0.44909203830481936 0.8716322400994088
2.7059765625 0.44974587450193587 0.8707256874906587
2.707125 0.4501156648084962 0.8703134549159599
2.7082734375 0.4499409186949597 0.8697504236092587
2.709421875 0.45029915048459773 0.8698143094332303
2.7105703125 0.45179984298458437 0.8701878802306421
2.71171875 0.45103096452524805 0.8693228834667225
2.7128671875 0.45242363314446365 0.8699195051586941
2.714015625 0.45275941352798527 0.868976858586692
2.7151640625 0.453326929553437 0.8684696541084675
2.7163125 0.4545570825878003 0.8675963225139216
2.7174609375 0.45433763480523137 0.8673607271761073
2.718609375 0.4553699712680151 0.8672537123714363
2.7197578125 0.4564293145764433 0.8670206853141272
2.72090625 0.45821237632469247 0.8664297501035458
2.7220546875 0.45790999250597625 0.8669322276261696
2.723203125 0.4587662675352837 0.8654066796364589
2.7243515625 0.45972248436464225 0.8655479768170504
2.7255 0.45908054401879106 0.8632754321024496
2.7266484375 0.4598608815244706 0.8627630310543076
2.727796875 0.4605126569677593 0.863066016824676
2.7289453125 0.4620536936448294 0.8622513580119048
2.73009375 0.46252401054280107 0.8624140625416354
2.7312421875 0.4639077824459139 0.8618946589513986
2.732390625 0.46338020389152174 0.8625548389862976
2.7335390625 0.4631658627299471 0.8611714850130712
2.7346875 0.4638118390021652 0.8610084519771408
2.7358359375 0.46595083958199796 0.8608529636703659
2.736984375 0.46678873686460104 0.860209434458515
2.7381328125 0.46850059057354093 0.858850949515134
2.73928125 0.46862295663231324 0.8601857218964971
2.7404296875 0.46924289605968594 0.8562493247540259
2.741578125 0.4702470790175779 0.8561524429763292
2.7427265625 0.46986250757159903 0.8558704945931007
2.743875 0.47090712885476393 0.8539770601834509
2.7450234375 0.4703178054726227 0.8540182727334357
2.746171875 0.47324859890838633 0.8535255373450642
2.7473203125 0.4737970461895255 0.8539684152046267
2.74846875 0.4744342102343293 0.8537042650855957
2.7496171875 0.47632853675499714 0.8528928508060915
2.750765625 0.47482744865313575 0.8547866930242286
2.7519140625 0.47551644092477574 0.8529530181465059
2.7530625 0.4755317797464719 0.8509017536201893
2.7542109375 0.47747201505482323 0.8504242762087382
2.755359375 0.4794706187111016 0.8501833687717512
2.7565078125 0.4800214550677556 0.8511282024828637
2.75765625 0.48237784131674044 0.8505659776087859
2.7588046875 0.48132636503326864 0.8486772202180762
2.759953125 0.4814740639631475 0.8498564603382638
2.7611015625 0.4830442720753836 0.8483665562179671
2.76225 0.48408031721036404 0.8485917717135836
2.7633984375 0.4855102455254534 0.8473771444344204
2.764546875 0.48504143029167046 0.8464020033968257
2.7656953125 0.48564561013425805 0.8463440873237947
2.76684375 0.48678185188864576 0.8463439635985618
2.7679921875 0.48830125220770126 0.8452298585398237
2.769140625 0.4873322103308196 0.8461166697230419
2.7702890625 0.48947335511550966 0.8439804340358527
2.7714375 0.4900629591651063 0.8440612106140202
2.7725859375 0.49171447341356256 0.843758524093985
2.773734375 0.49267853750937557 0.8444291496520117
2.7748828125 0.4929567776130732 0.8438492890136763
2.77603125 0.4947842822362296 0.8426240391470061
2.7771796875 0.49491674357554105 0.84206612311749
2.778328125 0.49580033996817896 0.841716507325168
2.7794765625 0.49631127974704886 0.8420132082958612
2.780625 0.49694863225134134 0.8411367641795534
2.7817734375 0.4976323498314815 0.840379679946895
2.782921875 0.498761550193987 0.8410035715528008
2.7840703125 0.49952504106346945 0.8403889472034622
2.78521875 0.5000940600496537 0.8394443100710635
2.7863671875 0.5004972225586332 0.8407464467412904
2.787515625 0.5012098860604112 0.8397325852527804
2.7886640625 0.5018711375631496 0.8396788646214963
2.7898125 0.5016077064107393 0.8407794859223027
2.7909609375 0.5027887919273748 0.8397608275990961
2.792109375 0.5024765559111819 0.8400500617942732
2.7932578125 0.504417768948522 0.8394858957971978
2.79440625 0.5044012998202032 0.8382125768142502
2.7955546875 0.5048152933800473 0.8377717861670679
2.796703125 0.5063141842487371 0.8383865789962115
2.7978515625 0.5065257014472064 0.8372516400579306
2.799 0.5068933810983596 0.8367480323086214
2.8001484375 0.507734338325775 0.8360548466897456
2.801296875 0.5086333758030405 0.8354486883670953
2.8024453125 0.5090477495202145 0.8354238756146766
2.80359375 0.5113575327242776 0.8348430449740873
2.8047421875 0.5105775844356484 0.8336771061444214
2.805890625 0.5116610788339941 0.8332093816834604
2.8070390625 0.5149550327931286 0.8343499145065075
2.8081875 0.513909187013792 0.8329189873143942
2.8093359375 0.5158723185112286 0.832449319590769
2.810484375 0.5143872977375892 0.8315945675231619
2.8116328125 0.5159793031946291 0.8304919635161409
2.81278125 0.5163179808194249 0.8297518612360276
2.8139296875 0.5173312241198995 0.8298291401629486
2.815078125 0.5176299432522281 0.8291391426766652
2.8162265625 0.5175624478670567 0.8290079602172402
2.817375 0.5196839466586027 0.8279461414303134
2.8185234375 0.5199317280741187 0.8260806668213525
2.819671875 0.5218980946846208 0.8253900709219248
2.8208203125 0.522615445142518 0.8254590595937257
2.82196875 0.5228909138256491 0.8251535361477689
2.8231171875 0.5241658707679271 0.8245551112105974
2.824265625 0.524666277887532 0.822881632562924
2.8254140625 0.5261447181025254 0.8228255226686759
2.8265625 0.5264700104900601 0.8229774785921256
2.8277109375 0.5269967459010991 0.822103261007436
2.828859375 0.5280106630810776 0.8197795008791811
2.8300078125 0.529312331732803 0.8197355401956613
2.83115625 0.5297127475557285 0.8179253907341457
2.8323046875 0.531181690051246 0.8174441610573029
2.833453125 0.5315991271984822 0.8161208839880701
2.8346015625 0.5321167962931033 0.8171568099355832
2.83575 0.5331713233104118 0.8153160840812328
2.8368984375 0.5338936470862965 0.8142528083717883
2.838046875 0.53510716816237 0.8150281925868659
2.8391953125 0.5356532991836498 0.8144375543999566
2.84034375 0.5362341251211803 0.8136998033485073
2.8414921875 0.5367387431504071 0.8131638893683198
2.842640625 0.5372732084184471 0.81239454016311
2.8437890625 0.5388682444751156 0.8120360173553243
2.8449375 0.5405024586197992 0.811478419708682
2.8460859375 0.5400538046515053 0.8109381054264132
2.847234375 0.5416551806284885 0.8099603804496419
2.8483828125 0.5419706315358163 0.8087668622836258
2.84953125 0.5428788687791807 0.8086146061695253
2.8506796875 0.5439422481438153 0.8079319058877109
2.851828125 0.5448032201541827 0.8086762390974044
2.8529765625 0.5449548449249818 0.8084787039572733
2.854125 0.5464262255918779 0.8069272873077076
2.8552734375 0.5462797093493947 0.8068618169362732
2.856421875 0.5463617608807045 0.8066371831340413
2.8575703125 0.5464810666544018 0.8059914772922864
2.85871875 0.5476954658852645 0.804895740761411
2.8598671875 0.5491696800880737 0.8040463287022692
2.861015625 0.5496251189428412 0.8041409791599041
2.8621640625 0.5491551931476372 0.8043672787280564
2.8633125 0.5502143508648416 0.8056219467015139
2.8644609375 0.5509545648235259 0.8047092919639666
2.865609375 0.5507562531234629 0.8028621001988705
2.8667578125 0.5512501411080859 0.8018216770151693
2.86790625 0.5525536663507368 0.8008699714227765
2.8690546875 0.5529443740876351 0.8011157743854961
2.870203125 0.5534617547595715 0.8022068715694723
2.8713515625 0.5548432246156004 0.8027487865054997
2.8725 0.5553591933213526 0.8011927246015041
2.8736484375 0.5547578183355455 0.8000909361046035
2.874796875 0.5569318759640868 0.7994995433264469
2.8759453125 0.5576116447909069 0.7990719427752309
2.87709375 0.5579134978753844 0.7985545260033067
2.8782421875 0.5578759568730467 0.7986311801929623
2.879390625 0.5578217481987912 0.7983078017986754
2.8805390625 0.5598641709223633 0.7977279208725209
2.8816875 0.5590350851177407 0.7966346136718552
2.8828359375 0.5590124913354712 0.7955628549331347
2.883984375 0.5603150460494194 0.794701059841836
2.8851328125 0.5606013837743484 0.793504652287768
2.88628125 0.5601169114899535 0.7944590888346801
2.8874296875 0.5598325058186434 0.7935221551184245
2.888578125 0.5602514239667449 0.7907758221606505
2.8897265625 0.5627104292533197 0.7919911808107987
2.890875 0.5621927227792998 0.791304839234447
2.8920234375 0.5633415190303835 0.7904287789849673
2.893171875 0.5638460785769253 0.7903523952480386
2.8943203125 0.5634916679358429 0.7889864955045336
2.89546875 0.564662351330336 0.7889023145616675
2.8966171875 0.5651959052362759 0.7876279559060683
2.897765625 0.5668288958909665 0.7867876309162258
2.8989140625 0.56792860151468 0.7873188836141121
2.9000625 0.5673052838166821 0.7866573480978479
2.9012109375 0.5679960935154488 0.7860501509594324
2.902359375 0.5684404056813863 0.7859828107449716
2.9035078125 0.568693726471509 0.785356729967988
2.90465625 0.5704346836801115 0.7851277204916239
2.9058046875 0.5716419214355979 0.7833018348193421
2.906953125 0.5716917054026396 0.7806779600791962
2.9081015625 0.5716837790559958 0.7804628847531925
2.90925 0.5724252426060898 0.7804615864780964
2.9103984375 0.5729624117533143 0.7791400524078123
2.911546875 0.5735111768424438 0.7804778894036769
2.9126953125 0.57473706017832 0.7793264209986689
2.91384375 0.5744579949287281 0.7780925525584035
2.9149921875 0.5753729446976449 0.7773869977237169
2.916140625 0.5757411454720582 0.7786100844519864
2.9172890625 0.5762430232756847 0.7786393346068274
2.9184375 0.5774300613118613 0.7773521114145844
2.9195859375 0.5788626998846813 0.7763795353221811
2.920734375 0.5786955102726773 0.7765715136671506
2.9218828125 0.5790392061909733 0.7756312781722474
2.92303125 0.5797136500158195 0.7752455210052859
2.9241796875 0.58130295118009 0.7748110283137579
2.925328125 0.5825500398024315 0.7752584680159907
2.9264765625 0.5819760388833125 0.7741373274454724
2.927625 0.5840430136649714 0.773460056389454
2.9287734375 0.5853053941269082 0.7734732634211661
2.929921875 0.5853161430953286 0.7723558150026408
2.9310703125 0.5857612502849416 0.7723540771470061
2.93221875 0.5872587499305527 0.7715486781826384
2.9333671875 0.5874729506988003 0.771108306437656
2.934515625 0.5879029690675971 0.7711928565081381
2.9356640625 0.5891487655197921 0.7708678950635829
2.9368125 0.589750793773127 0.7694476571053637
2.9379609375 0.5905110948277328 0.7700661138308122
2.939109375 0.5897082862416987 0.7682806029801169
2.9402578125 0.5914552930276552 0.7701116725654555
2.94140625 0.591269161906554 0.7703329483752478
2.9425546875 0.5926364734440568 0.7703191710232892
2.943703125 0.592255116144985 0.7689989428099481
2.9448515625 0.5933081934168164 0.7689977767843863
2.946 0.5931789153788798 0.7677041518973802
2.9471484375 0.5934502193778594 0.7683771915203296
2.948296875 0.5941989577809251 0.766822753388489
2.9494453125 0.5945495403028217 0.766092011906755
2.95059375 0.5951890383375791 0.7667229131126617
2.9517421875 0.5962484099931167 0.7670765966593588
2.952890625 0.5963378552541871 0.7664580663100684
2.9540390625 0.5965970068235343 0.7656542101596473
2.9551875 0.596941908156724 0.765081619599136
2.9563359375 0.5974550298528585 0.7640780317883887
2.957484375 0.5986514449353778 0.7637712995472427
2.9586328125 0.5986082289202744 0.7639543095906203
2.95978125 0.5995421004126263 0.7632566717023038
2.9609296875 0.5995622674515686 0.7613808499276791
2.962078125 0.6001483574137065 0.7612438565340316
2.9632265625 0.6006216340313251 0.7609559756157752
2.964375 0.6007245414676639 0.7606653471336462
2.9655234375 0.6024517174200593 0.7610216973265156
2.966671875 0.6031619140903395 0.7606900949363808
2.9678203125 0.6032355861706464 0.7597679950533363
2.96896875 0.603560996011041 0.7594068384807019
2.9701171875 0.6047825044812585 0.7582677907127626
2.971265625 0.6049469186481522 0.7584664636465348
2.9724140625 0.6056368383318064 0.758290417088183
2.9735625 0.606105967145339 0.7559627757947666
2.9747109375 0.60670863016908 0.7549172762863591
2.975859375 0.6074439918085464 0.7544060597882593
2.9770078125 0.6071935362226915 0.7544066858764176
2.97815625 0.6072475083908224 0.7531499933486452
2.9793046875 0.6086453971848772 0.752316077987552
2.980453125 0.6096016266394807 0.752709007753805
2.9816015625 0.6105264152149814 0.752189691075641
2.98275 0.6110541039450845 0.7520399244457666
2.9838984375 0.6130731184471968 0.7509805042849594
2.985046875 0.6142841201460304 0.7502942053576878
2.9861953125 0.6149271544678234 0.7499869507668925
2.98734375 0.615431985296996 0.7494250382106017
2.9884921875 0.6166962252162725 0.7484435639324866
2.989640625 0.6171788512285546 0.747952241139945
2.9907890625 0.6195181097766298 0.7463475059813042
2.9919375 0.6192909283250948 0.7460470449319904
2.9930859375 0.6202731767521645 0.744485481593898
2.994234375 0.6213944675884937 0.7443854875419074
2.9953828125 0.6229420184183346 0.7437586610273758
2.99653125 0.6234601270346036 0.7440742781113899
2.9976796875 0.6242045545330555 0.7444193764099849
2.998828125 0.6248395663195478 0.7437223362607094
2.9999765625 0.6250835011136023 0.7431589225522015
3.001125 0.6263778568963752 0.7422194694969748
3.0022734375 0.626920396688204 0.7427674147116647
3.003421875 0.6278669129289064 0.7418407246716201
3.0045703125 0.6283343069799598 0.7414544539219321
3.00571875 0.6287770400293361 0.7406534702291613
3.0068671875 0.6302628218186005 0.7405533033747708
3.008015625 0.6312889143173245 0.7397492614494927
3.0091640625 0.6323300619919209 0.7391086455780966
3.0103125 0.6319521916021692 0.7386218616383747
3.0114609375 0.6331163790895513 0.7368561905530614
3.012609375 0.6347235937498281 0.7374421049645649
3.0137578125 0.6352118965008824 0.7369482549287703
3.01490625 0.6356597634069324 0.7354652722564525
3.0160546875 0.6364370369496952 0.7350504077609845
3.017203125 0.6371033446229151 0.7355933001141327
3.0183515625 0.6384308323515152 0.734674519664926
3.0195 0.6377921172035839 0.7343663387475861
3.0206484375 0.6391882467138966 0.7331786175983513
3.021796875 0.6388663799352086 0.7328114897142638
3.0229453125 0.6395393073481368 0.7331158713837537
3.02409375 0.6398770424765207 0.7327323860560729
3.0252421875 0.6410482901892648 0.7318933335692347
3.026390625 0.6405070210154139 0.7314918007788538
3.0275390625 0.6404174863263755 0.7305812034276148
3.0286875 0.6425615519942823 0.730934935632276
3.0298359375 0.6425428055461502 0.7304181483577653
3.030984375 0.6429825724381681 0.7297269893837728
3.0321328125 0.6423545979136176 0.7299758085228134
3.03328125 0.6431003248485359 0.7294170521500657
3.0344296875 0.6436478233512766 0.7301807317739925
3.035578125 0.6442962592527715 0.7290501867566118
3.0367265625 0.6443655491688136 0.7280848293242056
3.037875 0.6456107731361642 0.7276964820999002
3.0390234375 0.6454044468994418 0.7272742774331606
3.040171875 0.6465549616282795 0.7272143090640353
3.0413203125 0.6470497151503071 0.7271991979647725
3.04246875 0.6487092462076943 0.7257373896421095
3.0436171875 0.6493790140771885 0.7248675088291479
3.044765625 0.6498834293689537 0.7236388864713524
3.0459140625 0.6502645586549628 0.7243717102903023
3.0470625 0.6495572743629574 0.7235926276427814
3.0482109375 0.6522367237627021 0.720359359054408
3.049359375 0.653026807321041 0.7218089526267534
3.0505078125 0.6527057905800098 0.7199623709580716
3.05165625 0.6533432498831889 0.7189898017649681
3.0528046875 0.6546062995324856 0.7194750776259311
3.053953125 0.6559814503903724 0.7171950999286599
3.0551015625 0.6560498270611843 0.7183817290864566
3.05625 0.6570406538686486 0.7174749720510701
3.0573984375 0.6570641615161374 0.716536930181311
3.058546875 0.6566408939936873 0.7152983344891959
3.0596953125 0.6586030428740949 0.7150241025303945
3.06084375 0.6588472529825644 0.7128137708722647
3.0619921875 0.6594329554388151 0.7117147748221203
3.063140625 0.6602819802883246 0.7109381586050411
3.0642890625 0.6615161886342223 0.7104246802145019
3.0654375 0.6624338319797618 0.7096692703769177
3.0665859375 0.6638807672203215 0.7097227909810881
3.067734375 0.6640968435339004 0.7085451721801101
3.0688828125 0.6649679750933749 0.7076185917309241
3.07003125 0.6660313273780962 0.7081869563918289
3.0711796875 0.6665384153739329 0.7077209706915443
3.072328125 0.666169416282246 0.7072361926001987
3.0734765625 0.6658263235278127 0.7056663832767277
3.074625 0.6684972847643936 0.7059726644879305
3.0757734375 0.668020187024678 0.7061857118461765
3.076921875 0.6679297915365814 0.7059014853872398
3.0780703125 0.6690381567403015 0.7050864016284065
3.07921875 0.6691286075743277 0.704897473590749
3.0803671875 0.6695548893131305 0.7033725845342519
3.081515625 0.6695255366594977 0.7032581528183562
3.0826640625 0.6713178083118239 0.7034185667418207
3.0838125 0.6715507610536358 0.701978151615764
3.0849609375 0.6720801185754722 0.701525208809278
3.086109375 0.6733261950816357 0.7010008121759151
3.0872578125 0.6737337631962677 0.6995245266015607
3.08840625 0.6747593555351904 0.7000254244240917
3.0895546875 0.6759330415431214 0.6989838990584866
3.090703125 0.6763844059769982 0.6987829695021566
3.0918515625 0.6767461008187264 0.6980205640240249
3.093 0.676473969259363 0.6973948565019731
3.0941484375 0.6771668786290844 0.6968666621302738
3.095296875 0.678326093085497 0.6958943638777453
3.0964453125 0.6792769894877309 0.6949109995131387
3.09759375 0.6794392465211581 0.6945561453100387
3.0987421875 0.6803602159227248 0.6944704272477962
3.099890625 0.6805085142339489 0.6942853452150168
3.1010390625 0.6805163640457674 0.693617299461796
3.1021875 0.6809340437190978 0.693074425569967
3.1033359375 0.6805971244837107 0.6926380551004506
3.104484375 0.681606583882238 0.6916746647598118
3.1056328125 0.6816231538883155 0.6912550565439418
3.10678125 0.6819735142278868 0.6907489773959187
3.1079296875 0.6832178226586095 0.6906012045404797
3.109078125 0.6845014753470647 0.6909583790327136
3.1102265625 0.6841870228043323 0.6890847327771653
3.111375 0.68454319038956 0.6882066178575732
3.1125234375 0.6848117077494326 0.688819359734773
3.113671875 0.6857188766447466 0.6871587705529221
3.1148203125 0.6854025070282247 0.6869264373143442
3.11596875 0.6867832853151324 0.686748050783044
3.1171171875 0.6871614293245102 0.6866535244584151
3.118265625 0.6874156359740229 0.6860227497887416
3.1194140625 0.68858760471032 0.6856972138564841
3.1205625 0.6880672141738624 0.6838409791761937
3.1217109375 0.6885983707565788 0.6841003455014234
3.122859375 0.6904579836446553 0.6843812316467719
3.1240078125 0.6911263065027183 0.6838275561984065
3.12515625 0.6914783936506762 0.682659407051768
3.1263046875 0.6926755177304549 0.6828070929678346
3.127453125 0.6927507634085093 0.6812900293680879
3.1286015625 0.6913433704303255 0.6810910863396713
3.12975 0.6933255702836263 0.6794347075068345
3.1308984375 0.6942200801627724 0.6796819829514178
3.132046875 0.6953393162849568 0.6775758921774114
3.1331953125 0.6946537845608598 0.6767708310877656
3.13434375 0.6964859967011312 0.6761378027922127
3.1354921875 0.6966080018118392 0.67637843332425
3.136640625 0.6981432654417371 0.6755451772930483
3.1377890625 0.6976437953925371 0.6756299233368747
3.1389375 0.6990386334737305 0.6754056806192961
3.1400859375 0.6998956953170022 0.6733961941203448
3.141234375 0.699978925345737 0.6734161416984645
3.1423828125 0.7006348318770641 0.6725939738389141
3.14353125 0.7013678057020788 0.6719857417209016
3.1446796875 0.7016605454734718 0.6714316811241491
3.145828125 0.7027680617077346 0.6704180992704307
3.1469765625 0.7023623225912612 0.6697340105462204
3.148125 0.7032995534971892 0.669026739966087
3.1492734375 0.7040806139614699 0.6688117497822043
3.150421875 0.7039174907115279 0.6676407032927263
3.1515703125 0.7047059828718026 0.6671674107760234
3.15271875 0.7053189502328815 0.6672263030182152
3.1538671875 0.7056944429184162 0.666513488488506
3.155015625 0.7067780385214864 0.665681277079256
3.1561640625 0.7075531572706888 0.6647897995280456
3.1573125 0.7082630743775611 0.6643163110596864
3.1584609375 0.7087641299786798 0.6629793898839197
3.159609375 0.7092469024496593 0.662910758736161
3.1607578125 0.708895036229447 0.6625423581162951
3.16190625 0.7097500845772358 0.66155908375532
3.1630546875 0.7114068954423484 0.6613691748451769
3.164203125 0.7115741905062265 0.6603952128135907
3.1653515625 0.7116649642849574 0.6595434065588911
3.1665 0.7127473126184911 0.6594106140683049
3.1676484375 0.7135526162753342 0.6585230500976222
3.168796875 0.7132793000069384 0.6578634733453531
3.1699453125 0.7144675070588169 0.657333152726937
3.17109375 0.7153028476144679 0.6573239284176587
3.1722421875 0.7152972789643449 0.6566391695303956
3.173390625 0.7157959953553643 0.6560119840222642
3.1745390625 0.7167347880572628 0.655625565056536
3.1756875 0.7172384515937139 0.6546160619548436
3.1768359375 0.7174504788992571 0.6534532117328606
3.177984375 0.7184989934552134 0.6527711612328577
3.1791328125 0.7185780574542223 0.6522912166255163
3.18028125 0.7199307764793333 0.6521855852956162
3.1814296875 0.7195433275598148 0.6516553786246069
3.182578125 0.7207385396607278 0.6515730103073625
3.1837265625 0.7213894278550559 0.6509641637415017
3.184875 0.7206815743424363 0.6490806688966098
3.1860234375 0.7221995548468816 0.6495561078653912
3.187171875 0.7226791275368332 0.6491428122567579
3.1883203125 0.7225235765738506 0.6480954689358424
3.18946875 0.7229468538858489 0.6476941218750545
3.1906171875 0.7238060459755591 0.6468158231734883
3.191765625 0.7245180913065125 0.646773676382666
3.1929140625 0.7242328427153548 0.6460565998980515
3.1940625 0.7256207040674151 0.6452199945847472
3.1952109375 0.7260901205267422 0.6447036258518978
3.196359375 0.7261306401411479 0.6438401841499602
3.1975078125 0.727477729649684 0.6429444312627044
3.19865625 0.727681183578843 0.6429495456342091
3.1998046875 0.727713507311059 0.6423040994750897
3.200953125 0.7287939435904919 0.64212574844601
3.2021015625 0.730179822668587 0.6413371860287568
3.20325 0.7303302823339218 0.6405012053815965
3.2043984375 0.7309919234949311 0.6394286069897657
3.205546875 0.7309914508657557 0.6397554827565832
3.2066953125 0.7317165267249244 0.6386037753859453
3.20784375 0.7319985146737463 0.6378976610174536
3.2089921875 0.7328332730935692 0.6370849637172266
3.210140625 0.7334293817397458 0.636863298370253
3.2112890625 0.7337983028612332 0.6367279724059133
3.2124375 0.7348319693992296 0.6360492083097176
3.2135859375 0.7353296263425931 0.6353347451249362
3.214734375 0.7359425849501084 0.6342371689529326
3.2158828125 0.7362575618814018 0.6336809225674376
3.21703125 0.7368933731999501 0.6339148767551002
3.2181796875 0.7369891557656127 0.6333651930533147
3.219328125 0.737347568178584 0.6327215134851605
3.2204765625 0.7384610394347723 0.6320833441621475
3.221625 0.7391069919357518 0.6316865326379075
3.2227734375 0.7390797300613763 0.6307644886244395
3.223921875 0.7401998706090613 0.6305522730820631
3.2250703125 0.740380038757523 0.6295351576071593
3.22621875 0.7413775935455292 0.6290193694165415
3.2273671875 0.7418915766971141 0.6282783690483212
3.228515625 0.7426511171010896 0.6275791747635497
3.2296640625 0.7425614101038837 0.6270373558076987
3.2308125 0.7429221626499132 0.6268292244013884
3.2319609375 0.7441859967807583 0.6264300565059755
3.233109375 0.744888751445177 0.6251669766406454
3.2342578125 0.7449468132442422 0.6246196336141836
3.23540625 0.7458068379523042 0.6248605689523148
3.2365546875 0.7464426656108223 0.6239001187334686
3.237703125 0.7474836506939663 0.6233673547995203
3.2388515625 0.7480874584965902 0.6235078561737999
3.24 0.7488834973057032 0.6223957373034628
3.2411484375 0.7487872455835477 0.6218893830034129
3.242296875 0.7496529831419827 0.6209323913754292
3.2434453125 0.7501906032604816 0.6207273928089181
3.24459375 0.7507921824436734 0.6199121623511944
3.2457421875 0.7511793498763815 0.6194210948613422
3.246890625 0.7525855877485368 0.6189437776497987
3.2480390625 0.7530600433307836 0.6183043014050692
3.2491875 0.7534324455156298 0.616605653697542
3.2503359375 0.753656266562735 0.6172197835265386
3.251484375 0.7538099215383466 0.6158107343118278
3.2526328125 0.7546449072508008 0.614881653174936
3.25378125 0.7551268057300164 0.6149515304487747
3.2549296875 0.7547323925890397 0.613675232870178
3.256078125 0.7565115458524581 0.612732814958864
3.2572265625 0.7569504862486729 0.6119723817428948
3.258375 0.7584276047023935 0.6119993430416141
3.2595234375 0.7576831389561358 0.6116353500915589
3.260671875 0.7587188810017006 0.6116049099805317
3.2618203125 0.7589395672478186 0.6103853660920389
3.26296875 0.7594939709742026 0.610455265422746
3.2641171875 0.7586188618294418 0.6098907063774374
3.265265625 0.7598919390273916 0.6083916764382611
3.2664140625 0.7608065508631928 0.608758460900327
3.2675625 0.7611347168741571 0.6073003819531447
3.2687109375 0.7617946349746157 0.6068978132896836
3.269859375 0.7629408111926715 0.6066788556259406
3.2710078125 0.7627291528395439 0.6058796460277055
3.27215625 0.7630059116441545 0.6053777142824173
3.2733046875 0.7636149414294761 0.6053211301816768
3.274453125 0.7637524447860521 0.6038244765448028
3.2756015625 0.7646677985837291 0.6036868758927769
3.27675 0.7649836316124137 0.6030973609633228
3.2778984375 0.7659289620574656 0.6026130595577015
3.279046875 0.7666154304367362 0.60119404217567
3.2801953125 0.7668508895223637 0.6011355045856424
3.28134375 0.7673371760111175 0.6010697425725773
3.2824921875 0.7680735713909389 0.6002505248283678
3.283640625 0.7684039626795364 0.5994834897603472
3.2847890625 0.7696515908806192 0.5988590268135948
3.2859375 0.7698762508548158 0.5975723801203775
3.2870859375 0.7703236387059128 0.5972171026070999
3.288234375 0.7705045063104505 0.5969088295818002
3.2893828125 0.7705073941558376 0.5963996543773169
3.29053125 0.7713856608459158 0.5957784312723996
3.2916796875 0.7720291390336189 0.5954672284593283
3.292828125 0.7725713501281585 0.5942506124707735
3.2939765625 0.7730841007410723 0.5937446864606187
3.295125 0.7738116477758791 0.5933019325769608
3.2962734375 0.7742169152774574 0.5929140135232106
3.297421875 0.7745274592998486 0.5921273237600211
3.2985703125 0.7754795910453268 0.5908532551064976
3.29971875 0.7756599007152842 0.590586401041627
3.3008671875 0.7762372713376768 0.5901347605969516
3.302015625 0.7764309599672202 0.5888472250688707
3.3031640625 0.7768085379899846 0.5881045301368593
3.3043125 0.778433898128476 0.5874897587268032
3.3054609375 0.778693814373293 0.5868147736750737
3.306609375 0.7789807671712142 0.5861167487283725
3.3077578125 0.7792914568981274 0.5859221531166676
3.30890625 0.7804482492238904 0.5849962467003549
3.3100546875 0.7801128622541991 0.5847025350539751
3.311203125 0.7810490453350609 0.5836550128096708
3.3123515625 0.7804337836793176 0.5827954192492075
3.3135 0.7815358119959558 0.582477409933304
3.3146484375 0.7824616472723289 0.5818182659658694
3.315796875 0.7834221860651769 0.5812720381112995
3.3169453125 0.7833259886480662 0.5808268166512964
3.31809375 0.7842986928109141 0.5792855418682582
3.3192421875 0.7842498016185899 0.5787827059661403
3.320390625 0.7845130233563087 0.5768247221176023
3.3215390625 0.7848453781513427 0.5774818387969892
3.3226875 0.7855015472340434 0.576290973105506
3.3238359375 0.78550355407201 0.5764172049865595
3.324984375 0.7869323498205445 0.5761883732432985
3.3261328125 0.7877910046819708 0.5744677341028711
3.32728125 0.7876760249399465 0.5739720473347224
3.3284296875 0.78810796315847 0.5736236067847957
3.329578125 0.7889289040072792 0.5722578662411222
3.3307265625 0.7886397481393757 0.5711530447033949
3.331875 0.7889663921892462 0.5707214172310012
3.3330234375 0.7903266694162181 0.5709603161973966
3.334171875 0.7902612310174221 0.5708563000204149
3.3353203125 0.7909139415017576 0.5698612513796437
3.33646875 0.7922880432110989 0.568500318150886
3.3376171875 0.7922332881503457 0.5681551837448728
3.338765625 0.7921539757570885 0.5669381366374473
3.3399140625 0.792687702806886 0.5669283947188232
3.3410625 0.7940193460112152 0.566386307778108
3.3422109375 0.7940176806510882 0.565739489275391
3.343359375 0.7950184960673417 0.5641613713094009
3.3445078125 0.795445959088473 0.5640567282872797
3.34565625 0.7959174241979475 0.5631561326890868
3.3468046875 0.7956241344313603 0.56187166455244
3.347953125 0.7960417907103138 0.5621249279160715
3.3491015625 0.7968096111396363 0.5614378479017226
3.35025 0.7970721335157575 0.5604081750749034
3.3513984375 0.7978077123805124 0.5599361021316918
3.352546875 0.798432210224633 0.5588237959262932
3.3536953125 0.7988498528611729 0.5587392129388725
3.35484375 0.798904814042714 0.5575736145519797
3.3559921875 0.7999268456454582 0.5573519096353208
3.357140625 0.8008713350076766 0.5572018501084244
3.3582890625 0.8003872993484539 0.556062922379533
3.3594375 0.8008859196507959 0.5559837255163822
3.3605859375 0.8012249923613631 0.5551683614033807
3.361734375 0.8013417283329017 0.5546974442350965
3.3628828125 0.8014653528052952 0.5537925327443232
3.36403125 0.8030169135737398 0.5536413565632171
3.3651796875 0.8036698953047438 0.5529739808337776
3.366328125 0.8046317995217416 0.5522468989366925
3.3674765625 0.804894007393143 0.5514077656016263
3.368625 0.8055270262644477 0.5504913484487859
3.3697734375 0.8063918101377078 0.549978499281251
3.370921875 0.8070839180896364 0.5497924781579518
3.3720703125 0.8069301628568584 0.5490265764596903
3.37321875 0.8071160676557707 0.5482875152536848
3.3743671875 0.8077743351006365 0.547823118691369
3.375515625 0.8091823375643389 0.5475762416403058
3.3766640625 0.8089623566772732 0.5465792064665288
3.3778125 0.8090566164173956 0.5460018862289899
3.3789609375 0.8106028258577009 0.5451575847154545
3.380109375 0.8109183868485108 0.5453160877327666
3.3812578125 0.8111951624964135 0.5443738377707396
3.38240625 0.8124007903830195 0.5440881167183488
3.3835546875 0.81227528969063 0.543031686808986
3.384703125 0.8134165708094587 0.541602261561046
3.3858515625 0.8136911398068477 0.5416727182274197
3.387 0.8137331167939311 0.5407527672520349
3.3881484375 0.8143887083808871 0.5402855649683184
3.389296875 0.8159164886397601 0.5390074140999846
3.3904453125 0.8161511726774271 0.5388838682315987
3.39159375 0.8157629068806878 0.5377052527514896
3.3927421875 0.8169236843583833 0.5365489036454386
3.393890625 0.8182008276471001 0.5360746293507261
3.3950390625 0.8189602615448474 0.5361040101743086
3.3961875 0.8185815388243507 0.5351393002862768
3.3973359375 0.8193162526840598 0.5344332032655439
3.398484375 0.8201858864980456 0.5342001221909387
3.3996328125 0.8206180106429466 0.5332694602006641
3.40078125 0.8206729617351436 0.5328475651146368
3.4019296875 0.8211299950041635 0.5324002904288154
3.403078125 0.8222355385717528 0.5316244426195261
3.4042265625 0.8220406986191481 0.5305731703760758
3.405375 0.8222018964760485 0.5307134493045481
3.4065234375 0.8228098002509066 0.5296242531131495
3.407671875 0.8228212552660663 0.5285776747222254
3.4088203125 0.8237273251354866 0.5287902967222595
3.40996875 0.8240695552263567 0.5282262037929016
3.4111171875 0.8245593668642238 0.5279800722451162
3.412265625 0.8255647688154609 0.5275707081818686
3.4134140625 0.8257702469638546 0.5269832693622359
3.4145625 0.8256333732821759 0.5261856542685144
3.4157109375 0.8261776439364837 0.5254703891493391
3.416859375 0.8268713810441395 0.5248356679707066
3.4180078125 0.8277609332301483 0.5245213266212112
3.41915625 0.8283683250379181 0.5239429221342444
3.4203046875 0.8293749986787387 0.5231864449718151
3.421453125 0.8290007975949389 0.5222792742486566
3.4226015625 0.829324708392853 0.5211136031325692
3.42375 0.8299140946418287 0.5206862668784568
3.4248984375 0.8300641222237226 0.5199382687002384
3.426046875 0.8317366920434701 0.5191213788023489
3.4271953125 0.8320249279155372 0.5194358688456047
3.42834375 0.8325519628943417 0.5180601875390165
3.4294921875 0.8331286341634325 0.5176274545005929
3.430640625 0.8339727366142498 0.516123787274502
3.4317890625 0.8343572230265524 0.5162693345149935
3.4329375 0.8352262848556037 0.5149110928274155
3.4340859375 0.8351639521716839 0.5147505987234859
3.435234375 0.8379410033022789 0.5144040127814825
3.4363828125 0.8381900508099731 0.5137511964132346
3.43753125 0.8381414101017173 0.5124774098139543
3.4386796875 0.839363923027552 0.5116373404381799
3.439828125 0.8388816631138923 0.5105078729026945
3.4409765625 0.8390318135617396 0.5112316854692092
3.442125 0.8394830064221883 0.5098237963981741
3.4432734375 0.8404569135072516 0.508354333304752
3.444421875 0.8419168862633382 0.5075538614645498
3.4455703125 0.8414047313855649 0.5082703372091979
3.44671875 0.8408236316819243 0.5064656381461359
3.4478671875 0.8414547565238718 0.5053043164539708
3.449015625 0.843333124571692 0.5048252320427149
3.4501640625 0.8429829683667383 0.5049580484675009
3.4513125 0.8423437364381383 0.5037629766370613
3.4524609375 0.84285450132741 0.5029779579910997
3.453609375 0.8439551216393103 0.5027077393934578
3.4547578125 0.8426593455799141 0.5019995501910066
3.45590625 0.8442024115494877 0.5011206312440863
3.4570546875 0.8441833069119129 0.500538417724947
3.458203125 0.8441795197258197 0.4992867840721334
3.4593515625 0.8443082694707008 0.4986318099610154
3.4605 0.845556637348272 0.49727985879210224
3.4616484375 0.8456707355630098 0.4978737011841887
3.462796875 0.8459264927943204 0.4962603738481294
3.4639453125 0.8470626801002148 0.4966662395535648
3.46509375 0.8475303315341681 0.49522551202113807
3.4662421875 0.8483673307426887 0.4942201406517977
3.467390625 0.8466598112561163 0.4934766552672459
3.4685390625 0.8478918949719184 0.4921555617920218
3.4696875 0.8487201379581777 0.49071038974798564
3.4708359375 0.8489263325765745 0.4899869416171392
3.471984375 0.8489469518159263 0.4904603614427786
3.4731328125 0.8499688807863932 0.4896299073049883
3.47428125 0.8500300230674707 0.4885243390715555
3.4754296875 0.8512086811897159 0.4877864631537663
3.476578125 0.8518870329797139 0.4870936197910238
3.4777265625 0.8518180121825683 0.48624906358524744
3.478875 0.8531282664351978 0.4860782036219182
3.4800234375 0.8524106296565094 0.48534948031639075
3.481171875 0.852895737789453 0.4852075696833155
3.4823203125 0.8536879085327815 0.48466392882095044
3.48346875 0.8539249873095915 0.4849562285924426
3.4846171875 0.855101411457672 0.4838002897932502
3.485765625 0.8556106737070858 0.4824864528277232
3.4869140625 0.8554995579134854 0.48152791760178015
3.4880625 0.8565224342268287 0.481001623713857
3.4892109375 0.8562107645833832 0.47958745801352637
3.490359375 0.8559862698041499 0.4794631639724473
3.4915078125 0.8568977839202668 0.4784754504262988
3.49265625 0.857290349331389 0.47751801557592444
3.4938046875 0.8584104463834284 0.4757129140345343
3.494953125 0.858897642145132 0.476687494332329
3.4961015625 0.8590149373753622 0.4759769319464907
3.49725 0.8596966590893462 0.4750801371700113
3.4983984375 0.860143649429433 0.47410984911271004
3.499546875 0.8605317466103726 0.4730400464190712
3.5006953125 0.8600491964201639 0.47282088764374186
3.50184375 0.8604053762783087 0.47233703964249424
3.5029921875 0.8618677155258677 0.4716317427300979
3.504140625 0.8617844180047843 0.47128852875941335
3.5052890625 0.8631583407747142 0.4707877239710242
3.5064375 0.864879625239499 0.4695374626313034
3.5075859375 0.8650459799553063 0.4688931698577433
3.508734375 0.8645599482858543 0.46897467784167174
3.5098828125 0.864923462414171 0.4682344453935771
3.51103125 0.8657081667861488 0.4680807715474109
3.5121796875 0.8668875050347301 0.46675943660939334
3.513328125 0.8683764820480064 0.4661302646098059
3.5144765625 0.8680171850438428 0.46472569581049805
3.515625 0.8680007487754489 0.4633450079278063
3.5167734375 0.8676520169796944 0.4634343302031847
3.517921875 0.8679410390419242 0.4629475988677301
3.5190703125 0.8689640210535967 0.46073298780355065
3.52021875 0.8687357459983832 0.46167630791629055
3.5213671875 0.8694403492390296 0.4602683075347634
3.522515625 0.8697585978169172 0.45941023384439916
3.5236640625 0.8710838102176214 0.45822153627011825
3.5248125 0.8709181815301166 0.4583641453536048
3.5259609375 0.8722289543148616 0.4571506937651591
3.527109375 0.8717201816184268 0.4564755531375413
3.5282578125 0.8710562359069447 0.4545130395260429
3.52940625 0.8719461306579321 0.4540364292488679
3.5305546875 0.8728112119289084 0.4528764187727831
3.531703125 0.873344630866941 0.45238938996085953
3.5328515625 0.8732228184770755 0.45092493425645036
3.534 0.8732661162744836 0.44970066291679
3.5351484375 0.8734315154404128 0.45031852330508276
3.536296875 0.8747785722723613 0.4483176192556182
3.5374453125 0.8744414043633082 0.4488475496799214
3.53859375 0.8746877958755874 0.44818193871634754
3.5397421875 0.8742447686696738 0.44665544030940457
3.540890625 0.875166170078553 0.4466397653266102
3.5420390625 0.8753165985453188 0.4456359236038653
3.5431875 0.8752454708437166 0.4456071682174341
3.5443359375 0.8770355622133763 0.4445749377100628
3.545484375 0.8771265396077412 0.4443168759924746
3.5466328125 0.8769458514921025 0.4432961687224064
3.54778125 0.8778398193174415 0.44316731594205494
3.5489296875 0.8788582702542822 0.4417458496669788
3.550078125 0.8789144840830624 0.44120415786583617
3.5512265625 0.8800545602697315 0.4398189680892366
3.552375 0.8801669839580639 0.4398616818294582
3.5535234375 0.8805022914277888 0.43906263817870494
3.554671875 0.881897246040806 0.4385305237132298
3.5558203125 0.8821940003785678 0.43729605580776515
3.55696875 0.8825048768885618 0.43617856096451735
3.5581171875 0.8828820288994761 0.43543834794676606
3.559265625 0.8830919719349158 0.43542857065766083
3.5604140625 0.8838911291026905 0.435077603494033
3.5615625 0.8841300363934623 0.43375732405622164
3.5627109375 0.8850532141483882 0.43375583535151946
3.563859375 0.8845091751287754 0.43198752130043283
3.5650078125 0.8846693877226034 0.43114088835740505
3.56615625 0.8861379104503221 0.4306096119014793
3.5673046875 0.8867781776917901 0.43105062899364455
3.568453125 0.8867066857723637 0.43039306553463463
3.5696015625 0.8868175471822666 0.4287786575632352
3.57075 0.8879525779089064 0.4294387790703863
3.5718984375 0.888719653463661 0.42813218853701224
3.573046875 0.8886738518770301 0.42767584677138637
3.5741953125 0.8898834214162182 0.42885004306215346
3.57534375 0.8891247647201568 0.42764305655644375
3.5764921875 0.8912004003416687 0.4269045664062189
3.577640625 0.8903356020575344 0.42641981021920106
3.5787890625 0.8918299730831065 0.4249632843764495
3.5799375 0.891358699770178 0.4238263008590196
3.5810859375 0.8913286544227627 0.4234704263495896
3.582234375 0.892468251259591 0.422795895639017
3.5833828125 0.8923814588828449 0.42266303404828276
3.58453125 0.893798029546224 0.4215651235769615
3.5856796875 0.8936724298722134 0.4211078560634009
3.586828125 0.8940086378628764 0.4205698303135175
3.5879765625 0.8942375778068254 0.41980156559852605
3.589125 0.895375434780967 0.42012968318341365
3.5902734375 0.8953841932015559 0.41893648557058255
3.591421875 0.8946542355471956 0.418603574013939
3.5925703125 0.8954670142742676 0.4184575535446152
3.59371875 0.8957918629154575 0.41682756165495105
3.5948671875 0.8959266748813698 0.4156324017305809
3.596015625 0.8956270410002102 0.4148797553249016
3.5971640625 0.8957421869679494 0.4152762212641475
3.5983125 0.896916731008244 0.4140494712086691
3.5994609375 0.8961277789669131 0.41346238067257457
3.600609375 0.8970237290651522 0.41211285111808477
3.6017578125 0.8989144597257929 0.4121675325968567
3.60290625 0.8977834047712623 0.41257179317332954
3.6040546875 0.8988747449361869 0.40970877216141943
3.605203125 0.8978607465374913 0.4077582644851926
3.6063515625 0.8985765366501104 0.40705479914271164
3.6075 0.8990641386945544 0.4051104528210091
3.6086484375 0.8992305913106347 0.4046247366226594
3.609796875 0.9003550986469324 0.4048204267583208
3.6109453125 0.8998584634614113 0.4039352565933313
3.61209375 0.9005986447719987 0.40317281969803653
3.6132421875 0.901316748332948 0.4025734967806657
3.614390625 0.9013758054676749 0.4016619486745622
3.6155390625 0.9018768000829024 0.4013512052491674
3.6166875 0.9020258794821625 0.40059760003379885
3.6178359375 0.9023846325145073 0.3996635203757556
3.618984375 0.9032272288410719 0.3989940841253083
3.6201328125 0.9028472602329447 0.3982236785937483
3.62128125 0.90491840374708 0.39835957806975786
3.6224296875 0.9041458736026793 0.3964385193283462
3.623578125 0.904522031985563 0.3953538065120315
3.6247265625 0.9046447322876325 0.39507438757576663
3.625875 0.9055514241984088 0.39374021569375706
3.6270234375 0.9062415588836069 0.39445464742912284
3.628171875 0.9068613592360921 0.3935152919400154
3.6293203125 0.9066077943714517 0.3920280149035299
3.63046875 0.9080856522179542 0.3910959797955909
3.6316171875 0.9074823498089395 0.3904586520623621
3.632765625 0.9085377343893142 0.3902049263343018
3.6339140625 0.9087346854371924 0.3892942811149762
3.6350625 0.9097200164979367 0.3886255855157505
3.6362109375 0.9115904761506524 0.38714508447652946
3.637359375 0.9104599237676979 0.3851854135232865
3.6385078125 0.9118053742597667 0.38441989294655843
3.63965625 0.9118756307206617 0.38407180295968657
3.6408046875 0.9126700756186404 0.38418738837240496
3.641953125 0.9127910480174882 0.38205319704287366
3.6431015625 0.9145969353287327 0.38215460285844716
3.64425 0.9147238661062229 0.38137072901416785
3.6453984375 0.9151998539970101 0.37966215793272484
3.646546875 0.9154044616626678 0.3785053415802757
3.6476953125 0.9150708898265125 0.37766798272642194
3.64884375 0.9152736032734521 0.37711082573754123
3.6499921875 0.9170190665348951 0.3768743048865991
3.651140625 0.9172403687623149 0.3769039132347931
3.6522890625 0.916610725030075 0.3762246854858305
3.6534375 0.9177882785973777 0.3750815833555569
3.6545859375 0.9172510854155711 0.3752776053032232
3.655734375 0.9177456381640882 0.3743629206452911
3.6568828125 0.9167801347578695 0.37303908350508036
3.65803125 0.9173344233214424 0.37334315704486887
3.6591796875 0.9169589293791178 0.3717966916587992
3.660328125 0.917633510712275 0.3712687716565592
3.6614765625 0.9177613575436723 0.370697908187207
3.662625 0.9180709585609625 0.37111328206489314
3.6637734375 0.9183339394825268 0.37102441885152826
3.664921875 0.9190990966078841 0.36910345034738185
3.6660703125 0.9193361398736186 0.36851745923163726
3.66721875 0.9199781162912645 0.36901464117477056
3.6683671875 0.9191133053615648 0.36780202923875605
3.669515625 0.9198293493619842 0.3680396280466515
3.6706640625 0.9193232218742295 0.36513117095316583
3.6718125 0.9196248880134418 0.36471660649817456
3.6729609375 0.9209929729474188 0.36449312552796037
3.674109375 0.9212757214113282 0.36369675651564787
3.6752578125 0.9208970597912465 0.36368915408775804
3.67640625 0.9213095996981333 0.36229218980023015
3.6775546875 0.9214125372508296 0.36214107492949893
3.678703125 0.9228052969804571 0.35986003170374387
3.6798515625 0.9227630258981815 0.359955427060038
3.681 0.9226497275891967 0.3593524133588337
3.6821484375 0.9233815243307514 0.357270302875342
3.683296875 0.9246638301201284 0.356706941875528
3.6844453125 0.9247832466330762 0.3560493723465418
3.68559375 0.9245973893849432 0.35489000292142897
3.6867421875 0.9251548610849024 0.3543346125526019
3.687890625 0.9252952683840168 0.3534046873408948
3.6890390625 0.9255714088880788 0.35234522188845824
3.6901875 0.9260059238969104 0.3520898129954224
3.6913359375 0.9270989356850451 0.351160328270843
3.692484375 0.927104180432907 0.34982042964990795
3.6936328125 0.9278060560717012 0.3492055278869302
3.69478125 0.9290374027013452 0.3484092208095012
3.6959296875 0.9288442918288897 0.34732666772653237
3.697078125 0.9292584704167994 0.3465414794565266
3.6982265625 0.9295030029621489 0.3460323976631219
3.699375 0.9303892168337844 0.3452158518020155
3.7005234375 0.9311998556237653 0.3428359540798612
3.701671875 0.9304880579879733 0.3434060280640117
3.7028203125 0.9323351930278304 0.3423478538491279
3.70396875 0.9320552231655765 0.3409959684770006
3.7051171875 0.9318323835078506 0.3379769994446418
3.706265625 0.9327075691546532 0.337415600889426
3.7074140625 0.933767424505089 0.33704715019370435
3.7085625 0.9326628419919506 0.33571698215349977
3.7097109375 0.9347547520611438 0.3347992980721732
3.710859375 0.9341801704787767 0.33476501061602837
3.7120078125 0.9357423012453939 0.3322523871489408
3.71315625 0.9360758861265454 0.3324393647278304
3.7143046875 0.9373086811547849 0.3318089644484712
3.715453125 0.9379253912385078 0.33234401361971366
3.7166015625 0.9382281733810518 0.33130449437479825
3.71775 0.939249767550274 0.3300598853557052
3.7188984375 0.9394640148737603 0.3301750934188244
3.720046875 0.9407586352462425 0.32918642266835746
3.7211953125 0.9407143191661594 0.3284970530205085
3.72234375 0.9408085319208572 0.3282887887406653
3.7234921875 0.9405343382855174 0.3274079176256153
3.724640625 0.9411543118417992 0.3269298451399074
3.7257890625 0.9415757005054262 0.3262596991142914
3.7269375 0.9422558963354069 0.32623939849138156
3.7280859375 0.9423555094532639 0.32512902549586054
3.729234375 0.9431965284183415 0.3247950631359794
3.7303828125 0.9426590231771987 0.3240750852321311
3.73153125 0.9423231850108497 0.32359055345036025
3.7326796875 0.9406809590884947 0.3218967368716011
3.733828125 0.9427713071212191 0.3221694962858445
3.7349765625 0.9430467930642892 0.3210902763978259
3.736125 0.9430561372967464 0.31931613664482444
3.7372734375 0.9431479528861617 0.3182779385268025
3.738421875 0.9426095568048143 0.3176982071404392
3.7395703125 0.9432333764151982 0.31705397119234086
3.74071875 0.9432263567008079 0.316618426017713
3.7418671875 0.9439035421093913 0.3155843592100263
3.743015625 0.94417807546522 0.3150916803774849
3.7441640625 0.9450385982003656 0.3152749475077747
3.7453125 0.9446090500060187 0.3131633135600624
3.7464609375 0.9449496845978014 0.31332586560565645
3.747609375 0.9451601326420641 0.3120942240276483
3.7487578125 0.9452981033622884 0.31119630227379447
3.74990625 0.9457478362701579 0.31065808054395044
3.7510546875 0.9458408169651877 0.3097877532047108
3.752203125 0.9467598268064303 0.3098122150125911
3.7533515625 0.9463592037818729 0.30884439746684866
3.7545 0.9464016917151519 0.3078749284645506
3.7556484375 0.9465671267759856 0.3068832577952816
3.756796875 0.9459261259823252 0.30573297775943475
3.7579453125 0.9459013058943433 0.3050875855585658
3.75909375 0.9473162533248781 0.3047670887430605
3.7602421875 0.9461769990599397 0.30265118396964885
3.761390625 0.9474781166001937 0.3022305884887998
3.7625390625 0.9464357581193032 0.3015495955732975
3.7636875 0.9472258026277921 0.30072278947671444
3.7648359375 0.9467036187961723 0.2994672493688091
3.765984375 0.9467932687629411 0.2986656062365821
3.7671328125 0.9493812848784311 0.2975735589064746
3.76828125 0.9488697877045785 0.2976121117534918
3.7694296875 0.9486792544026782 0.2962042947943365
3.770578125 0.9482953488075608 0.29423982491591844
3.7717265625 0.9494365152353053 0.2949617330792456
3.772875 0.9495803796787972 0.29285845637547736
3.7740234375 0.9507423189124754 0.2923376211512291
3.775171875 0.952016645025467 0.2918284608953062
3.7763203125 0.9509947707983681 0.2903730985272565
3.77746875 0.9519983671556205 0.28873333699250847
3.7786171875 0.9525492318402446 0.28725998701615346
3.779765625 0.9536599568524886 0.28803486862109473
3.7809140625 0.9540325856410632 0.28677076015449887
3.7820625 0.9536331830959074 0.28505343757290014
3.7832109375 0.955242422944913 0.28469034645424685
3.784359375 0.9559270676142895 0.2837806643408657
3.7855078125 0.9564213847188585 0.28358768359882053
3.78665625 0.9570388030048893 0.2824223584585921
3.7878046875 0.9564029821886938 0.2820465748274593
3.788953125 0.9573829630951496 0.28066251780444595
3.7901015625 0.9563534200562487 0.2796990372933459
3.79125 0.9578149986076134 0.2784763781485144
3.7923984375 0.9582819677972374 0.2788494522087399
3.793546875 0.9594096065240849 0.27807708387895147
3.7946953125 0.9589264470085486 0.2770960431660087
3.79584375 0.9589612632984084 0.2750598721592847
3.7969921875 0.9604657930084893 0.2754563652029463
3.798140625 0.9598350662910287 0.27531980097821174
3.7992890625 0.960292094453372 0.2736970370728035
3.8004375 0.9606433663131164 0.2737137713272582
3.8015859375 0.9601988576206142 0.2728728739410656
3.802734375 0.9603569017839038 0.2713038287382915
3.8038828125 0.9605920109985695 0.2707492349858546
3.80503125 0.9615901868210504 0.2702058603385783
3.8061796875 0.9614415705704935 0.2686840464224934
3.807328125 0.9621467441452072 0.2685367926075068
3.8084765625 0.9617066912394285 0.2678894468663285
3.809625 0.9618872668446821 0.2661758573102657
3.8107734375 0.9620959372936886 0.26528894345703385
3.811921875 0.9626990121296537 0.26539494757597015
3.8130703125 0.9637509477475248 0.26476968138314033
3.81421875 0.9641627032151022 0.26390432560084154
3.8153671875 0.9632319935274057 0.26254671595808454
3.816515625 0.9639335769869136 0.2610673438374081
3.8176640625 0.9647135785354141 0.26045582942208423
3.8188125 0.9650915278894544 0.2607780278189575
3.8199609375 0.9651096643613627 0.2603346569798817
3.821109375 0.9655928308838276 0.2588556544976293
3.8222578125 0.9658057408969535 0.25780977560875024
3.82340625 0.9663191015688513 0.25688322011383113
3.8245546875 0.9641784164238227 0.25537927146159145
3.825703125 0.9647399769972833 0.2554373394098487
3.8268515625 0.9647973327110781 0.254523534441782
3.828 0.9658080452824509 0.2537907299053861
3.8291484375 0.9663966791057577 0.2529421483710186
3.830296875 0.9661627456478166 0.2532783462906031
3.8314453125 0.9663111688249145 0.2510767224086334
3.83259375 0.9644149197262052 0.2505263279210736
3.8337421875 0.965091330344392 0.2495792640041698
3.834890625 0.9664985023983748 0.24992421510676455
3.8360390625 0.9661519959235898 0.24855417650382527
3.8371875 0.9664475788289244 0.24674033829577058
3.8383359375 0.966640233414068 0.24464018702076562
3.839484375 0.9665324101303406 0.24480178385780604
3.8406328125 0.9681689039533576 0.24402984368614578
3.84178125 0.9681634339832291 0.2429178455683813
3.8429296875 0.96808652737163 0.24118252145237912
3.844078125 0.9682717819213915 0.24026722213351975
3.8452265625 0.9695706445984473 0.23738595050802824
3.846375 0.9696372462119847 0.2377353632201059
3.8475234375 0.9692529741479692 0.23644130232958205
3.848671875 0.9700298773507985 0.23631448471033845
3.8498203125 0.9695638252879873 0.2345841095296205
3.85096875 0.9708220925065068 0.23365522474454675
3.8521171875 0.9708304043823246 0.23395622033735142
3.853265625 0.9720776503642758 0.233023888750031
3.8544140625 0.9719100454291123 0.23109737463842028
3.8555625 0.9722557415366551 0.22933737211305277
3.8567109375 0.9718618798034319 0.22867777006085294
3.857859375 0.971629572976556 0.22725403629395913
3.8590078125 0.9724828176392796 0.2271573729008073
3.86015625 0.9739387375012425 0.2264341195336218
3.8613046875 0.9733255452828689 0.22459116489042708
3.862453125 0.9735692986349033 0.22414616176586094
3.8636015625 0.9733574011191968 0.2234827174949986
3.86475 0.9737729127493637 0.22327650258652276
3.8658984375 0.9746057910246935 0.22282143727565512
3.867046875 0.9756202419915446 0.2220721523402185
3.8681953125 0.9751594196636225 0.2207962348423122
3.86934375 0.9758687163559422 0.21922540540588303
3.8704921875 0.9753668941802238 0.2195862785812719
3.871640625 0.9760230606586298 0.21885422382845993
3.8727890625 0.975070476038432 0.21752734619010028
3.8739375 0.9750200033860233 0.21671698895071234
3.8750859375 0.9755938491854756 0.21501207745758194
3.876234375 0.9756589873394258 0.21456564553677476
3.8773828125 0.9757017550509836 0.21349091854948188
3.87853125 0.9762563542424723 0.21241792009762078
3.8796796875 0.9759195752841228 0.2113251858674165
3.880828125 0.976125871979236 0.21044427552090797
3.8819765625 0.9766882806839616 0.2093051285561919
3.883125 0.97668882301075 0.20856028620543868
3.8842734375 0.9760006137101341 0.20764280656014722
3.885421875 0.9763237256343534 0.20710990891429598
3.8865703125 0.9760404249356652 0.20667020548024384
3.88771875 0.9773265732842688 0.20534761033641427
3.8888671875 0.9774467120599902 0.20422536246470524
3.890015625 0.977120583610038 0.20399344481636184
3.8911640625 0.9763383813964969 0.20345330763256914
3.8923125 0.9771822562156354 0.2013630698195984
3.8934609375 0.976944353234754 0.202396868867363
3.894609375 0.9764336317457049 0.202003567658798
3.8957578125 0.9776080077025744 0.20011546698700872
3.89690625 0.9775662703247162 0.19968871447111913
3.8980546875 0.9771711054156613 0.19812034654959332
3.899203125 0.9782809661092585 0.1980548484921819
3.9003515625 0.9784422316898352 0.19757290842441846
3.9015 0.9788105892203014 0.19660599489347969
3.9026484375 0.978459515797602 0.19555461532977292
3.903796875 0.9783974490029544 0.19481053366295234
3.9049453125 0.9788636201756731 0.19369510824254146
3.90609375 0.9790734298506123 0.19152099083534652
3.9072421875 0.9794359134358213 0.19165837499052613
3.908390625 0.9801580084736491 0.19075367395026205
3.9095390625 0.9787499004534532 0.19044112497801213
3.9106875 0.9785083514658104 0.18921628165407867
3.9118359375 0.9791327219388717 0.18791772381419788
3.912984375 0.9780333314287578 0.18590903072795406
3.9141328125 0.9788708033115423 0.18594709846244808
3.91528125 0.9787371275762865 0.18474167345107392
3.9164296875 0.9798566022063545 0.18358418562229928
3.917578125 0.979486727528604 0.18289975255012797
3.9187265625 0.9806200518444373 0.18113237298536988
3.919875 0.9798293358554235 0.18060897637872347
3.9210234375 0.9794635842881251 0.17868198476348118
3.922171875 0.9803204068191773 0.17817415441117138
3.9233203125 0.981549562258906 0.17735357660716705
3.92446875 0.981157790597382 0.17576342281762095
3.9256171875 0.9820327989269176 0.17511049577395238
3.926765625 0.9831299053545728 0.17511734062350057
3.9279140625 0.9832056269894702 0.17437652297941453
3.9290625 0.9832688950246535 0.17285709287404585
3.9302109375 0.9836368511511328 0.17350437374072167
3.931359375 0.9828831579689629 0.17213664293919942
3.9325078125 0.9839251917987192 0.17243376972268537
3.93365625 0.9835578997980684 0.1708099960035843
3.9348046875 0.9849224321492174 0.17077582555243892
3.935953125 0.9844396470020862 0.1689280520017818
3.9371015625 0.9850667313878377 0.16668312566247612
3.93825 0.9851517492868385 0.1672024542874085
3.9393984375 0.9849460994030675 0.16596188585917593
3.940546875 0.9849583131166124 0.16575724243810352
3.9416953125 0.9850344157511883 0.16412523540853358
3.94284375 0.986079394078423 0.16318216326700946
3.9439921875 0.9857528780148143 0.16254370766883525
3.945140625 0.9858307668854112 0.16134444375544943
3.9462890625 0.9865055573224925 0.16019006421972104
3.9474375 0.9865074807222602 0.15880995063552633
3.9485859375 0.98701386648716 0.15880826621303495
3.949734375 0.9874410409913057 0.15774951544049298
3.9508828125 0.9870013716644133 0.15709626347298888
3.95203125 0.9862597593793702 0.1562456945817191
3.9531796875 0.9861882803824448 0.15579196371265103
3.954328125 0.9862395696642456 0.15529360396672415
3.9554765625 0.9868045506838915 0.1536922944480255
3.956625 0.9866051054513576 0.1518798848693308
3.9577734375 0.9874398404739622 0.1516127688808006
3.958921875 0.9874623440139781 0.15154159805867523
3.9600703125 0.9875111948844477 0.1509632936742969
3.96121875 0.98817838150271 0.14981533778154527
3.9623671875 0.9879203559998085 0.14946217668133338
3.963515625 0.9877448894648662 0.1487449427979481
3.9646640625 0.9885630593861338 0.14846274576632118
3.9658125 0.9885008930671982 0.1484469908954269
3.9669609375 0.9890812315023395 0.14646473769744173
3.968109375 0.9891696601143131 0.1461180556511904
3.9692578125 0.9892366633507026 0.14577766727050662
3.97040625 0.9890848598133717 0.14565742701960083
3.9715546875 0.9898758605689287 0.14385711098005555
3.972703125 0.9906448716233166 0.14250894108232903
3.9738515625 0.9896973840087476 0.14128087345150903
3.975 0.9902044343331396 0.14082163910436674
3.9761484375 0.9893715154043679 0.14177810809261948
3.977296875 0.989996659214387 0.13957295155174237
3.9784453125 0.9901031211005238 0.13927276292390772
3.97959375 0.9903190944555149 0.137170908849785
3.9807421875 0.9901536853038956 0.13580768746918787
3.981890625 0.9903050922973351 0.13604870044412265
3.9830390625 0.9907385255176158 0.13529178204764541
3.9841875 0.991099080473465 0.1339524885078463
3.9853359375 0.9904788776724167 0.1322882054342585
3.986484375 0.9910459362480091 0.13245045409679973
3.9876328125 0.9913834746975139 0.13040122109421637
3.98878125 0.9908296805936846 0.12888895595023142
3.9899296875 0.9920001250988848 0.12908463911289475
3.991078125 0.9918516724519477 0.12937125843381397
3.9922265625 0.9917220008898122 0.12784219145389603
3.993375 0.9917077495201554 0.12635804443138055
3.9945234375 0.9909295749482963 0.12604181422184058
3.995671875 0.9910124481475904 0.1252130517236924
3.9968203125 0.99153151607036 0.12387078089755654
3.99796875 0.991108488995657 0.122337099556107
3.9991171875 0.9920011426050517 0.12225746282149652
4.000265625 0.992424651703943 0.1217704880439483
4.0014140625 0.9924072942401073 0.12138713426873832
4.0025625 0.9924712980910508 0.11997830164732892
4.0037109375 0.9924680844334675 0.11921661073805184
4.004859375 0.9932297183263857 0.11808347715277029
4.0060078125 0.9933780718598916 0.11685046718322795
4.00715625 0.993905693611828 0.11593494986968333
4.0083046875 0.993728378385974 0.11563321547228173
4.009453125 0.9936666235577899 0.11419400456642065
4.0106015625 0.9942918114281247 0.11305599978905512
4.01175 0.993336726457194 0.11271351772837368
4.0128984375 0.9928878313615656 0.1121199111664295
4.014046875 0.9933040005069138 0.11053226451806081
4.0151953125 0.9935947165180512 0.10958627938571897
4.01634375 0.9932719054916859 0.10872539630994787
4.0174921875 0.9940504477812475 0.1071612440500872
4.018640625 0.99464990806701 0.10701100669872499
4.0197890625 0.9943392684360596 0.10555086918368706
4.0209375 0.9942016620551106 0.1043701002093343
4.0220859375 0.9937154011670019 0.10302873484968339
4.023234375 0.99344602697601 0.10303440137832154
4.0243828125 0.9943984994564357 0.10141341026756001
4.02553125 0.9938897106936944 0.10070260756014682
4.0266796875 0.9938144777031992 0.09946166506205412
4.027828125 0.9947153535727629 0.09897699212274547
4.0289765625 0.9951877521892051 0.09810850083661338
4.030125 0.9947658489403048 0.09742740333431371
4.0312734375 0.9939651075641572 0.09698739591952116
4.032421875 0.9940838658879223 0.09583368205499304
4.0335703125 0.9939839013585108 0.09533689891641056
4.03471875 0.9949160179865453 0.09394317962921528
4.0358671875 0.9945443678468839 0.09282608696961187
4.037015625 0.9955896187058269 0.09288620244042889
4.0381640625 0.9965256878812506 0.09231148256819133
4.0393125 0.9958670113956545 0.09126788915486223
4.0404609375 0.9961711978775228 0.09023233909269007
4.041609375 0.9951651546450009 0.08999285167408672
4.0427578125 0.9961900927827226 0.08828861046362285
4.04390625 0.9954241855628368 0.08735859896724624
4.0450546875 0.9956079327581422 0.08684564597536426
4.046203125 0.9957957956732452 0.08606777879042221
4.0473515625 0.9961092335866494 0.08461904949621646
4.0485 0.9971703635636879 0.08345446367748904
4.0496484375 0.9963451652030315 0.08211244191543943
4.050796875 0.9961526022197761 0.08134766532914883
4.0519453125 0.9961719286054453 0.080329449349689
4.05309375 0.9967388777362748 0.07962389718616825
4.0542421875 0.9967377033126603 0.07766615737787103
4.055390625 0.9966753645393877 0.07631903575011623
4.0565390625 0.9969536078808168 0.07592798186114263
4.0576875 0.9960730098979566 0.07557860738923888
4.0588359375 0.9963335007819528 0.07399670967111271
4.059984375 0.9958481582789401 0.07320826727699181
4.0611328125 0.9968908038902472 0.07176564522832785
4.06228125 0.9971960208400419 0.07011073893239717
4.0634296875 0.9973370524899103 0.069564082644413
4.064578125 0.9973959613086343 0.06853174571085463
4.0657265625 0.9965174778261514 0.06772422738734446
4.066875 0.9969481430634437 0.06732438989701206
4.0680234375 0.9963769524949914 0.06607063575525363
4.069171875 0.9969230138836404 0.06505712654549445
4.0703203125 0.9970788298969008 0.06438368130831862
4.07146875 0.9975927500989009 0.06345137393908151
4.0726171875 0.9976772844808579 0.06251061356155091
4.073765625 0.9975928461508762 0.06165550289993865
4.0749140625 0.9970774832223608 0.06117786634215783
4.0760625 0.997133586975044 0.060397028775789896
4.0772109375 0.9971237487597129 0.05954293007855771
4.078359375 0.9976014369551495 0.05867898443344177
4.0795078125 0.9977626342824877 0.057865945624016535
4.08065625 0.9980163477216994 0.056519186090054685
4.0818046875 0.9984258053025136 0.05511698286689071
4.082953125 0.9977343168644857 0.05542989027890499
4.0841015625 0.9972805878989212 0.053535513170832605
4.08525 0.9971141971777395 0.05217341001241277
4.0863984375 0.9974563276785131 0.051468491306574826
4.087546875 0.9976372984083987 0.051557379606867126
4.0886953125 0.9981644231866965 0.049524104645876615
4.08984375 0.9984587208229241 0.04817233888201128
4.0909921875 0.9975323253785473 0.04641376525123653
4.092140625 0.9980273031094151 0.04724555053069093
4.0932890625 0.9981123080056755 0.045424504565723806
4.0944375 0.9976509383160197 0.04494729243297668
4.0955859375 0.9976275377382118 0.043854827218945514
4.096734375 0.9980070057289298 0.0435486588230693
4.0978828125 0.9988087569865702 0.042346663999624
4.09903125 0.9987037019066132 0.04161270380851542
4.1001796875 0.9981753246826719 0.040968783121335006
4.101328125 0.9981202430649705 0.03993656689149941
4.1024765625 0.9984835304541599 0.03947544636982475
4.103625 0.9987964829623985 0.038176293307328996
4.1047734375 0.9984942126609273 0.03675458186334932
4.105921875 0.9992016262497856 0.03664426595621992
4.1070703125 0.9981822249716028 0.03547086729702131
4.10821875 0.9989992793926898 0.03495266146736012
4.1093671875 0.9995052545871673 0.034563245408387455
4.110515625 0.9986542123242927 0.033255169274506835
4.1116640625 0.9991461694973506 0.03239198566308521
4.1128125 0.9988978209940163 0.030816115242074837
4.1139609375 0.9994203197631983 0.030847151422895625
4.115109375 0.999817119814772 0.029231269331358167
4.1162578125 0.9984047689010682 0.02949549944643956
4.11740625 0.9988165597437796 0.028131227773769335
4.1185546875 0.998818150347167 0.026813031494320072
4.119703125 0.9985008852915012 0.02612054240250053
4.1208515625 0.9989721903047383 0.025680076035179605
4.122 0.998536408666718 0.024395544732960878
4.1231484375 0.9988474894896628 0.022339620259769377
4.124296875 0.9983881237686283 0.021668621394007215
4.1254453125 0.9988102535702879 0.02040607141762643
4.12659375 0.9987985416272623 0.01977764160160203
4.1277421875 0.9987968189783587 0.01876138188292345
4.128890625 0.9994181282099581 0.017501692187442436
4.1300390625 0.9992664337057694 0.016750038604799233
4.1311875 0.9988913801147836 0.015873973460390267
4.1323359375 0.9985546293267578 0.015479019755018808
4.133484375 0.9983968646065516 0.015195761163794952
4.1346328125 0.99978933718018 0.014308687897164274
4.13578125 0.9999740319304993 0.01281054215115851
4.1369296875 0.999460824501842 0.011869362301112796
4.138078125 0.9997095870003014 0.010571368136655268
4.1392265625 0.9993632982466508 0.010029116065377541
4.140375 0.999181009651174 0.009875725157949211
4.1415234375 0.9995425832366698 0.008519316997714965
4.142671875 0.9994838732026661 0.007035175732448051
4.1438203125 0.9993271260238379 0.0061028463019668355
4.14496875 0.9987275121882391 0.005601489654508185
4.1461171875 0.9996851072574218 0.004834750543768307
4.147265625 0.999416104823948 0.004124839444906547
4.1484140625 0.9993899789957914 0.0032369036860290246
4.1495625 0.9993910194219157 0.0030301622478607904
4.1507109375 0.9994566623796488 0.002495769399461445
4.151859375 0.998490350688941 0.0007233120244113378
4.1530078125 0.9994908177535302 -3.9302226093052006e-05
4.15415625 0.9992065662324786 -0.0009409884647770816
4.1553046875 0.999166573797708 -0.0020912865197046937
4.156453125 0.9977378235434166 -0.003353214512899605
4.1576015625 0.9990595018850306 -0.004407985657302327
4.15875 0.9988738759555171 -0.004476778486204924
4.1598984375 0.9987086718640729 -0.006265433364920359
4.161046875 0.99848753705581 -0.007750800778388578
4.1621953125 0.9989202507937442 -0.009368256345134496
4.16334375 0.998268655757427 -0.009599448974298541
4.1644921875 0.9986274436363389 -0.010957093052130884
4.165640625 0.9988789840929588 -0.012383928874136918
4.1667890625 0.9987143478169742 -0.013322380200533168
4.1679375 0.9987786855925234 -0.013283876997174926
4.1690859375 0.9986024071165194 -0.014551901719501992
4.170234375 0.9988881169155673 -0.015696056677390546
4.1713828125 0.9996712227225554 -0.016273190857663045
4.17253125 0.9991373440976243 -0.015576727466987794
4.1736796875 0.9987378878733515 -0.018634288311100256
4.174828125 0.9978110917595734 -0.01899872315824025
4.1759765625 0.9986309111284077 -0.0185954070458359
4.177125 0.9980656492660333 -0.018969906650954327
4.1782734375 0.9980336250087702 -0.019940990985691798
4.179421875 0.998152089360878 -0.021649805567439784
4.1805703125 0.9982123821710474 -0.02263100230799614
4.18171875 0.9972678552219219 -0.023809118318476374
4.1828671875 0.9986376928434042 -0.024249278359660675
4.184015625 0.9983014419589182 -0.023756863445499876
4.1851640625 0.9980573717179633 -0.026049695752678848
4.1863125 0.9971668533085518 -0.027791039810077633
4.1874609375 0.996826166835527 -0.029251402253185232
4.188609375 0.9978573102130056 -0.028000323237185043
4.1897578125 0.9965301645620521 -0.03008739655303927
4.19090625 0.9957900413070085 -0.03191586422837833
4.1920546875 0.9962788609448798 -0.032100287883624734
4.193203125 0.9955038681989431 -0.032633723590237806
4.1943515625 0.9968179320035859 -0.034404821260404506
4.1955 0.9965972701896448 -0.03487578986328932
4.1966484375 0.996253222498985 -0.035721895898844225
4.197796875 0.9963177502651541 -0.03711967334317645
4.1989453125 0.9956001361939742 -0.03856154974474396
4.20009375 0.9959454442095725 -0.03805312377275166
4.2012421875 0.9965216541024845 -0.03889555994420524
4.202390625 0.9964760901574998 -0.03971623692352838
4.2035390625 0.996312198531919 -0.040244130357718566
4.2046875 0.9957575393436011 -0.041144855751702236
4.2058359375 0.99616377703274 -0.041921400593400215
4.206984375 0.995254928179047 -0.04378495627949852
4.2081328125 0.9958666838235202 -0.0444521296939594
4.20928125 0.9952645428685729 -0.04558298842159536
4.2104296875 0.9959346731033291 -0.04568522578490131
4.211578125 0.996193916882314 -0.0461616686379791
4.2127265625 0.9958672675583923 -0.04716674850590963
4.213875 0.9959986117945351 -0.04806019706737896
4.2150234375 0.9958015029668166 -0.04820786620095491
4.216171875 0.9956476388649763 -0.04975108097702041
4.2173203125 0.9955920279000886 -0.05186241319692175
4.21846875 0.9949927527034952 -0.05182574632393705
4.2196171875 0.995015606728725 -0.05274050033416111
4.220765625 0.9946819945866014 -0.0551407741608127
4.2219140625 0.994873312559731 -0.054440737459257094
4.2230625 0.9942288552911884 -0.05461766144825092
4.2242109375 0.9949320119506011 -0.05708836228726555
4.225359375 0.9953027407985691 -0.05773629839244604
4.2265078125 0.9944422137139793 -0.058189949831767174
4.22765625 0.9937373023176401 -0.05960020765477614
4.2288046875 0.9940397124812915 -0.0606060957456247
4.229953125 0.9945118142963567 -0.0607876818750992
4.2311015625 0.9946528493148059 -0.061548607268791106
4.23225 0.9947053211735015 -0.06342152747149771
4.2333984375 0.9938735762760412 -0.06393325927369953
4.234546875 0.9935590386896752 -0.06438881238451197
4.2356953125 0.9940352902055662 -0.0661796268838134
4.23684375 0.9948118428650425 -0.06653563664016157
4.2379921875 0.9940831142458333 -0.06780207715349393
4.239140625 0.9938103115423182 -0.06822663448285393
4.2402890625 0.9937049109130189 -0.06909995907438696
4.2414375 0.9932662668914055 -0.07042374877083232
4.2425859375 0.9935176203965905 -0.0715591421844744
4.243734375 0.9939314870959826 -0.07279551515156849
4.2448828125 0.9936629805361342 -0.07335339962043091
4.24603125 0.992766963100402 -0.07421844119136792
4.2471796875 0.9923763747018906 -0.07488676114366477
4.248328125 0.9933361110893424 -0.07575448312954317
4.2494765625 0.9931070369442863 -0.07750229686628873
4.250625 0.9926591129806956 -0.07795353280532151
4.2517734375 0.9932756025492098 -0.07921817380159188
4.252921875 0.993066131805602 -0.08056273313943414
4.2540703125 0.9932829489276508 -0.08131699199121079
4.25521875 0.9929777487713619 -0.0821150865693821
4.2563671875 0.9932688840882897 -0.08311716067656671
4.257515625 0.9924090899609774 -0.08437021997662314
4.2586640625 0.9929331802101287 -0.08505011319667115
4.2598125 0.9932045197297952 -0.08581311438677011
4.2609609375 0.9930381220478308 -0.08689680781676012
4.262109375 0.9932555309111379 -0.0876984779849971
4.2632578125 0.9933947775754757 -0.08894408582647767
4.26440625 0.9935245109331735 -0.09028796577994802
4.2655546875 0.9925658649229001 -0.09041328179456586
4.266703125 0.9930687604068268 -0.09221351492939205
4.2678515625 0.9928143690461964 -0.09206609099547591
4.269 0.9922327176225495 -0.09393041134320262
4.2701484375 0.9916136894875605 -0.09462252109968206
4.271296875 0.9923683829298979 -0.09446821442027759
4.2724453125 0.9923594376485346 -0.09576540384144179
4.27359375 0.9918586726381615 -0.09664919043714258
4.2747421875 0.9918240100504347 -0.09613610766899157
4.275890625 0.991380575063141 -0.09791452163892815
4.2770390625 0.9906804987040985 -0.09899226402764857
4.2781875 0.9912729588607481 -0.1002295658529918
4.2793359375 0.990482643993508 -0.10110925233653116
4.280484375 0.990673306785782 -0.10204529104907684
4.2816328125 0.990819032968568 -0.10356332924062542
4.28278125 0.9904306087248786 -0.10431928712618821
4.2839296875 0.9892667385688603 -0.10518383905669121
4.285078125 0.989753428888684 -0.10671719129334772
4.2862265625 0.9896382758142916 -0.1077111885107879
4.287375 0.9887246979017076 -0.10821120074927622
4.2885234375 0.9891049500312938 -0.10917372125688252
4.289671875 0.9880748463834937 -0.11028296190854968
4.2908203125 0.9877094658698187 -0.11042743822003954
4.29196875 0.9880673858462425 -0.11153998771607286
4.2931171875 0.9881664063053176 -0.11260701550011509
4.294265625 0.9873090772442144 -0.1119511556402718
4.2954140625 0.9871857714328576 -0.11355430007257467
4.2965625 0.9880154205087843 -0.11462821261732975
4.2977109375 0.9876037156213566 -0.1146334636811221
4.298859375 0.9865092479337118 -0.11642559460818327
4.3000078125 0.9858510918871517 -0.11648011134744465
4.30115625 0.9848895934901888 -0.11708914307174281
4.3023046875 0.9866699997313654 -0.11760239735318623
4.303453125 0.9861924239959434 -0.11884628563058641
4.3046015625 0.9859901982143111 -0.1176878724558392
4.30575 0.9851793158820998 -0.120099993650191
4.3068984375 0.9848974480962666 -0.12111753569385625
4.308046875 0.9853589520164685 -0.12157815776310416
4.3091953125 0.9838222566070964 -0.12408257373774217
4.31034375 0.9843745488671165 -0.12538568928226915
4.3114921875 0.9845895490847345 -0.12475339189249907
4.312640625 0.9840018792988674 -0.12554942186859797
4.3137890625 0.9852927078599618 -0.12651805363595092
4.3149375 0.9846159740225706 -0.12821814635096368
4.3160859375 0.9829454070769256 -0.12957798694164413
4.317234375 0.9839503750826712 -0.13010160530135284
4.3183828125 0.982427192344964 -0.1319768332288867
4.31953125 0.9833916623497967 -0.1324234235065206
4.3206796875 0.9834489339644096 -0.1331949054238936
4.321828125 0.9821199879499343 -0.13423479811579647
4.3229765625 0.9824504374976538 -0.13409702368744736
4.324125 0.9820794853643925 -0.1362639830691978
4.3252734375 0.9814706373738424 -0.13725811509932623
4.326421875 0.9832815446913739 -0.13859797696084064
4.3275703125 0.9834441596804552 -0.13886648765087434
4.32871875 0.9825447026386245 -0.13919633785565144
4.3298671875 0.9826435732778632 -0.139881795037679
4.331015625 0.9814941245845447 -0.13974123014169765
4.3321640625 0.9818249201276508 -0.1412508553845558
4.3333125 0.9810238164539121 -0.14303489141257383
4.3344609375 0.9811993720945836 -0.1436451549597655
4.335609375 0.9803903721124183 -0.14477561591458984
4.3367578125 0.9805912725481243 -0.14536971085746336
4.33790625 0.9805666820687526 -0.14682343293617534
4.3390546875 0.9798101455714638 -0.14811032713368222
4.340203125 0.9801769929169248 -0.1485949864812844
4.3413515625 0.9802656239852074 -0.1494356861753673
4.3425 0.9790126884489109 -0.15031809381896435
4.3436484375 0.9798608384655874 -0.14987100899079803
4.344796875 0.9801555161737104 -0.15053680345666096
4.3459453125 0.9797691487767602 -0.15102934211781302
4.34709375 0.9795086892916488 -0.15086592669543306
4.3482421875 0.9793884207747092 -0.15210424261223826
4.349390625 0.9786487473735345 -0.1533398691906911
4.3505390625 0.9789352538368724 -0.15380683243284426
4.3516875 0.9787875778580992 -0.15476429577190784
4.3528359375 0.9786451436303658 -0.15604196211730792
4.353984375 0.978431830723004 -0.1552220883662612
4.3551328125 0.9797126967092796 -0.1561977342300286
4.35628125 0.9792785402299269 -0.15885769895420346
4.3574296875 0.9788499906645705 -0.15883154674946984
4.358578125 0.9790364790811676 -0.15959654637336101
4.3597265625 0.9786281146416618 -0.16079258098296606
4.360875 0.9786670927651026 -0.1603321487860515
4.3620234375 0.9792410787552055 -0.16206207785063736
4.363171875 0.9783750164233518 -0.16348655433358902
4.3643203125 0.978101494174354 -0.16335887839482485
4.36546875 0.9779455531724881 -0.1646611102361621
4.3666171875 0.9780818780617171 -0.16547612752440488
4.367765625 0.9773271714501031 -0.16519425022897202
4.3689140625 0.9769788114362437 -0.16634322442337102
4.3700625 0.9758441784317229 -0.16752989223151196
4.3712109375 0.9755489827864308 -0.16782938167371833
4.372359375 0.9753883128153593 -0.16857777347627925
4.3735078125 0.9753535411954232 -0.1713914563879026
4.37465625 0.9751733191880365 -0.17121155841407068
4.3758046875 0.9750536546280131 -0.1718865982874701
4.376953125 0.9739652158757355 -0.17442471012633534
4.3781015625 0.9743825288703457 -0.17386968936224625
4.37925 0.9741721166247398 -0.17457253574350917
4.3803984375 0.9742017306325595 -0.17707997154635913
4.381546875 0.9736996849599473 -0.17644597805926449
4.3826953125 0.9733353797736641 -0.17785479747336802
4.38384375 0.9723218209148081 -0.17928189631238695
4.3849921875 0.9722984158890919 -0.17968738640496412
4.386140625 0.9724028312612609 -0.1805370175902125
4.3872890625 0.971171010505511 -0.1819428022906652
4.3884375 0.9709174544674724 -0.18304374719988425
4.3895859375 0.971466686423085 -0.1829592106548512
4.390734375 0.9713196546390029 -0.18501136094474602
4.3918828125 0.9730452173960149 -0.1853617289494431
4.39303125 0.9721659662316844 -0.18636997131570016
4.3941796875 0.9720226940704522 -0.18802282655300992
4.395328125 0.9717967586427622 -0.18763949638590868
4.3964765625 0.9711208344162328 -0.18908890773521375
4.397625 0.9711469466338833 -0.19056240844992156
4.3987734375 0.9704375648622576 -0.1912891939627464
4.399921875 0.9705961926288471 -0.19218228851336733
4.4010703125 0.9702101858719179 -0.19328591894869368
4.40221875 0.9699097621887337 -0.1943416869468676
4.4033671875 0.9695922168130784 -0.19579195465063814
4.404515625 0.9691302655920988 -0.1967367315584167
4.4056640625 0.9690811720228799 -0.1974451396462382
4.4068125 0.9689726594549057 -0.198571939390377
4.4079609375 0.9689804928400851 -0.19968495716280651
4.409109375 0.9695235889202835 -0.2008510567378944
4.4102578125 0.9691770919199983 -0.20128888853353774
4.41140625 0.9688333329418826 -0.2021307095117706
4.4125546875 0.9687634090498758 -0.2027436145539098
4.413703125 0.9688361341090257 -0.20370729624985617
4.4148515625 0.9685174335684317 -0.20488248448390928
4.416 0.9686511381162313 -0.20573327767818064
4.4171484375 0.9689056434834977 -0.20559148795530138
4.418296875 0.9686853550782082 -0.2057894748022836
4.4194453125 0.9689538508506708 -0.20654718352734625
4.42059375 0.9695596266392335 -0.20725061778976916
4.4217421875 0.9692592527029145 -0.20844724351825986
4.422890625 0.9673818673927425 -0.2091318730329086
4.4240390625 0.9678051344547717 -0.2091237739277904
4.4251875 0.9674300716716574 -0.21058808450296218
4.4263359375 0.9675099143486894 -0.21148936427682036
4.427484375 0.9676313036574937 -0.21225494938923117
4.4286328125 0.9667775752266998 -0.21234060356013973
4.42978125 0.9668203882367039 -0.21384913225223964
4.4309296875 0.9673220575627983 -0.2135167431487424
4.432078125 0.9671771833444749 -0.21500594019467692
4.4332265625 0.9664777728544957 -0.21596755530998094
4.434375 0.9651088966386393 -0.21580773365598832
4.4355234375 0.9652205465575756 -0.21621628522457834
4.436671875 0.9650100414331482 -0.21744208847286817
4.4378203125 0.9635764890602222 -0.2183041343636195
4.43896875 0.9639818217270493 -0.21871637923232307
4.4401171875 0.9631619721217961 -0.21891731426433597
4.441265625 0.9631037580880402 -0.22006069868018024
4.4424140625 0.9627478355882613 -0.2202311803481481
4.4435625 0.962806281121407 -0.22220438402310325
4.4447109375 0.9623517504857995 -0.22315835382627092
4.445859375 0.9631669678560931 -0.22265217717085897
4.4470078125 0.9629834822417279 -0.22357207392043008
4.44815625 0.9614581425407058 -0.2245945466104373
4.4493046875 0.96107269264799 -0.22467556232597885
4.450453125 0.9609443478918771 -0.22606149395063813
4.4516015625 0.9597036143561778 -0.22681986112424504
4.45275 0.9602855826162157 -0.2274267603051749
4.4538984375 0.9597794987489937 -0.22891661053258888
4.455046875 0.9594018174718114 -0.22987858680031467
4.4561953125 0.9581243837582458 -0.23040448421788076
4.45734375 0.9581471925560856 -0.23188734418310802
4.4584921875 0.9575530511456103 -0.23279981966243246
4.459640625 0.9574773912256482 -0.2330142255208693
4.4607890625 0.9569526634121167 -0.2349982401220761
4.4619375 0.9570837721723929 -0.2358282899011294
4.4630859375 0.9579937446935533 -0.23630089734316845
4.464234375 0.956785115884274 -0.23822241019412368
4.4653828125 0.9569736683188578 -0.2383922091080521
4.46653125 0.9565825504424218 -0.23947338156862658
4.4676796875 0.956820071891947 -0.24046264783400736
4.468828125 0.9566794624178441 -0.24220755756479737
4.4699765625 0.9559916528851755 -0.24245526106826654
4.471125 0.9555501898920993 -0.24398741364688442
4.4722734375 0.9544068989589656 -0.24445349820178108
4.473421875 0.9554666152575184 -0.24504746135893402
4.4745703125 0.9556598654937603 -0.24551994308971226
4.47571875 0.9558440480202779 -0.2468798000489555
4.4768671875 0.9557636051352376 -0.2481832474235632
4.478015625 0.9557259082544332 -0.2487566838539867
4.4791640625 0.9551068428578013 -0.24918022413005037
4.4803125 0.9552307870076268 -0.2506239649220475
4.4814609375 0.9548950776404237 -0.2518335910710721
4.482609375 0.9543264982549498 -0.2519408393351692
4.4837578125 0.9538544142917741 -0.2533003926602191
4.48490625 0.9537528241187482 -0.2542552145429258
4.4860546875 0.9534853217538765 -0.25531793797824087
4.487203125 0.953595070713648 -0.2568854618745209
4.4883515625 0.9537322351510527 -0.25735227438520614
4.4895 0.9532416134781665 -0.25787944155418097
4.4906484375 0.9531537510853213 -0.258041353886753
4.491796875 0.9532548172409798 -0.25952692122007004
4.4929453125 0.9526014945321863 -0.26042703235827525
4.49409375 0.9524301882878249 -0.26071380876028677
4.4952421875 0.9519922973211934 -0.26301647059599476
4.496390625 0.9518536621015533 -0.2634855460332583
4.4975390625 0.9511505935259296 -0.2637375596488796
4.4986875 0.9513796782398786 -0.2651592753814867
4.4998359375 0.9509646054924683 -0.26572648361737294
4.500984375 0.9506002613049968 -0.26671429874888425
4.5021328125 0.9506763394194403 -0.26581793099016116
4.50328125 0.950865507411684 -0.26724662688410417
4.5044296875 0.9508500390541216 -0.26749855143400586
4.505578125 0.9500986446609754 -0.2673765749831347
4.5067265625 0.9509950011564374 -0.2696573042951622
4.507875 0.950212078314364 -0.2688636694921396
4.5090234375 0.9496218522849393 -0.26950219712933854
4.510171875 0.9503288693937999 -0.2711488247603616
4.5113203125 0.9487094277216847 -0.27136508364183853
4.51246875 0.949647478332772 -0.27225725729556977
4.5136171875 0.9485352831981917 -0.27282870994244895
4.514765625 0.9479606183006544 -0.27366084457012135
4.5159140625 0.9470751658063065 -0.2730137914394835
4.5170625 0.946682692253936 -0.2754187535029225
4.5182109375 0.9467243276090127 -0.27707745766865155
4.519359375 0.9466016467006667 -0.2769265032804215
4.5205078125 0.9454083661243534 -0.27775742029317063
4.52165625 0.9453998509236488 -0.27888190469726787
4.5228046875 0.9449816202631345 -0.2784307594870388
4.523953125 0.9450988499870199 -0.2803023799843521
4.5251015625 0.9429593209352516 -0.280978627601814
4.52625 0.9441924891901683 -0.2812459704952881
4.5273984375 0.9435809318430711 -0.2823816116377468
4.528546875 0.9427916064494611 -0.28267772103150235
4.5296953125 0.942743468623766 -0.28401532269748736
4.53084375 0.9423178573972668 -0.2849916296715635
4.5319921875 0.9416849883035733 -0.285415385394621
4.533140625 0.9414411113640988 -0.28642068812662613
4.5342890625 0.9405691631702848 -0.287594122495728
4.5354375 0.9410015262374531 -0.2883109069563053
4.5365859375 0.941058348219918 -0.2900475201573316
4.537734375 0.9400142569839092 -0.29103270848096396
4.5388828125 0.9404476391294985 -0.2920136903096373
4.54003125 0.9395510170236205 -0.29416666138938474
4.5411796875 0.9395436137889563 -0.29352914015798126
4.542328125 0.9399664398731791 -0.29529554250751044
4.5434765625 0.9395348208055351 -0.2967241288098918
4.544625 0.9391306246194119 -0.2968205664060354
4.5457734375 0.9382632961968749 -0.297474524199705
4.546921875 0.9386419795650907 -0.29916250618233786
4.5480703125 0.9384277081124556 -0.299232367671287
4.54921875 0.9387557714755987 -0.29960319319710577
4.5503671875 0.9380757215320062 -0.3004138745553484
4.551515625 0.9371280894916628 -0.30178414928056374
4.5526640625 0.93563491889834 -0.3021315078635574
4.5538125 0.9360561250858461 -0.3022586218240273
4.5549609375 0.935458385802239 -0.3040401276050606
4.556109375 0.9347267201805532 -0.3049926346498668
4.5572578125 0.9342435033806865 -0.30518921246424513
4.55840625 0.9341456644321109 -0.30542284228339533
4.5595546875 0.9342611637857976 -0.30654262148508093
4.560703125 0.934019339907294 -0.3069506476542089
4.5618515625 0.9344317906762062 -0.30818917999239215
4.563 0.934094561213564 -0.3089215211873158
4.5641484375 0.9340435733163117 -0.3094973160659682
4.565296875 0.9339940954396604 -0.31081747078689864
4.5664453125 0.9338029730767294 -0.31149113165090986
4.56759375 0.934117893101736 -0.31191418401061227
4.5687421875 0.93384700377689 -0.3129610483433132
4.569890625 0.9329881223417642 -0.31305738510065473
4.5710390625 0.9327446304555229 -0.31480694554965494
4.5721875 0.9331602817849635 -0.3153295807290414
4.5733359375 0.9330962245156535 -0.31617442639954674
4.574484375 0.9329419452193373 -0.31757443946103936
4.5756328125 0.933016918838236 -0.31797449906379094
4.57678125 0.9324253708181649 -0.31914199115137604
4.5779296875 0.9323559713871777 -0.31995259339336324
4.579078125 0.9317218155420567 -0.32039168670795004
4.5802265625 0.9316829579683392 -0.32018179536378755
4.581375 0.9309987289986783 -0.3208952879827839
4.5825234375 0.9305585566722369 -0.3211206906954133
4.583671875 0.9310110773644305 -0.3213752414536576
4.5848203125 0.9299951619346227 -0.32194423672468964
4.58596875 0.9294327770701061 -0.32224556766299434
4.5871171875 0.928574426517069 -0.3225412849114562
4.588265625 0.9286351563821098 -0.3230105687533684
4.5894140625 0.9285216176039948 -0.3247769004059003
4.5905625 0.9278800889672363 -0.3256927748105499
4.5917109375 0.9280634462465867 -0.3255378627613739
4.592859375 0.9277537233445119 -0.32621350097450647
4.5940078125 0.9277559658789492 -0.3272710416888007
4.59515625 0.9271399809552363 -0.32867586825742484
4.5963046875 0.9271529250178745 -0.3293923867935042
4.597453125 0.926593018862055 -0.3291282646157277
4.5986015625 0.9257943326660155 -0.33030560027154304
4.59975 0.9251286309074478 -0.3313558538727424
4.6008984375 0.9254658431996639 -0.33197115587518766
4.602046875 0.9248175987551626 -0.33332912780391766
4.6031953125 0.9240700119201698 -0.3336593853370277
4.60434375 0.9242770787915553 -0.3341748197398555
4.6054921875 0.9231977044216344 -0.3356209291314017
4.606640625 0.9234360814197518 -0.3365752294002771
4.6077890625 0.9231150775592631 -0.338011939207492
4.6089375 0.9224519965068887 -0.3391293913194669
4.6100859375 0.9217167803270018 -0.34004227758690364
4.611234375 0.921484554680974 -0.33999475511675314
4.6123828125 0.9214790002194073 -0.34196588148099516
4.61353125 0.921105836626749 -0.34334499387558537
4.6146796875 0.9208582392271923 -0.3443732421963177
4.615828125 0.9215099632428643 -0.3442946666678358
4.6169765625 0.9218297158646205 -0.3447070765073853
4.618125 0.9220840163725892 -0.3454621978245102
4.6192734375 0.9215649046816339 -0.3463970781041436
4.620421875 0.920100124071428 -0.3468080179822562
4.6215703125 0.9188385749042629 -0.3473327313558765
4.62271875 0.919711797070448 -0.3475160470882876
4.6238671875 0.9202114118255328 -0.3485640251059152
4.625015625 0.9203409824555646 -0.34885065086089273
4.6261640625 0.919859659483139 -0.35033378740622856
4.6273125 0.9197485891928006 -0.3515933310221809
4.6284609375 0.9183087862512808 -0.3526002998138377
4.629609375 0.9190022520315194 -0.3528889899429462
4.6307578125 0.9184029269161029 -0.3532695108119879
4.63190625 0.918147113767067 -0.35564833088090164
4.6330546875 0.9173172349852994 -0.35653501490006145
4.634203125 0.9178197019870391 -0.3576336076222415
4.6353515625 0.9175169464483499 -0.3578394458453686
4.6365 0.9163533240875201 -0.3591201690562311
4.6376484375 0.9161967390194748 -0.360350751568468
4.638796875 0.9156593948805867 -0.3610226226787634
4.6399453125 0.9152127314592495 -0.3624349771543983
4.64109375 0.915163725561658 -0.3623193080753581
4.6422421875 0.9148450738427474 -0.363669871371307
4.643390625 0.9144343956904141 -0.36511992944479615
4.6445390625 0.9142597176107142 -0.3657674204614581
4.6456875 0.9143638446088556 -0.36578458310721285
4.6468359375 0.9143887249069919 -0.3664829567150642
4.647984375 0.9140894382710348 -0.3671459201735242
4.6491328125 0.9145401729677645 -0.36784570749347906
4.65028125 0.9142257218145712 -0.36868401235875015
4.6514296875 0.9135088079980571 -0.3690537323934491
4.652578125 0.9134075412291186 -0.3690573814314699
4.6537265625 0.9132779397474744 -0.37009304538731375
4.654875 0.9122036704729699 -0.3708832171563698
4.6560234375 0.9112008894137472 -0.37166909799929804
4.657171875 0.9115077883699696 -0.37215218033113867
4.6583203125 0.910770006704066 -0.37255948565141317
4.65946875 0.9104698336173437 -0.3738715243236217
4.6606171875 0.9106792230285499 -0.3744852767130409
4.661765625 0.9101030530594129 -0.3757576849989225
4.6629140625 0.9096365982559991 -0.37630804708489185
4.6640625 0.9096194648447458 -0.3765911046909711
4.6652109375 0.9090862039520867 -0.3775258348000919
4.666359375 0.9083037996329697 -0.3780943160196204
4.6675078125 0.9078650802071129 -0.3792089867067111
4.66865625 0.9079734008752127 -0.3799164975815868
4.6698046875 0.9077482249431567 -0.3802499534361519
4.670953125 0.9066899784611043 -0.3806460653403666
4.6721015625 0.906488382717309 -0.38197129802604346
4.67325 0.9063150460742795 -0.3835270855929901
4.6743984375 0.9055982590500611 -0.38416211246855536
4.675546875 0.9052872328801426 -0.38453755115393273
4.6766953125 0.9054054335999719 -0.3856434234688506
4.67784375 0.9044905892026465 -0.38563789928176656
4.6789921875 0.9048628859046806 -0.38766915021370246
4.680140625 0.9048689795462699 -0.3880645188682129
4.6812890625 0.9041242019585788 -0.3885035589138607
4.6824375 0.9036583341122739 -0.3886707308309583
4.6835859375 0.9034090583222257 -0.39068432839889156
4.684734375 0.9030866063012833 -0.39153098991071067
4.6858828125 0.9025029522341096 -0.3912356357478862
4.68703125 0.9021144982191092 -0.3929548879766429
4.6881796875 0.9017130179213578 -0.3931415327069386
4.689328125 0.9018551774479908 -0.3937802155884326
4.6904765625 0.9018553815362482 -0.39484464916288975
4.691625 0.9012912807269471 -0.3952756335432427
4.6927734375 0.9003780192877318 -0.3960517157729757
4.693921875 0.900432867126893 -0.3964126459446813
4.6950703125 0.8999942289974239 -0.39752574743619123
4.69621875 0.9001787349240461 -0.3977219256819718
4.6973671875 0.8991660984069825 -0.3981710774995265
4.698515625 0.8988475238162497 -0.3997397815481865
4.6996640625 0.8980221541218862 -0.40087340581691866
4.7008125 0.8974442072437677 -0.40176681670073
4.7019609375 0.8971089246604618 -0.4024593194309114
4.703109375 0.897382344318428 -0.4034977455858872
4.7042578125 0.8970198504214932 -0.4034382368134364
4.70540625 0.896579133959838 -0.4047600047585362
4.7065546875 0.8958628403521554 -0.4043611744491061
4.707703125 0.8954559750667372 -0.40505721805623895
4.7088515625 0.8950176238981862 -0.4070502884104812
4.71 0.8942133221843541 -0.40748692817312215
4.7111484375 0.8938336848440992 -0.40843067324234095
4.712296875 0.8933154057147183 -0.40877063686883996
4.7134453125 0.8931372387432399 -0.40953560682420953
4.71459375 0.8937097038211321 -0.4096179603365352
4.7157421875 0.8926634639454281 -0.4105375833135977
4.716890625 0.8924513524011889 -0.4111352426458734
4.7180390625 0.892257305973481 -0.41167416302934956
4.7191875 0.8918567410368494 -0.4126554673552787
4.7203359375 0.8920588991902034 -0.41409989722526713
4.721484375 0.8912337531446487 -0.4147266658578328
4.7226328125 0.8904023724286496 -0.41455989335349475
4.72378125 0.8903196516934494 -0.41509941491384306
4.7249296875 0.8903238992956246 -0.41618167346753154
4.726078125 0.8899074023258804 -0.4167107047020126
4.7272265625 0.8890657273647964 -0.4178068349100874
4.728375 0.8889929682552753 -0.4182766917797457
4.7295234375 0.8884555959998488 -0.41925612527785105
4.730671875 0.8880082791898269 -0.41969820732409385
4.7318203125 0.8878787179622447 -0.4210348415343226
4.73296875 0.8877518477974204 -0.4222058065407882
4.7341171875 0.8868131497460693 -0.4224496434908345
4.735265625 0.8873479547767422 -0.4229229295357865
4.7364140625 0.8863915162275229 -0.4244904335494844
4.7375625 0.8860230950926403 -0.42491778871451774
4.7387109375 0.8851827490042081 -0.4246625838662363
4.739859375 0.8855332755644487 -0.42553440267143655
4.7410078125 0.8847846824609349 -0.4259988441453464
4.74215625 0.8848149036017144 -0.42599879895954684
4.7433046875 0.8847678353043108 -0.4277405889513863
4.744453125 0.8843106099531188 -0.4289819314044806
4.7456015625 0.8831805033096427 -0.4287666017544658
4.74675 0.8830266612247457 -0.43009739072242326
4.7478984375 0.8826751043754066 -0.43069583271338174
4.749046875 0.8822758693123042 -0.4313549647392651
4.7501953125 0.8822962288185814 -0.43217056022667094
4.75134375 0.8828407051821533 -0.4334850699636972
4.7524921875 0.8819127933707555 -0.43426186846006687
4.753640625 0.8812201137016935 -0.4348181366106621
4.7547890625 0.8804348674202838 -0.4349346373150625
4.7559375 0.8801762005031923 -0.43636223968733695
4.7570859375 0.8796131492590702 -0.43667393333399956
4.758234375 0.8792624175929569 -0.4376956242330014
4.7593828125 0.8795898462470466 -0.4377126016881462
4.76053125 0.8791281736299371 -0.43805006080200987
4.7616796875 0.878857397555355 -0.43959315209799354
4.762828125 0.8781024515560656 -0.44078981482108437
4.7639765625 0.8778782156777979 -0.4415044616218944
4.765125 0.8776113150190712 -0.44298790142818817
4.7662734375 0.8772340098765374 -0.44351416690994216
4.767421875 0.8776374670798004 -0.4441260072611404
4.7685703125 0.8770658888269727 -0.4441444120917265
4.76971875 0.8770763788968712 -0.4456206688103427
4.7708671875 0.8761568319035515 -0.4470409658133421
4.772015625 0.8757228625500204 -0.4473625866513152
4.7731640625 0.875597333967731 -0.44773552230802616
4.7743125 0.875612012975729 -0.4492747212196704
4.7754609375 0.8745001729726976 -0.44916819401730856
4.776609375 0.8745204556195918 -0.4492443703446359
4.7777578125 0.8747260245956283 -0.4505739639190601
4.77890625 0.8737040649751762 -0.45065029188102834
4.7800546875 0.8732936372055191 -0.45261129874432426
4.781203125 0.8725532596830674 -0.45332888450030046
4.7823515625 0.8724703046031187 -0.4537755906245622
4.7835 0.8722288645261461 -0.45426307649976816
4.7846484375 0.8720140524255463 -0.4551755583364472
4.785796875 0.872142783935052 -0.4558305932424622
4.7869453125 0.872009000222514 -0.4554454913264127
4.78809375 0.8710103828241031 -0.4561112566947113
4.7892421875 0.8710048387427718 -0.45724310642513644
4.790390625 0.8698152486052981 -0.4584207663532519
4.7915390625 0.8695382870614509 -0.4589888664827969
4.7926875 0.8692151686345688 -0.45969224757878724
4.7938359375 0.869066434386044 -0.46042575623074394
4.794984375 0.8686089996951807 -0.4614656607197044
4.7961328125 0.8686765578269068 -0.46108478199057035
4.79728125 0.8679976299148697 -0.46109973387598946
4.7984296875 0.8683888644801465 -0.46248430430524956
4.799578125 0.8685077998566274 -0.4642834403846525
4.8007265625 0.8677538132835205 -0.465033515147953
4.801875 0.8673865070250963 -0.4647784234048348
4.8030234375 0.8665392176668343 -0.4660193197400713
4.804171875 0.8651914826479487 -0.4667086525442833
4.8053203125 0.8662232600800976 -0.4667176861385886
4.80646875 0.8649278488273018 -0.46749361106887555
4.8076171875 0.8657664454613266 -0.46859738649014215
4.808765625 0.8647042943521123 -0.47028162863954154
4.8099140625 0.8649894659952182 -0.469871389241707
4.8110625 0.8647304172847918 -0.4709479019544469
4.8122109375 0.8640600321973779 -0.4706890003832296
4.813359375 0.8628716162909406 -0.47165002819703283
4.8145078125 0.8630764824647372 -0.4735616271852877
4.81565625 0.8624895006252491 -0.4739152568244523
4.8168046875 0.8621051022933794 -0.4741029999364868
4.817953125 0.8613336595398328 -0.4753082632759243
4.8191015625 0.8606199309914084 -0.4751071580424978
4.82025 0.8606873583845218 -0.47677161045828975
4.8213984375 0.8612680220064028 -0.47760568078017146
4.822546875 0.8603291751713847 -0.47821907913362516
4.8236953125 0.8599978283266616 -0.4779409752791534
4.82484375 0.8598824921344874 -0.4796888223168267
4.8259921875 0.8592462024957722 -0.48075964235825497
4.827140625 0.8588779395230208 -0.4805305157369303
4.8282890625 0.8589844214766378 -0.4814171365089628
4.8294375 0.8577579928833801 -0.48149356836610824
4.8305859375 0.8584246699874211 -0.4831475538490019
4.831734375 0.8574419813416854 -0.4842922912334552
4.8328828125 0.8571426370150164 -0.4851669924775809
4.83403125 0.8562566948567841 -0.48596426721640446
4.8351796875 0.8563466522136424 -0.4864584519616102
4.836328125 0.855625391652926 -0.48686490349771827
4.8374765625 0.8554678190385079 -0.48760934889399565
4.838625 0.8551164067039334 -0.48859866859994183
4.8397734375 0.85482570345454 -0.4886037220681593
4.840921875 0.8547710054884455 -0.4901628865326499
4.8420703125 0.8548048729788233 -0.4909078912518513
4.84321875 0.853856350310033 -0.4912438007261437
4.8443671875 0.8535790999162443 -0.49198742741507195
4.845515625 0.8543104967627229 -0.49282529218187654
4.8466640625 0.8530517672892411 -0.49294871645359095
4.8478125 0.8527614115820401 -0.4935984740908711
4.8489609375 0.8524069982789961 -0.49456029619767233
4.850109375 0.8515799940139769 -0.494734675471071
4.8512578125 0.8508763631266877 -0.49570082703915774
4.85240625 0.8508084446509985 -0.4968272966027781
4.8535546875 0.8505277733704508 -0.49738774875058467
4.854703125 0.8502756697807445 -0.498231347528099
4.8558515625 0.8501475025053805 -0.49891855458954026
4.857 0.850169574276715 -0.4994634213464011
4.8581484375 0.848827198584497 -0.5003011736985654
4.859296875 0.8474041640503004 -0.5007885896892492
4.8604453125 0.8482755364570977 -0.5016270861303128
4.86159375 0.8472237470913155 -0.5022311398136696
4.8627421875 0.8470389002124012 -0.5039447337861422
4.863890625 0.8469921978941319 -0.5044593551888973
4.8650390625 0.8467427062373976 -0.5046903036799053
4.8661875 0.8464613718410557 -0.5052454666607743
4.8673359375 0.8461583474316459 -0.5065291765956196
4.868484375 0.845479720124017 -0.5072096957310321
4.8696328125 0.8453497508998976 -0.5083337209400429
4.87078125 0.8451391801276036 -0.508979317984088
4.8719296875 0.8447943445616699 -0.5096188557871835
4.873078125 0.844589676756553 -0.5105153575672402
4.8742265625 0.8438898135108921 -0.5114736209983284
4.875375 0.8434579881316049 -0.5120508692945331
4.8765234375 0.8426657296252195 -0.5122512152087902
4.877671875 0.8421216977078263 -0.5135281876920812
4.8788203125 0.8416877563095433 -0.5141266421384735
4.87996875 0.8414783412557191 -0.5144354006114158
4.8811171875 0.84077344580092 -0.5148864488330117
4.882265625 0.8400432804769118 -0.516301228090253
4.8834140625 0.8402288927136053 -0.5163010670789443
4.8845625 0.8387556783796108 -0.5179834042586983
4.8857109375 0.8384669786585428 -0.5186185225301825
4.886859375 0.8378126473921317 -0.5192487403477942
4.8880078125 0.8374185827673211 -0.5201420530179125
4.88915625 0.8374756527765714 -0.521191316761111
4.8903046875 0.8372776608408169 -0.5223216005856746
4.891453125 0.836437144279728 -0.5221709100749915
4.8926015625 0.8357420730229255 -0.5226678580662982
4.89375 0.8355397403337433 -0.5229613746355942
4.8948984375 0.8354172635498164 -0.5241090286958809
4.896046875 0.8346443066877649 -0.525223250124577
4.8971953125 0.833935413791304 -0.5256772831397566
4.89834375 0.8336830873115355 -0.5268622820541609
4.8994921875 0.8339689930430387 -0.5268872374251368
4.900640625 0.8323998837313021 -0.5270611788568611
4.9017890625 0.8327197237524635 -0.5289892518160184
4.9029375 0.8321981231043738 -0.5295434651467391
4.9040859375 0.8313063979402964 -0.5304395082497363
4.905234375 0.8312394922867984 -0.531056281770081
4.9063828125 0.8316163028729238 -0.5310369942384354
4.90753125 0.8319832548619106 -0.5320836327006645
4.9086796875 0.8314954491018562 -0.5327090864146098
4.909828125 0.8315361631964119 -0.5336337416167256
4.9109765625 0.8319074521453437 -0.5338984003794062
4.912125 0.8310002259407121 -0.5340793777001459
4.9132734375 0.8303348960209477 -0.535083117417258
4.914421875 0.8291981561944747 -0.5358224110189818
4.9155703125 0.8290461476225146 -0.5369062228485935
4.91671875 0.827567949049403 -0.537758002284579
4.9178671875 0.8276237773043402 -0.5376485465546295
4.919015625 0.8269434844898191 -0.5388211783317087
4.9201640625 0.8267282901045941 -0.5396137825832883
4.9213125 0.8262976182586388 -0.5416213699341992
4.9224609375 0.8258303247570746 -0.5407396421518256
4.923609375 0.8247189935102434 -0.5419242078752083
4.9247578125 0.8245801241849546 -0.5421244676645852
4.92590625 0.8240158950625778 -0.5430866913592645
4.9270546875 0.8232934671944528 -0.5436582411982138
4.928203125 0.8236465344542335 -0.5447807598650535
4.9293515625 0.8227641456392862 -0.5455773849950792
4.9305 0.822945335007817 -0.546011074477933
4.9316484375 0.8224527488264979 -0.5472463107917729
4.932796875 0.8229916558633403 -0.5478087704267659
4.9339453125 0.8217129100212763 -0.5484587991688554
4.93509375 0.8216189394269935 -0.5482822739330941
4.9362421875 0.8206165278767961 -0.5497493283998207
4.937390625 0.8205829049616312 -0.5501719403139119
4.9385390625 0.8197605251754838 -0.551692596101373
4.9396875 0.8203032395008045 -0.5521012844674136
4.9408359375 0.8197773835744631 -0.5526118621621507
4.941984375 0.8185665202116866 -0.5533529003485212
4.9431328125 0.8182762052690684 -0.554121828659861
4.94428125 0.8171794890465189 -0.555434278180302
4.9454296875 0.8166677999271887 -0.5559151661453359
4.946578125 0.8163365849933565 -0.5558717805042468
4.9477265625 0.8163751475025172 -0.5576226123236082
4.948875 0.8161941986686038 -0.5577974140805327
4.9500234375 0.8155592393366855 -0.5589191060860206
4.951171875 0.8153602597417747 -0.5593971517263865
4.9523203125 0.8149550505627806 -0.5610519746342729
4.95346875 0.8139599587818006 -0.5607975653105419
4.9546171875 0.8134343789147451 -0.5623809805131602
4.955765625 0.8134459960766628 -0.5627376113432595
4.9569140625 0.8127137580104123 -0.5627608642175279
4.9580625 0.8125965290257312 -0.5639400845670022
4.9592109375 0.8122869314641855 -0.5649172052088881
4.960359375 0.8120459909989708 -0.5649801124309176
4.9615078125 0.811238927365666 -0.5655643229781273
4.96265625 0.8103599141648382 -0.5666234537413581
4.9638046875 0.8103384037817284 -0.5671070395219695
4.964953125 0.8099352262269548 -0.5680452454365796
4.9661015625 0.8096308614467078 -0.5693810473094613
4.96725 0.8088006326898862 -0.570312287318558
4.9683984375 0.8083307650717015 -0.5707300878847783
4.969546875 0.8083056796375467 -0.5703500488085507
4.9706953125 0.8074613575655892 -0.5714147088928481
4.97184375 0.8071328410095957 -0.5725387827134014
4.9729921875 0.8065596347602431 -0.5727982976304344
4.974140625 0.8063164023487004 -0.5734741278202018
4.9752890625 0.8056488146398884 -0.5728336297150183
4.9764375 0.8047415029549252 -0.5741579058574051
4.9775859375 0.8047688412776497 -0.5746956661999268
4.978734375 0.8042725438570061 -0.5748672467192597
4.9798828125 0.803509256284593 -0.5755059321843182
4.98103125 0.8031745399510489 -0.5767777236264945
4.9821796875 0.8034901194987639 -0.5772606700776913
4.983328125 0.8027987778402047 -0.5778772726215106
4.9844765625 0.8023183092299863 -0.578900929777715
4.985625 0.8025155688348904 -0.5795493849795127
4.9867734375 0.8010842785737164 -0.5796448325118422
4.987921875 0.8012809291885423 -0.5804878345807429
4.9890703125 0.8010676148048724 -0.5812568231000435
4.99021875 0.8004925403835703 -0.5821513713945673
4.9913671875 0.7997441152488002 -0.5835267430258032
4.992515625 0.7989258256154785 -0.5836298969391112
4.9936640625 0.7986368330041387 -0.5853376039499322
4.9948125 0.7975263136278342 -0.5857218822433858
4.9959609375 0.7969584466646169 -0.5854647247199866
4.997109375 0.7968337021340659 -0.5865555128678374
4.9982578125 0.7956289627854849 -0.5881771260401092
4.99940625 0.7951445284149677 -0.5882118655277557
5.0005546875 0.7955944498812546 -0.5898266068413921
5.001703125 0.7947696887572118 -0.5899618428608839
5.0028515625 0.7946504469481245 -0.5901420012178928
5.004 0.793940797872106 -0.5917981310149005
5.0051484375 0.7942876188940889 -0.5924703454903006
5.006296875 0.7920925389287519 -0.5919754568819566
5.0074453125 0.7923473981000941 -0.5932374834517186
5.00859375 0.7934273753492949 -0.5939646442716623
5.0097421875 0.7922268330708319 -0.5951083209459993
5.010890625 0.7909696741501556 -0.5960144781939534
5.0120390625 0.7905674663046359 -0.596004974030758
5.0131875 0.7896860573095738 -0.5961812571492529
5.0143359375 0.7903781118654708 -0.5966927816157853
5.015484375 0.7890365219198721 -0.5977822077819399
5.0166328125 0.789280067901679 -0.5981983837290299
5.01778125 0.7879393189934341 -0.5991587228137595
5.0189296875 0.7868292310856374 -0.6000066378356113
5.020078125 0.7878250445087259 -0.6006981975503004
5.0212265625 0.7868222340403314 -0.6021046967973855
5.022375 0.7859044211306139 -0.6013203813954283
5.0235234375 0.7860800765146364 -0.6027726607000803
5.024671875 0.785056729579869 -0.6033173744186577
5.0258203125 0.7849948679840318 -0.6039432813821345
5.02696875 0.7840075970197556 -0.6048720789924922
5.0281171875 0.7835729921690063 -0.6053973589472583
5.029265625 0.7826306299305684 -0.606513215643342
5.0304140625 0.7819562328467773 -0.6062148648959734
5.0315625 0.7820839393183997 -0.6064855834333743
5.0327109375 0.7816145803834238 -0.6083829666849757
5.033859375 0.782172941202716 -0.6085707271769323
5.0350078125 0.7799541451055751 -0.610138944428847
5.03615625 0.7803099580341911 -0.609838293893969
5.0373046875 0.7811144126185119 -0.6102853234045076
5.038453125 0.7801216326799114 -0.6114294198414932
5.0396015625 0.7792010817827026 -0.6129928158262663
5.04075 0.778241045174179 -0.612697481000629
5.0418984375 0.7779821445895352 -0.6134424829932434
5.043046875 0.7781698887678934 -0.6136800174825566
5.0441953125 0.7777314032193894 -0.6149396649467445
5.04534375 0.7766659886167931 -0.6155381722447784
5.0464921875 0.7757474596989278 -0.615466502906475
5.047640625 0.7756271053414598 -0.6167774223942302
5.0487890625 0.7762125952473496 -0.6176934976596338
5.0499375 0.7752056877920364 -0.617905022077475
5.0510859375 0.7740372043384351 -0.6184726940163082
5.052234375 0.7739854057166832 -0.6190217267779659
5.0533828125 0.772759894181013 -0.6194020749866141
5.05453125 0.7724186265851662 -0.6200864628020882
5.0556796875 0.7727624011746934 -0.6205215691079053
5.056828125 0.7729463512213097 -0.6224359779669667
5.0579765625 0.7715624747868262 -0.6227212009171101
5.059125 0.7702824949603819 -0.6235655308881607
5.0602734375 0.770776136319997 -0.6237805834852718
5.061421875 0.7699326928440363 -0.62419659647864
5.0625703125 0.7687644554060308 -0.6251265714641135
5.06371875 0.7686028377861263 -0.6254470745708958
5.0648671875 0.7693458336875155 -0.6251197808798395
5.066015625 0.7677832798988363 -0.6257258959869407
5.0671640625 0.767066025329966 -0.6267379963527282
5.0683125 0.7668066122380615 -0.6285612114948437
5.0694609375 0.7659793701150006 -0.628587467940679
5.070609375 0.7655708403488347 -0.6293450122643793
5.0717578125 0.7649599155914161 -0.6304468060807744
5.07290625 0.7646487492070325 -0.6307384428165186
5.0740546875 0.7640430192542775 -0.6312894863354519
5.075203125 0.7640033489356045 -0.6314627784576686
5.0763515625 0.7626315838674026 -0.6316155422236593
5.0775 0.7628449136000148 -0.6333354565870177
5.0786484375 0.7630827530970622 -0.6330632081603111
5.079796875 0.7623312084519396 -0.6340543092455562
5.0809453125 0.7618394486423377 -0.6356134170860729
5.08209375 0.761270963975877 -0.6360274032194467
5.0832421875 0.7614658058503063 -0.637104454743836
5.084390625 0.7599913958388914 -0.6373796213979341
5.0855390625 0.7602493997083791 -0.6381001731075918
5.0866875 0.7602862702919333 -0.6392686561565604
5.0878359375 0.7596249317646041 -0.6393489762391777
5.088984375 0.7573535170453863 -0.6393389618273341
5.0901328125 0.7567348666551558 -0.640031977352558
5.09128125 0.7569994098212165 -0.6403943507136851
5.0924296875 0.75559876660187 -0.6420229695153146
5.093578125 0.755455437064793 -0.642268485930533
5.0947265625 0.7552996179699291 -0.6430838166432358
5.095875 0.7538950210493448 -0.6442948961295065
5.0970234375 0.7540185575639219 -0.6435034429667498
5.098171875 0.7542205454746064 -0.6445046708808966
5.0993203125 0.7534263046554426 -0.6454127611604481
5.10046875 0.7529990143073902 -0.6464255086766898
5.1016171875 0.7529648449501115 -0.6469167253683489
5.102765625 0.7524360445738345 -0.647617779650339
5.1039140625 0.7520271511632513 -0.6485339368389941
5.1050625 0.7512077476695562 -0.649233124997969
5.1062109375 0.7510768983290681 -0.6506427937319776
5.107359375 0.7509767508442553 -0.6510931870563775
5.1085078125 0.7511528082833782 -0.6504820906457376
5.10965625 0.750158946671615 -0.6517210662156796
5.1108046875 0.7502103139793898 -0.6517811228243765
5.111953125 0.7494372691330825 -0.6536591064767022
5.1131015625 0.7487629243166057 -0.653125548956277
5.11425 0.7476028878711787 -0.6540974714504594
5.1153984375 0.7482100965473099 -0.655159860006649
5.116546875 0.7476435365463908 -0.6553641315516013
5.1176953125 0.746973179047546 -0.6558166452022871
5.11884375 0.7461584173480105 -0.6572587551944712
5.1199921875 0.7450426188267413 -0.657780199210834
5.121140625 0.7450813242058818 -0.6583915482856944
5.1222890625 0.7452193900083821 -0.6593229233724743
5.1234375 0.7443460129618311 -0.6609943126029091
5.1245859375 0.7438594194911436 -0.6606041033206859
5.125734375 0.7429189931617628 -0.6614842454433087
5.1268828125 0.7436361472891617 -0.6611525397313481
5.12803125 0.7435415312286624 -0.6627712389099611
5.1291796875 0.7426855444258216 -0.6627698666248921
5.130328125 0.7409218103774264 -0.6637606796753975
5.1314765625 0.7405344565467159 -0.6641089048610361
5.132625 0.7407646922847738 -0.6635683713834096
5.1337734375 0.7388559448817398 -0.6656731894693547
5.134921875 0.7387403329886737 -0.6661538690363927
5.1360703125 0.7392892354900213 -0.6669630888613174
5.13721875 0.738464329828822 -0.6671205555713108
5.1383671875 0.7382254958070726 -0.667282320433456
5.139515625 0.7367732836313355 -0.6697461808171261
5.1406640625 0.7356468775478539 -0.6694569603831998
5.1418125 0.7363659579182201 -0.6703589308202449
5.1429609375 0.7360763590649733 -0.6711511775294567
5.144109375 0.7356019690923188 -0.6710109183474846
5.1452578125 0.7355221695031179 -0.6719333804035561
5.14640625 0.7344406697314232 -0.6733965177194361
5.1475546875 0.7341877747941491 -0.672264708404588
5.148703125 0.7335235644979423 -0.6735695175785636
5.1498515625 0.7318968532252769 -0.6739844164510261
5.151 0.7305898155649123 -0.6742256325652276
5.1521484375 0.7305437210468817 -0.6758231397557258
5.153296875 0.7291572886068118 -0.6778600151888673
5.1544453125 0.730809497511964 -0.6769776553024147
5.15559375 0.7298696931537608 -0.6772990419922127
5.1567421875 0.7291066741798371 -0.6781228665072352
5.157890625 0.7280066744977982 -0.6783623186150695
5.1590390625 0.7268512087923942 -0.6794754826483621
5.1601875 0.7265720694636091 -0.6796943526562215
5.1613359375 0.725333784594702 -0.6803555981570951
5.162484375 0.726178227871824 -0.6799335299592377
5.1636328125 0.7249269115785124 -0.6813074395144658
5.16478125 0.7241229143224427 -0.6833259959901599
5.1659296875 0.7233084813832156 -0.683374694227517
5.167078125 0.7226539838187025 -0.6844986513196482
5.1682265625 0.7222756815818748 -0.6841113094465545
5.169375 0.7227892977459405 -0.6858006902438883
5.1705234375 0.721953135854038 -0.6857158505629494
5.171671875 0.7210404259073944 -0.6868679598917031
5.1728203125 0.7201404547848969 -0.6868729665530873
5.17396875 0.7200251371855779 -0.6874183083568605
5.1751171875 0.7194069520975211 -0.6890175542911593
5.176265625 0.7182687260075025 -0.6898112937269153
5.1774140625 0.7182585484909931 -0.6903110826582893
5.1785625 0.7170455813812394 -0.6908072108289802
5.1797109375 0.7174818737792464 -0.6921962371983664
5.180859375 0.7183511387387101 -0.6931217654223325
5.1820078125 0.7165335035576229 -0.693569027559592
5.18315625 0.7154241066199956 -0.6944694082246933
5.1843046875 0.7154328999433721 -0.6942237895589951
5.185453125 0.7150071981512868 -0.6947838141273399
5.1866015625 0.714533023778257 -0.6946046209827094
5.18775 0.7145481974745651 -0.6953926990883302
5.1888984375 0.7128733308782997 -0.6958812053174487
5.190046875 0.7116954858430626 -0.6970279959444547
5.1911953125 0.7118610621644048 -0.6974923362390585
5.19234375 0.7118025970777085 -0.6979564830980313
5.1934921875 0.711378284666991 -0.698587537336875
5.194640625 0.7103572532125627 -0.6995904948335425
5.1957890625 0.7102432937595817 -0.7010776973263535
5.1969375 0.7099544699865264 -0.7012485936031128
5.1980859375 0.7096810443145718 -0.7019633873427444
5.199234375 0.7087879771024491 -0.7031135680249133
5.2003828125 0.7094010612494936 -0.704675023657733
5.20153125 0.7083092991989614 -0.704884739725741
5.2026796875 0.7064818787082062 -0.7051326526526861
5.203828125 0.7060785494897275 -0.7056781874801947
5.2049765625 0.7065923461126743 -0.7071287592947848
5.206125 0.7057819485143116 -0.7073934383824398
5.2072734375 0.7053184151803519 -0.707925706680616
5.208421875 0.7041625628143542 -0.7088989638961785
5.2095703125 0.7040908174712464 -0.7087051062899271
5.21071875 0.7048239945740773 -0.7097765974799181
5.2118671875 0.7032497949922558 -0.7099876808253154
5.213015625 0.7013720675203278 -0.7124392953955831
5.2141640625 0.7008944710898818 -0.7130137472410202
5.2153125 0.7010512007739046 -0.7133456981976676
5.2164609375 0.701400880185628 -0.7125592989035843
5.217609375 0.7002885564890002 -0.7134356411710104
5.2187578125 0.6997625128788963 -0.713397085079671
5.21990625 0.6984097060467547 -0.7145516804793015
5.2210546875 0.6988796491104018 -0.7153760665469884
5.222203125 0.6976300417311082 -0.7158302869941193
5.2233515625 0.6975875715241636 -0.716368707321508
5.2245 0.6966438487832752 -0.7166372756872816
5.2256484375 0.6958486653882456 -0.7173373460104606
5.226796875 0.6953260360715449 -0.7184799192602065
5.2279453125 0.6954181143232376 -0.7173920011631858
5.22909375 0.6938327903547583 -0.7191730256068538
5.2302421875 0.6938239883712429 -0.7193893384053126
5.231390625 0.6932552182562527 -0.7206358116363698
5.2325390625 0.691485532019725 -0.722210148397237
5.2336875 0.6918834565642313 -0.7214641434075718
5.2348359375 0.6906587943122038 -0.7216362142674808
5.235984375 0.6889547217124945 -0.722892883763571
5.2371328125 0.6889941910427855 -0.7245769544155907
5.23828125 0.6890026580653479 -0.725087814761044
5.2394296875 0.6901270067037153 -0.7245354878830652
5.240578125 0.6880813469750363 -0.7259488825924549
5.2417265625 0.6875378260265159 -0.7262348251315338
5.242875 0.6866830571971568 -0.7272647709433077
5.2440234375 0.6859145952725206 -0.7275739458765469
5.245171875 0.6860193314581413 -0.7281308122837958
5.2463203125 0.6853981614853528 -0.7284027348043658
5.24746875 0.6837845353740091 -0.7291385128090824
5.2486171875 0.6827846207424075 -0.7298411379855497
5.249765625 0.6830622910601771 -0.7306461659859207
5.2509140625 0.6824601313031731 -0.7302314613236919
5.2520625 0.6827226031703173 -0.7309053762555346
5.2532109375 0.6813822472492124 -0.7319976271972696
5.254359375 0.6797362929001726 -0.7329564157816852
5.2555078125 0.6801947332078623 -0.7341140884553078
5.25665625 0.6795747307421216 -0.7349782379102129
5.2578046875 0.679666041238219 -0.7348063915448887
5.258953125 0.6783535106891155 -0.7352740361843746
5.2601015625 0.6777481580891835 -0.7353326306687347
5.26125 0.6772810562921703 -0.7368125626907682
5.2623984375 0.6759477934232283 -0.7365143074175013
5.263546875 0.6773390536393554 -0.7366475066127867
5.2646953125 0.675860840641957 -0.7375081040758726
5.26584375 0.674933159748 -0.7385480501977439
5.2669921875 0.6737753496838303 -0.7382663193084431
5.268140625 0.6735475780746527 -0.7397631238743123
5.2692890625 0.6730367931060092 -0.7391690702931007
5.2704375 0.6726219831928537 -0.7403159527553067
5.2715859375 0.6715539746384493 -0.7421803852987323
5.272734375 0.6706753160102364 -0.7416531316745179
5.2738828125 0.6690631411672006 -0.7431290669681858
5.27503125 0.6703397580507766 -0.743438351241349
5.2761796875 0.669457373629387 -0.7442467491883138
5.277328125 0.6681736149225739 -0.7459397871266491
5.2784765625 0.6681057981925462 -0.747252369316647
5.279625 0.6669174734522002 -0.7459737127053384
5.2807734375 0.6670229644472384 -0.746717101291506
5.281921875 0.6670799036166691 -0.74793658791469
5.2830703125 0.6664001027613404 -0.7488407078885463
5.28421875 0.6639900319849932 -0.7491557034375018
5.2853671875 0.6632078739150794 -0.7499032116687002
5.286515625 0.6625073209500041 -0.7502829900241277
5.2876640625 0.66285606694125 -0.7499081888076699
5.2888125 0.6620733654353033 -0.7523964086565261
5.2899609375 0.6606519500632054 -0.7508083161219102
5.291109375 0.6605706555293394 -0.7511766788075298
5.2922578125 0.6601844739428724 -0.7517183515662857
5.29340625 0.6602535986929065 -0.7523558753664593
5.2945546875 0.6593649145874474 -0.7537209358514068
5.295703125 0.6571608749770311 -0.7548610003918645
5.2968515625 0.6572798594781125 -0.7546044009199913
5.298 0.6575419016989299 -0.7566085799797163
5.2991484375 0.6571598741515805 -0.7552017028242427
5.300296875 0.6561902542975864 -0.7558738196244597
5.3014453125 0.6560254403194876 -0.757681819050578
5.30259375 0.6541256699455029 -0.7577800265431013
5.3037421875 0.6530097187217936 -0.757519766115646
5.304890625 0.6537088710858319 -0.7591110360800302
5.3060390625 0.6517875472710066 -0.7602853421014418
5.3071875 0.6504720660786176 -0.7611484454705213
5.3083359375 0.6498964153351328 -0.762451890597208
5.309484375 0.649655918820174 -0.7618242045101836
5.3106328125 0.6494231010056187 -0.7629332082728275
5.31178125 0.648711860165144 -0.7631103260398127
5.3129296875 0.6476522200265225 -0.7635849444865999
5.314078125 0.6471321766949356 -0.7643384494104788
5.3152265625 0.6470883775708962 -0.7648372067877973
5.316375 0.6469443112589197 -0.7656819951840688
5.3175234375 0.6462431392763137 -0.7658998116966405
5.318671875 0.6460632309616855 -0.7670674741863064
5.3198203125 0.6450010911408933 -0.766597263651477
5.32096875 0.6442289252472129 -0.7683283031437647
5.3221171875 0.6433973172338836 -0.7686879339251059
5.323265625 0.6442204031283972 -0.7692103380537145
5.3244140625 0.6426002125925745 -0.7705414652280177
5.3255625 0.6416071435213558 -0.7708346759827611
5.3267109375 0.6410161514873522 -0.771071848732527
5.327859375 0.6409258105135996 -0.771514069654244
5.3290078125 0.6416700167444788 -0.771822011239254
5.33015625 0.6399770636761488 -0.7723614122113911
5.3313046875 0.6402435572787519 -0.7733561586557762
5.332453125 0.6374716473786001 -0.7740423938407137
5.3336015625 0.6375306214312296 -0.774159275051078
5.33475 0.637627861920846 -0.7743881796638752
5.3358984375 0.6372676097152111 -0.7753932706366797
5.337046875 0.6356913983946453 -0.7761946425869362
5.3381953125 0.6352087918821546 -0.7757216517103258
5.33934375 0.6347206339718309 -0.7758480778363153
5.3404921875 0.6338176538597394 -0.7772480553141039
5.341640625 0.6335002915427321 -0.7780712607296645
5.3427890625 0.6331743880734821 -0.7797454135150064
5.3439375 0.6317886435756428 -0.779081185530452
5.3450859375 0.6305094325973866 -0.7795255275772868
5.346234375 0.6305246774447848 -0.7802463440272083
5.3473828125 0.6307633084972197 -0.7813932749872643
5.34853125 0.6287219288265669 -0.781897726895699
5.3496796875 0.6285528919640975 -0.781866580933055
5.350828125 0.629230470619946 -0.782567013097642
5.3519765625 0.6276089653308214 -0.7837989505973987
5.353125 0.627687032190694 -0.783902643921803
5.3542734375 0.6273956616109309 -0.7845009271987532
5.355421875 0.6262635738306441 -0.7840306240626053
5.3565703125 0.6250385494919197 -0.78548571935086
5.35771875 0.6251588967375898 -0.7865480313931916
5.3588671875 0.6247396511346817 -0.7857373352590044
5.360015625 0.6240204510099897 -0.7868066399808037
5.3611640625 0.623092377455354 -0.787239179477598
5.3623125 0.6218383309741106 -0.7876623483743214
5.3634609375 0.6209791058625084 -0.7886048476855178
5.364609375 0.6213458012136978 -0.7892385242853602
5.3657578125 0.6204447002781327 -0.7890123800581662
5.36690625 0.6197960470165507 -0.790441631309006
5.3680546875 0.6191290334946855 -0.7903925707690023
5.369203125 0.6183068822753094 -0.7910185636697716
5.3703515625 0.6176192809266637 -0.7921416727286434
5.3715 0.6169422667783526 -0.7927301234056536
5.3726484375 0.6157456985438823 -0.7934447767421611
5.373796875 0.6153541726611258 -0.7934361095520733
5.3749453125 0.6147305336546044 -0.7947148179911843
5.37609375 0.6145942877123567 -0.7943497584262597
5.3772421875 0.6141438020032063 -0.7954751013511112
5.378390625 0.613066548638976 -0.7960696388120722
5.3795390625 0.6120648365916548 -0.7967891696103979
5.3806875 0.6117461970818124 -0.7980757205740111
5.3818359375 0.6115040751381264 -0.7981249019181024
5.382984375 0.6111443317587436 -0.7986258748182361
5.3841328125 0.6092363705861299 -0.7989591463046983
5.38528125 0.6089702003277321 -0.7997354617580192
5.3864296875 0.6078677630925169 -0.8005541026288425
5.387578125 0.6073973585470593 -0.8014054423781528
5.3887265625 0.6080726123935799 -0.8005966083139407
5.389875 0.6062168867443706 -0.8015990025851673
5.3910234375 0.6057966839456269 -0.8022216317238887
5.392171875 0.6049863328582621 -0.8031490895132366
5.3933203125 0.6047061410922236 -0.8031551283880142
5.39446875 0.6044430098484226 -0.8044440199966858
5.3956171875 0.603648420341062 -0.8053504148414085
5.396765625 0.6018874680318328 -0.8049911574755643
5.3979140625 0.6012332814197888 -0.8056003424307762
5.3990625 0.6007410366654334 -0.8065817793183059
5.4002109375 0.6012660762010719 -0.8074991496948916
5.401359375 0.5997805730886512 -0.8082208457581153
5.4025078125 0.5986070883719993 -0.808430911021706
5.40365625 0.5987433354300933 -0.8085732980712026
5.4048046875 0.5977692435354844 -0.8081436354579373
5.405953125 0.5961605779998491 -0.8094563829182293
5.4071015625 0.5959961199926187 -0.8100050342948052
5.40825 0.5935919582648417 -0.8112042371331765
5.4093984375 0.5945534807810816 -0.8106459494988101
5.410546875 0.5932418954061206 -0.8124022123634148
5.4116953125 0.5930798858877742 -0.8126193548464485
5.41284375 0.5923655308016301 -0.8133802675506626
5.4139921875 0.5914220211513198 -0.8136162452888365
5.415140625 0.5900042611383596 -0.8140016505209267
5.4162890625 0.5887465016104473 -0.8143463612683262
5.4174375 0.588771739446248 -0.8143101077699414
5.4185859375 0.5883164054447599 -0.8151131604371173
5.419734375 0.5879191878423237 -0.8146275286519952
5.4208828125 0.5870716893332938 -0.8153558150119188
5.42203125 0.5866181301510164 -0.8168062441566909
5.4231796875 0.585243902634905 -0.8178005470967967
5.424328125 0.5856799763219316 -0.8175240337416441
5.4254765625 0.584438252213546 -0.8182410765669497
5.426625 0.584337900210149 -0.8185031344715068
5.4277734375 0.583907110823469 -0.819437708396576
5.428921875 0.5831733246824667 -0.8198334997351719
5.4300703125 0.5818939189769128 -0.8201936063264132
5.43121875 0.5811811559279169 -0.8211103917210854
5.4323671875 0.5799994759730819 -0.82129674714516
5.433515625 0.5794870513461448 -0.8214817434873025
5.4346640625 0.5785015709894084 -0.8217902310966053
5.4358125 0.5785499639640254 -0.8223453321229809
5.4369609375 0.5770379028935589 -0.824069325017121
5.438109375 0.575338470102278 -0.8242163277761416
5.4392578125 0.5751842971183677 -0.8234482656646627
5.44040625 0.5743847458828947 -0.8247802741469926
5.4415546875 0.573881923624478 -0.824104152936828
5.442703125 0.5728654975919114 -0.8244754317402815
5.4438515625 0.5715783543964198 -0.8269649635383463
5.445 0.571185929346757 -0.8268433552703384
5.4461484375 0.5705696619277838 -0.8275511974341726
5.447296875 0.5701075365753837 -0.8275408175128169
5.4484453125 0.5696112871783506 -0.8279258137920055
5.44959375 0.5683402738926472 -0.8291404877751976
5.4507421875 0.5677035026694416 -0.828787299385543
5.451890625 0.5674306269558216 -0.8298196858073557
5.4530390625 0.5660150231442009 -0.8302335645238712
5.4541875 0.565654789435003 -0.8308283181148122
5.4553359375 0.5642638759402645 -0.8325800681799829
5.456484375 0.5643258680567773 -0.832276605215621
5.4576328125 0.5637017335122153 -0.8325712618033231
5.45878125 0.5630918314253359 -0.8336852774803343
5.4599296875 0.5627418249296868 -0.832849330131332
5.461078125 0.5609703939155852 -0.8336646865086235
5.4622265625 0.5603797954330125 -0.8353190061824204
5.463375 0.5592941773909414 -0.8359359943008619
5.4645234375 0.5588054156223362 -0.8354318768410014
5.465671875 0.5589367914626908 -0.8358161784167149
5.4668203125 0.5589596157289753 -0.8380087564912091
5.46796875 0.5572464977179525 -0.8372983004141663
5.4691171875 0.5564663927314728 -0.8382966761112234
5.470265625 0.5563279470203826 -0.8391888419223447
5.4714140625 0.5554636608445296 -0.8389805322980312
5.4725625 0.5538099739304263 -0.8398026118557942
5.4737109375 0.5534590429216227 -0.8398209378414292
5.474859375 0.5534004106054506 -0.8404670796916128
5.4760078125 0.5521188061658635 -0.8402256377268413
5.47715625 0.5523042321025621 -0.8412765752089211
5.4783046875 0.5521055888800863 -0.8401170028000462
5.479453125 0.55027201681495 -0.841445403200715
5.4806015625 0.5491494558148262 -0.841455363531767
5.48175 0.5484574968509152 -0.8427451404111718
5.4828984375 0.5475905454134109 -0.8435763169056109
5.484046875 0.5483781598183287 -0.8435112321922658
5.4851953125 0.5470603737927131 -0.8445782037134114
5.48634375 0.5461675001487292 -0.8439696647713653
5.4874921875 0.5456605595349044 -0.8445699168121854
5.488640625 0.5443985179970586 -0.8453796002149662
5.4897890625 0.54410102364241 -0.8460177909870148
5.4909375 0.5427727432998348 -0.8462045680614559
5.4920859375 0.5416996492948911 -0.8472592913580773
5.493234375 0.5418204000494323 -0.8478601172188047
5.4943828125 0.5404311874951495 -0.8487119601856532
5.49553125 0.5409173872613879 -0.8482125751397207
5.4966796875 0.5396633570570457 -0.8485352668392143
5.497828125 0.5387703370749906 -0.8490395113164854
5.4989765625 0.5381185294275477 -0.8492041866513387
5.500125 0.5369110661983095 -0.8498144314166393
5.5012734375 0.5375712600249823 -0.8508001873902367
5.502421875 0.5368392528803984 -0.8512228981776444
5.5035703125 0.5364575123322062 -0.8517407097313288
5.50471875 0.5347975798055803 -0.8517792917723748
5.5058671875 0.5345875580634563 -0.8518177331777417
5.507015625 0.5340831639072849 -0.8520261482542563
5.5081640625 0.5332152105823815 -0.8535268792898589
5.5093125 0.5321024714872815 -0.8536042659397074
5.5104609375 0.5319852492529112 -0.8543035289485597
5.511609375 0.5311796863232635 -0.8551076452383075
5.5127578125 0.5307327069864848 -0.8547164375593574
5.51390625 0.5298721346349431 -0.8558280654627394
5.5150546875 0.5285909454333295 -0.85574747582434
5.516203125 0.527327203632471 -0.8568259407061006
5.5173515625 0.5270747555873694 -0.8569696998145555
5.5185 0.5264771521776487 -0.8575027320452367
5.5196484375 0.5256216012116592 -0.858294868037147
5.520796875 0.5253353590661347 -0.8582515460258757
5.5219453125 0.5246659407910876 -0.8590437169220339
5.52309375 0.5238099914460963 -0.8594901411270096
5.5242421875 0.5229971027545212 -0.8606741478063555
5.525390625 0.5229585378532371 -0.860948860353958
5.5265390625 0.5209774550675801 -0.8616879622916523
5.5276875 0.520186440286723 -0.8620381704472585
5.5288359375 0.5194371867687727 -0.8624673958949698
5.529984375 0.519182525717319 -0.8624984559966575
5.5311328125 0.5182959016972856 -0.8627438444191056
5.53228125 0.5181195098946075 -0.8639972822497094
5.5334296875 0.5167347942595993 -0.8649637763127005
5.534578125 0.5163304814891827 -0.8652079258437384
5.5357265625 0.5156038987546655 -0.8654640823445002
5.536875 0.5148429184890324 -0.8650068767405966
5.5380234375 0.513616993199162 -0.865883000736775
5.539171875 0.5140612199209696 -0.8654646247755069
5.5403203125 0.5132915877103804 -0.866320631943032
5.54146875 0.5118052075323287 -0.8668743293454599
5.5426171875 0.5118437659811857 -0.8679674996071474
5.543765625 0.5106254890485997 -0.8683328196082111
5.5449140625 0.5099589811395467 -0.8686380674405565
5.5460625 0.5095857688089446 -0.8695267311852594
5.5472109375 0.5083024237040986 -0.8697106770193147
5.548359375 0.5078260949238499 -0.8702056277886238
5.5495078125 0.5068394163561984 -0.8709636405574588
5.55065625 0.5057021314838908 -0.871928577571725
5.5518046875 0.5053019462632996 -0.8721353650771664
5.552953125 0.5046655613567708 -0.8730398433271869
5.5541015625 0.5040391401040507 -0.8728866785052215
5.55525 0.5024537606446929 -0.8742368235817249
5.5563984375 0.5009908815972843 -0.8738967526196588
5.557546875 0.5009607116251875 -0.874678803549721
5.5586953125 0.49974789881409615 -0.8751877990814427
5.55984375 0.49844155508664073 -0.8747804011849084
5.5609921875 0.49796706507517974 -0.8760702487039749
5.562140625 0.49728775902654565 -0.8762826941791746
5.5632890625 0.4966459766004616 -0.8764756931443767
5.5644375 0.4952753615087997 -0.8779646849486311
5.5655859375 0.4948506647375919 -0.8775849047406434
5.566734375 0.4941520748169572 -0.8781718667559443
5.5678828125 0.4932664258311719 -0.8787245276297033
5.56903125 0.4918107834720516 -0.8794946319976191
5.5701796875 0.4913047424468406 -0.8793836558714409
5.571328125 0.49068888062952304 -0.880136717833992
5.5724765625 0.48972505777324765 -0.8810286871496184
5.573625 0.49018857991043463 -0.8811789711868268
5.5747734375 0.48834324919568484 -0.8816669884267994
5.575921875 0.48726868551420616 -0.8821305724576527
5.5770703125 0.4865390332124018 -0.8820831344929332
5.57821875 0.48650943430836946 -0.8827981347528535
5.5793671875 0.4857797656087165 -0.8834178982519245
5.580515625 0.4847252004592431 -0.8841479536152065
5.5816640625 0.48325109495047636 -0.8838120540353847
5.5828125 0.48218542571938294 -0.883410746800775
5.5839609375 0.4812726179060588 -0.8837339579233346
5.585109375 0.4808616898874254 -0.8843904935035163
5.5862578125 0.4799693780910956 -0.8845960054562841
5.58740625 0.47929073978433495 -0.8855828304990206
5.5885546875 0.47855362507364263 -0.885340634610713
5.589703125 0.47756752607967223 -0.8858567281379566
5.5908515625 0.47722508052124496 -0.8862359473351935
5.592 0.47593515600270175 -0.8869597722651107
5.5931484375 0.474844019316699 -0.8873978784627692
5.594296875 0.47389150839840555 -0.8874849550085414
5.5954453125 0.4725445307055964 -0.8884977571035857
5.59659375 0.4720870508203174 -0.8886741003640157
5.5977421875 0.47140942913746897 -0.8889820761899647
5.598890625 0.4711672382065059 -0.8894916721133774
5.6000390625 0.4700138607608241 -0.8896377299365298
5.6011875 0.46899616191226046 -0.890051635870584
5.6023359375 0.46864249521297363 -0.8899348446595529
5.603484375 0.4680359196157181 -0.8900815802486994
5.6046328125 0.46721085744976704 -0.8908631039154196
5.60578125 0.46630726475217454 -0.8919672734313621
5.6069296875 0.4661650981497183 -0.8918813963714946
5.608078125 0.4644266695684689 -0.8921440469924764
5.6092265625 0.46449111103322455 -0.8923754695081412
5.610375 0.46330913504306137 -0.8924553398659063
5.6115234375 0.46297622565020835 -0.893277544646315
5.612671875 0.46212211119003654 -0.8933919480724261
5.6138203125 0.46137906540668344 -0.8941834271735415
5.61496875 0.46080898669033643 -0.8938360418516006
5.6161171875 0.45959034917617636 -0.8938567344232553
5.617265625 0.4585140739109659 -0.8948093670654065
5.6184140625 0.4579715537890523 -0.8950213042945776
5.6195625 0.45725041757967166 -0.8948846518656453
5.6207109375 0.4567266473085365 -0.8955484073047522
5.621859375 0.45556135512080426 -0.8961989455109818
5.6230078125 0.45526277214912103 -0.8962678970265225
5.62415625 0.45451021817142834 -0.8968097672979051
5.6253046875 0.45369640786485194 -0.8973436607572085
5.626453125 0.45233540761071345 -0.8979608606184688
5.6276015625 0.45183628748155746 -0.8983116561042112
5.62875 0.4505102477258194 -0.8988668998942717
5.6298984375 0.45090645915314376 -0.8986448060095128
5.631046875 0.45008104669721627 -0.8991345619994359
5.6321953125 0.44902346780176106 -0.8995202182309123
5.63334375 0.447890534687727 -0.9002108459990797
5.6344921875 0.446736922242818 -0.9010301239550801
5.635640625 0.44645927597719837 -0.9012308707881012
5.6367890625 0.445223147821349 -0.9020642560304822
5.6379375 0.4442010884889307 -0.9018653027219796
5.6390859375 0.444040166284448 -0.9017558023661983
5.640234375 0.4437336229530588 -0.9020107094924202
5.6413828125 0.4421408127254071 -0.9028724077237462
5.64253125 0.44143888549169985 -0.9031713528460923
5.6436796875 0.44061307843643627 -0.9032671597777159
5.644828125 0.439871786789537 -0.9038403097801108
5.6459765625 0.43970888478962306 -0.90363963557767
5.647125 0.4386057919117334 -0.9040756259505482
5.6482734375 0.4383091988236796 -0.9043649203161552
5.649421875 0.43775167937103576 -0.9047682780162266
5.6505703125 0.43606200420266084 -0.9053813727802003
5.65171875 0.4358787129812528 -0.9063984878430091
5.6528671875 0.43448530886833797 -0.9077237928731501
5.654015625 0.43450752671674564 -0.9076665803462838
5.6551640625 0.43361383385560226 -0.907875572167965
5.6563125 0.43299108829837707 -0.9077127638657603
5.6574609375 0.4323989921512109 -0.9081335697198591
5.658609375 0.4315284328822538 -0.908226405439959
5.6597578125 0.4310177622130621 -0.9092000427702555
5.66090625 0.4293299734097136 -0.9094535597213792
5.6620546875 0.4279048495191071 -0.9097118089285486
5.663203125 0.427505495911197 -0.9103595997273509
5.6643515625 0.42727192804657327 -0.9107558699751002
5.6655 0.42625936806417086 -0.9115312990246691
5.6666484375 0.42647206928139275 -0.912396854377622
5.667796875 0.42532107832480937 -0.911952224217858
5.6689453125 0.4237768623192673 -0.9132196969865752
5.67009375 0.42321955498139974 -0.9136012507611986
5.6712421875 0.42311726698823393 -0.9145366323070748
5.672390625 0.42195893048497807 -0.9142353806827219
5.6735390625 0.42005422116835556 -0.914975107271811
5.6746875 0.4200493074649029 -0.9157539673581476
5.6758359375 0.41913619518899586 -0.9148172534992546
5.676984375 0.41857259532067953 -0.91509935599842
5.6781328125 0.41717478232510347 -0.9165083962957485
5.67928125 0.41622971321464614 -0.9161160966469313
5.6804296875 0.41635611699534375 -0.9160341619397371
5.681578125 0.41478481299242775 -0.9167082862020911
5.6827265625 0.4136831929895919 -0.9167538633500959
5.683875 0.4130885024118214 -0.917438663788356
5.6850234375 0.4122328156484811 -0.9179585660841415
5.686171875 0.41140199488267526 -0.9181556245316058
5.6873203125 0.4091476540755927 -0.918442005501221
5.68846875 0.40850785616345453 -0.9186081758222076
5.6896171875 0.4075883070809357 -0.9194881229982221
5.690765625 0.4065058840224582 -0.919535997606083
5.6919140625 0.4063692747086526 -0.9191861805055337
5.6930625 0.40497723207164876 -0.9202031271099125
5.6942109375 0.40374857223405314 -0.9195884346784466
5.695359375 0.40244261451852215 -0.9204066254147991
5.6965078125 0.40203568695702113 -0.920447918392839
5.69765625 0.40026451487718123 -0.9199838746090776
5.6988046875 0.40043145159160753 -0.919952167326177
5.699953125 0.39942518449623315 -0.9200105094063263
5.7011015625 0.39929207355107554 -0.9202261539889015
5.70225 0.39849363195603876 -0.9210916590354175
5.7033984375 0.3968708148660842 -0.9216586124895421
5.704546875 0.39595928542404973 -0.9223784365864136
5.7056953125 0.3954450104443297 -0.9228551055105806
5.70684375 0.39565496277690876 -0.9224640132023265
5.7079921875 0.3944254336829157 -0.9234907040376481
5.709140625 0.39304442650641314 -0.9231445515932651
5.7102890625 0.3928198723512927 -0.9232443751503923
5.7114375 0.39182214814239785 -0.9232134174509312
5.7125859375 0.39085086020074666 -0.9232997850752369
5.713734375 0.3900768231338793 -0.9233196676434746
5.7148828125 0.3894495950047001 -0.9234720249437445
5.71603125 0.389699507559531 -0.9239563011457341
5.7171796875 0.3890836636947967 -0.924056087854558
5.718328125 0.3884894205412589 -0.924621249176928
5.7194765625 0.38796790636964784 -0.9256646750285696
5.720625 0.38595104125940594 -0.9254100338541047
5.7217734375 0.3852175399616554 -0.9259288760902773
5.722921875 0.38457198989652164 -0.9270048460055255
5.7240703125 0.3841102143852339 -0.9268558147155124
5.72521875 0.3834237996499018 -0.9274030133251377
5.7263671875 0.3825699342930388 -0.9277363067940072
5.727515625 0.3822433276314321 -0.9272375628097896
5.7286640625 0.38215511959242027 -0.9281904181264018
5.7298125 0.3815652116663232 -0.9286128340968379
5.7309609375 0.38091169292569 -0.9298947000728521
5.732109375 0.3800121770014259 -0.9306879662019903
5.7332578125 0.3782411116645473 -0.9305439288478007
5.73440625 0.37813831907376527 -0.9306897151254457
5.7355546875 0.377270306491555 -0.9306239121270946
5.736703125 0.3759914433324892 -0.9303636690962389
5.7378515625 0.3751616054385897 -0.9308003728610708
5.739 0.37424224840232967 -0.9308557784009581
5.7401484375 0.37343344231844355 -0.932018731947263
5.741296875 0.3732265767120857 -0.9328650749422511
5.7424453125 0.3726703603398078 -0.9332029853526593
5.74359375 0.37217135635794973 -0.9338276506714832
5.7447421875 0.37042958168524065 -0.9337386684474188
5.745890625 0.37003956199550625 -0.9344548032214831
5.7470390625 0.36990688099014046 -0.9346433688562847
5.7481875 0.369904582541422 -0.935311433287363
5.7493359375 0.3685167059650355 -0.9354537536448176
5.750484375 0.36726341882688673 -0.9354681369457091
5.7516328125 0.36701523059251606 -0.9357116284106171
5.75278125 0.3656695006856087 -0.9372555205510023
5.7539296875 0.36498275125449514 -0.9370708129952435
5.755078125 0.3641938401380096 -0.9373792258438355
5.7562265625 0.3631554168991378 -0.9379494766109719
5.757375 0.36174821804743057 -0.9377838417788106
5.7585234375 0.3618039228792328 -0.9375805505363033
5.759671875 0.3608911419847509 -0.9370973732447697
5.7608203125 0.3594977583330269 -0.9386752047025326
5.76196875 0.35898854663064894 -0.9381324663006777
5.7631171875 0.3581010967361766 -0.9375124428008106
5.764265625 0.3567119156611517 -0.9388064418625144
5.7654140625 0.3566269433398323 -0.9388656623958401
5.7665625 0.3559065662649203 -0.9393392236628709
5.7677109375 0.3547780021726091 -0.939446065861911
5.768859375 0.35286330812082933 -0.9396004872274164
5.7700078125 0.352465712044867 -0.9399820004272519
5.77115625 0.3511771982333464 -0.9393414017867379
5.7723046875 0.3511072000649455 -0.9403526919189851
5.773453125 0.3498042696953446 -0.940687079363373
5.7746015625 0.34837908353076597 -0.940998371966637
5.77575 0.3484130758906626 -0.9420645936612918
5.7768984375 0.3474063402587704 -0.942184507062772
5.778046875 0.34697233877647055 -0.9422495469321568
5.7791953125 0.345170612860031 -0.9426467666206472
5.78034375 0.34325165634398436 -0.9435087602410037
5.7814921875 0.3434696657594733 -0.9437982431100107
5.782640625 0.34340217553537794 -0.9444364560682963
5.7837890625 0.3426946056127601 -0.9446557642973283
5.7849375 0.3418294233923787 -0.9453827420823074
5.7860859375 0.33887870713581403 -0.9460130390562037
5.787234375 0.3385533792597463 -0.9460853457922593
5.7883828125 0.3381659626684771 -0.9462856988438105
5.78953125 0.3373944777070536 -0.9468380396979386
5.7906796875 0.33677525301592387 -0.9476703685681999
5.791828125 0.3360746772223633 -0.9473810203523898
5.7929765625 0.3349887919422547 -0.9468732316851963
5.794125 0.33492985711338646 -0.947414036033833
5.7952734375 0.3342059859486476 -0.9475686421367429
5.796421875 0.3333852909131106 -0.9471316739166036
5.7975703125 0.3326053043174044 -0.9480799988145122
5.79871875 0.3313235264574296 -0.9477749215138555
5.7998671875 0.3300758831279785 -0.9483008290275612
5.801015625 0.33039182056249794 -0.9478659724894963
5.8021640625 0.329271782504595 -0.9487921001018156
5.8033125 0.32883490839081614 -0.9484446946015667
5.8044609375 0.3262529071286806 -0.9477063720741671
5.805609375 0.3262601050835009 -0.9494025360950463
5.8067578125 0.32661569872161306 -0.9504594326497282
5.80790625 0.3253513178569922 -0.9499532255752657
5.8090546875 0.3240257450467404 -0.9505695946446288
5.810203125 0.3225561796665064 -0.9513721292966305
5.8113515625 0.32202103932822423 -0.9518044682072626
5.8125 0.32114366480768475 -0.952738573974423
5.8136484375 0.3210519344709494 -0.952754231409066
5.814796875 0.3206778721267225 -0.9521376344827885
5.8159453125 0.3180315339807448 -0.9527315249835396
5.81709375 0.3181603986788559 -0.9530451645519648
5.8182421875 0.3186361709784825 -0.9531261902016936
5.819390625 0.3175908899016754 -0.9530700254440445
5.8205390625 0.31589784525392595 -0.9536081597720016
5.8216875 0.31405651684839586 -0.9540185729520182
5.8228359375 0.3129359530734911 -0.9538449955336287
5.823984375 0.31255575676058195 -0.9547689150994183
5.8251328125 0.3118397538971771 -0.9553442935594438
5.82628125 0.3115192530128461 -0.9552094589957814
5.8274296875 0.3102179045882697 -0.9549564280410004
5.828578125 0.30908416223877144 -0.9540472893331747
5.8297265625 0.3080892051607396 -0.9547553904511956
5.830875 0.30687030786908237 -0.9546218598650024
5.8320234375 0.3058595290193029 -0.956244857075695
5.833171875 0.3056547738926533 -0.9564745632682263
5.8343203125 0.303703648597174 -0.9556008765197574
5.83546875 0.30288850256249256 -0.9565564707702234
5.8366171875 0.30213015464310305 -0.9561871998026018
5.837765625 0.300897021697492 -0.956504976865576
5.8389140625 0.2999894751866036 -0.9567883981448435
5.8400625 0.29998953394425676 -0.9566167877478907
5.8412109375 0.29918722089943556 -0.9562609761616138
5.842359375 0.29836483612151055 -0.9574629706262322
5.8435078125 0.2979881908352877 -0.9581147963413762
5.84465625 0.29633846266659003 -0.9569086233568459
5.8458046875 0.2950825382312725 -0.9570313558219306
5.846953125 0.2935088173974202 -0.9584413679833484
5.8481015625 0.29503279831025525 -0.9587158495362764
5.84925 0.2940245890412466 -0.9584557272156388
5.8503984375 0.29327134468301924 -0.9586538249780976
5.851546875 0.29073927318871245 -0.9586250173748962
5.8526953125 0.2895228601169314 -0.9587084190976732
5.85384375 0.2893738406556915 -0.9578417805892602
5.8549921875 0.28968249190434425 -0.9595327041517984
5.856140625 0.2882202384254152 -0.959996361709334
5.8572890625 0.28662279952323066 -0.9599087665356365
5.8584375 0.28534029532860783 -0.9599417965696201
5.8595859375 0.284781275465167 -0.959902332176408
5.860734375 0.28353062471705787 -0.9594232108483646
5.8618828125 0.2832674443347058 -0.9601009054628152
5.86303125 0.28193208691753247 -0.960649032612572
5.8641796875 0.2819929846907923 -0.9604696267674182
5.865328125 0.27979328364786044 -0.9611039227497993
5.8664765625 0.2785713673954518 -0.9622283911110538
5.867625 0.27802931431137545 -0.9622139158386296
5.8687734375 0.27725305397235966 -0.9627895917007842
5.869921875 0.274627026114545 -0.963372458493424
5.8710703125 0.2744750455388089 -0.9641446528778101
5.87221875 0.2749690425077469 -0.9629467852118452
5.8733671875 0.2742164119374898 -0.9641877678556094
5.874515625 0.2731181363120974 -0.964167137538682
5.8756640625 0.27154642497377235 -0.9639488814633208
5.8768125 0.27224575081941776 -0.9649069505841795
5.8779609375 0.27116408731650876 -0.9656190845956703
5.879109375 0.2700850164972838 -0.965489172695721
5.8802578125 0.26930389118860987 -0.9647139300108376
5.88140625 0.2677065158037674 -0.966304464204771
5.8825546875 0.2670746330695187 -0.9665371375981469
5.883703125 0.26683125944034913 -0.96603127496208
5.8848515625 0.26616155911843054 -0.9668045458430312
5.886 0.2658883294175864 -0.965889240356685
5.8871484375 0.26487057701963285 -0.9667915379441784
5.888296875 0.2643238723619443 -0.966463760003949
5.8894453125 0.264264556557337 -0.9662382581994439
5.89059375 0.2643091278781817 -0.9666293972681881
5.8917421875 0.2630214061377249 -0.9663665671207358
5.892890625 0.26179938277750947 -0.9663633230489803
5.8940390625 0.2599626669007675 -0.9670051091991934
5.8951875 0.25888802603643113 -0.9669144014663887
5.8963359375 0.25798123516169047 -0.9679382677267612
5.897484375 0.25699001140949507 -0.9675882007346552
5.8986328125 0.25616824238447156 -0.9680131340332029
5.89978125 0.25405475074605116 -0.9675421374883435
5.9009296875 0.25429679889193985 -0.9675616948881197
5.902078125 0.25336423931246566 -0.9681464795106441
5.9032265625 0.2521733034824314 -0.968015058976706
5.904375 0.25249815720635044 -0.9681854307913722
5.9055234375 0.2501041701757501 -0.9683299059984921
5.906671875 0.24999027973492463 -0.967821754601397
5.9078203125 0.24908179457755006 -0.9686228058431464
5.90896875 0.2479405311781092 -0.9687906864964987
5.9101171875 0.24792176326357154 -0.9688002588841959
5.911265625 0.2454728443643002 -0.96880011416895
5.9124140625 0.24475326800314337 -0.9685779342873221
5.9135625 0.24379575242617574 -0.9696249164062479
5.9147109375 0.24271700756300468 -0.9691479344828584
5.915859375 0.2426026473605559 -0.9686979355251716
5.9170078125 0.2409427754052872 -0.969230055657776
5.91815625 0.24007890732030532 -0.9676755510657681
5.9193046875 0.24024816161796822 -0.968627893509651
5.920453125 0.2399821594096493 -0.9685889141120503
5.9216015625 0.2396238548055705 -0.9692089940417213
5.92275 0.2380336707754424 -0.9694412692429905
5.9238984375 0.23668334661171228 -0.9681716559025817
5.925046875 0.2366051693058867 -0.9686730874558778
5.9261953125 0.23541601583674515 -0.9699971795824595
5.92734375 0.23432027642853484 -0.9698605861307686
5.9284921875 0.2344297332505292 -0.9693856578573433
5.929640625 0.23272710183542727 -0.9692156392622877
5.9307890625 0.2317015223667997 -0.9695553156180756
5.9319375 0.2310335049719382 -0.9703340741925494
5.9330859375 0.23046480731853924 -0.9718854441749258
5.934234375 0.22913182026030038 -0.971535232188214
5.9353828125 0.22689845833993852 -0.9713654241511066
5.93653125 0.2265302453132853 -0.9710732591016019
5.9376796875 0.22535686994423376 -0.9726021605370444
5.938828125 0.22443653036067862 -0.9720174108126006
5.9399765625 0.2241328462480911 -0.9733489111403781
5.941125 0.2222485847626804 -0.9718515324524709
5.9422734375 0.22232858523166654 -0.9721725945306625
5.943421875 0.22150446646665573 -0.9732855752067663
5.9445703125 0.2214016921298098 -0.9747806621651169
5.94571875 0.22045241451174075 -0.9759072913549893
5.9468671875 0.2185788518555023 -0.9756173973551414
5.948015625 0.217149615316813 -0.9766277357554398
5.9491640625 0.21684885377363816 -0.9777382226591604
5.9503125 0.21684986883048998 -0.9779144058938293
5.9514609375 0.21670378084251365 -0.9775994742264591
5.952609375 0.2150429833036913 -0.9780390521955229
5.9537578125 0.21333722624628024 -0.9772430977562517
5.95490625 0.21335773360735977 -0.9776168306754937
5.9560546875 0.21285683505052452 -0.9780203377363036
5.957203125 0.21331562254119218 -0.9779959876288928
5.9583515625 0.21232374161333972 -0.9771854565816299
5.9595 0.21025083294676616 -0.9759912346508849
5.9606484375 0.2112693042325259 -0.9757339222328538
5.961796875 0.21040574588774963 -0.9763632778235143
5.9629453125 0.21004677629885302 -0.9755076378232209
5.96409375 0.20932904246978237 -0.9764516700092393
5.9652421875 0.2067588915655627 -0.9749548876846537
5.966390625 0.20629537691918035 -0.975658590510136
5.9675390625 0.2064198701467331 -0.976325092930814
5.9686875 0.20531682487127803 -0.9772038933757692
5.9698359375 0.20463892957283228 -0.9776960702371571
5.970984375 0.20187806570981012 -0.9783262946325131
5.9721328125 0.20256797798657925 -0.9779793111987674
5.97328125 0.20191474389413627 -0.9774447764135868
5.9744296875 0.2012086087538129 -0.9769562590978852
5.975578125 0.20062407131648444 -0.9778447581139189
5.9767265625 0.19841712307518977 -0.9778654822990679
5.977875 0.19883406070437837 -0.9766655774085472
5.9790234375 0.19707884310427343 -0.9774967586531544
5.980171875 0.19652121607208137 -0.9784798647928786
5.9813203125 0.194782887404461 -0.9784457651618457
5.98246875 0.19323727988425163 -0.9785922290146811
5.9836171875 0.19349928630306445 -0.9790453039786894
5.984765625 0.19267797445403234 -0.979679496806753
5.9859140625 0.19270434677348247 -0.9807682593744951
5.9870625 0.19119384782543378 -0.9791561385609717
5.9882109375 0.1904019304517612 -0.9794047737353931
5.989359375 0.18952487310765243 -0.9783687032584156
5.9905078125 0.1898179802343274 -0.9774967061940515
5.99165625 0.18910912492164078 -0.9797204857465625
5.9928046875 0.18826883217503926 -0.9798139488364658
5.993953125 0.18588111094838122 -0.9799663161729731
5.9951015625 0.18388483042949147 -0.978967460566915
5.99625 0.1845787539059678 -0.9788923592838058
5.9973984375 0.18426403314622009 -0.9799145722731715
5.998546875 0.18302298023433605 -0.9783964675030912
5.9996953125 0.18124948592564025 -0.9789730517239912
6.00084375 0.18073040475349506 -0.9790108620271465
6.0019921875 0.18118148937125914 -0.9797690544500813
6.003140625 0.17960729984497967 -0.9792864270328855
6.0042890625 0.17788108285993764 -0.9798653073463619
6.0054375 0.17620397616006056 -0.9798664791767198
6.0065859375 0.17686084262079266 -0.9799498870246962
6.007734375 0.17556237761500615 -0.9810079451278517
6.0088828125 0.17432633537556644 -0.9797542921483854
6.01003125 0.17346869624377953 -0.980814575068737
6.0111796875 0.1717900061821179 -0.9807143403966608
6.012328125 0.17177344300154512 -0.9810774384658295
6.0134765625 0.17008929169341733 -0.9823845262697828
6.014625 0.16983380171981924 -0.9814127994974121
6.0157734375 0.16936764785063585 -0.9817655500128027
6.016921875 0.16676209484640886 -0.9813365698091888
6.0180703125 0.1664164691694815 -0.9817925952638942
6.01921875 0.16647491108726784 -0.9820544136615823
6.0203671875 0.16675803728871727 -0.9834999907287229
6.021515625 0.1646763812535058 -0.9825049011466207
6.0226640625 0.16288099088427482 -0.9815287551205478
6.0238125 0.16236471451232623 -0.9820728729385761
6.0249609375 0.16275597429872782 -0.9835127461301433
6.026109375 0.1609156148399657 -0.9823228746112901
6.0272578125 0.16096842213523627 -0.9832123045824136
6.02840625 0.15869758209827772 -0.982752459045804
6.0295546875 0.15794899471690937 -0.9829461568030177
6.030703125 0.1571617456217166 -0.9845831430994393
6.0318515625 0.1555514183504058 -0.985166292288251
6.033 0.15685154979671345 -0.9857550917183454
6.0341484375 0.1547905747388898 -0.9846589214497604
6.035296875 0.15456236783879365 -0.9859087274929244
6.0364453125 0.15365150216276996 -0.9855460057224942
6.03759375 0.15234688650653663 -0.985269914295875
6.0387421875 0.15191229291375766 -0.9854037077310431
6.039890625 0.14935608183811672 -0.9861508143344959
6.0410390625 0.1490980561601865 -0.9849455227607957
6.0421875 0.14915040235228877 -0.985880272562832
6.0433359375 0.14766753444326058 -0.9864845610143542
6.044484375 0.14797536447573068 -0.9863546044378405
6.0456328125 0.1465115067350798 -0.9860664752559738
6.04678125 0.14530840412485163 -0.9866844154976236
6.0479296875 0.14438764126878603 -0.9870781312378386
6.049078125 0.14437952324780118 -0.9868415077333462
6.0502265625 0.14226749662964955 -0.9883772300136411
6.051375 0.14167316518860956 -0.9885554949912795
6.0525234375 0.13896799110933766 -0.9874423564798527
6.053671875 0.1405539385394177 -0.9871550318343835
6.0548203125 0.13938931230858523 -0.9877301167572452
6.05596875 0.13925699808315717 -0.9873794076335671
6.0571171875 0.13837484482899703 -0.9872602470869208
6.058265625 0.13543343710716504 -0.9864957876454024
6.0594140625 0.13601048992777842 -0.9868324472406672
6.0605625 0.1364106247921196 -0.987544446656184
6.0617109375 0.1353070772046815 -0.9879149911705137
6.062859375 0.1345813509687268 -0.9871525275182177
6.0640078125 0.1323243414506715 -0.9868883970215886
6.06515625 0.13172107507522218 -0.9879759812093777
6.0663046875 0.13166610847482924 -0.9882905696568133
6.067453125 0.13135236377166215 -0.9871214019844408
6.0686015625 0.12963600902578332 -0.9873687665939482
6.06975 0.12888286704320404 -0.9870239987325571
6.0708984375 0.1282013813741828 -0.9864264895649156
6.072046875 0.12803976057690863 -0.9870431682950513
6.0731953125 0.1271210904475807 -0.9864711744768657
6.07434375 0.12642931443662758 -0.9869492036095088
6.0754921875 0.12575453986720592 -0.987034178649766
6.076640625 0.1239223882839116 -0.9867041854153922
6.0777890625 0.12321696152328529 -0.9881121697689081
6.0789375 0.12169149604553235 -0.9879523151159012
6.0800859375 0.12050618364211656 -0.9893378828990979
6.081234375 0.11953271440696515 -0.9891571356940907
6.0823828125 0.11724300717075299 -0.9877748926675867
6.08353125 0.1171608208817209 -0.9884431757534663
6.0846796875 0.11627664325593826 -0.9885626933647618
6.085828125 0.11495095804949333 -0.9888564172928749
6.0869765625 0.11502694287458458 -0.9883523086794408
6.088125 0.11172616233485305 -0.9874834509769832
6.0892734375 0.1121861031081058 -0.9875503349470385
6.090421875 0.11119793346961517 -0.9879818116068612
6.0915703125 0.11091755833207939 -0.9877962715320758
6.09271875 0.10986131672071114 -0.9880019427162282
6.0938671875 0.10879076978147449 -0.9867747697968625
6.095015625 0.10842255019109928 -0.9875195822257677
6.0961640625 0.10726363073296184 -0.9877788174053855
6.0973125 0.10675015863422727 -0.9881052927199848
6.0984609375 0.10580113278060821 -0.9873944677451082
6.099609375 0.10326824455561666 -0.9877434030299096
6.1007578125 0.10280271871440869 -0.9866495126332764
6.10190625 0.10251372761372517 -0.9872777198652497
6.1030546875 0.10193062060692229 -0.9881266218918058
6.104203125 0.10203075304024928 -0.9877072936724347
6.1053515625 0.10076964392845905 -0.9870681790923833
6.1065 0.09920264195730469 -0.9886695978701735
6.1076484375 0.09904054320955388 -0.9879676477719718
6.108796875 0.09892713447121455 -0.9877267192545577
6.1099453125 0.0975289157922693 -0.9880761058889624
6.11109375 0.09663902528839587 -0.9881923546023785
6.1122421875 0.09545758869942503 -0.9870501173459267
6.113390625 0.09463273202029412 -0.988328709874055
6.1145390625 0.09344614611789756 -0.9888198214277852
6.1156875 0.09309499035026571 -0.9889946787199332
6.1168359375 0.09279581345863425 -0.9892874377215981
6.117984375 0.08979458906587037 -0.9884845308774641
6.1191328125 0.08944184365693256 -0.9883367036914342
6.12028125 0.08985073573268232 -0.9887238343204146
6.1214296875 0.08918548633785893 -0.9883531340220617
6.122578125 0.0881938321136427 -0.9881800034827108
6.1237265625 0.0856801603839937 -0.9878038893555459
6.124875 0.08588490137100677 -0.9883942504975419
6.1260234375 0.0861426228111929 -0.9878952590937802
6.127171875 0.08512919540062874 -0.9883597509853024
6.1283203125 0.08336704243085745 -0.9875752787201179
6.12946875 0.08266749127426362 -0.9875931092195761
6.1306171875 0.08213629270578209 -0.9877018680890911
6.131765625 0.08276866187199934 -0.988593184704655
6.1329140625 0.08309458582302483 -0.9886766393107557
6.1340625 0.08192714906601273 -0.9872923793994398
6.1352109375 0.08038618175220885 -0.9870030842079065
6.136359375 0.08036816546417605 -0.9875579914505563
6.1375078125 0.0790945870277025 -0.9880332035019133
6.13865625 0.07892760530227212 -0.9881150700285805
6.1398046875 0.07720075682090652 -0.9877805503653716
6.140953125 0.07543889523420981 -0.9877887583574978
6.1421015625 0.0746784501959937 -0.9866551855244803
6.14325 0.07446030554395502 -0.986478562430703
6.1443984375 0.07328675427997566 -0.986702080098144
6.145546875 0.07341090913431433 -0.9867121547776078
6.1466953125 0.0724757738368797 -0.9874952753047439
6.14784375 0.07073876428445663 -0.9873543324348888
6.1489921875 0.07058864309792423 -0.9884042588264078
6.150140625 0.07016361768267404 -0.9886053906098003
6.1512890625 0.06901922241368447 -0.9890594275292077
6.1524375 0.06735549810584973 -0.9884347410613975
6.1535859375 0.06685672880344695 -0.9882270709685532
6.154734375 0.06494684901763007 -0.9890976657182069
6.1558828125 0.06452728305577861 -0.990045653399183
6.15703125 0.06422087847518229 -0.9895273474265645
6.1581796875 0.06399004898850363 -0.9897974940861706
6.159328125 0.060868203380142046 -0.9892509357165048
6.1604765625 0.06115756092618316 -0.9893680701412271
6.161625 0.06037946112754354 -0.9890210762639651
6.1627734375 0.05932558589938941 -0.9892622559429833
6.163921875 0.0595355431012213 -0.9887013624169049
6.1650703125 0.05661331784712584 -0.9882339182786338
6.16621875 0.05742801303322119 -0.9881709351564386
6.1673671875 0.05615580816586482 -0.9891911503446942
6.168515625 0.05565561073158964 -0.9895087084417167
6.1696640625 0.05497643196356246 -0.9881406587792477
6.1708125 0.052701830986864276 -0.9884024784850404
6.1719609375 0.05255419315504756 -0.9886068002767776
6.173109375 0.053130203525291214 -0.9881983906929893
6.1742578125 0.05268635865934822 -0.9885855852158753
6.17540625 0.051929012894955245 -0.9880332159000059
6.1765546875 0.05058444746395762 -0.9886603987750375
6.177703125 0.04892465520054731 -0.9885002312551954
6.1788515625 0.048263292666818995 -0.9889699528226016
6.18 0.0480116923639637 -0.9883629199655949
6.1811484375 0.04741895179364024 -0.9894432431051746
6.182296875 0.04699664750908088 -0.9892678251628041
6.1834453125 0.04569568255164004 -0.9874264587254902
6.18459375 0.04593523911021603 -0.9890822334769904
6.1857421875 0.04445961646156992 -0.9893314402302954
6.186890625 0.04404076388508478 -0.9905547280314414
6.1880390625 0.043610607726020434 -0.9906289809939461
6.1891875 0.04108789177906155 -0.9911653908107622
6.1903359375 0.041577684653961625 -0.989984723285777
6.191484375 0.041678841195787644 -0.9914899351315096
6.1926328125 0.040302313488190966 -0.9916641645740188
6.19378125 0.03953055211508277 -0.9903962961966232
6.1949296875 0.03745543713695521 -0.9902320878388557
6.196078125 0.03812918244658648 -0.9915258723133785
6.1972265625 0.03682500978706292 -0.992461342393654
6.198375 0.03716065636304453 -0.9911936812841197
6.1995234375 0.036653165544780195 -0.9913374079703204
6.200671875 0.03400870343916904 -0.9904691935460535
6.2018203125 0.03391176417458717 -0.990324945063714
6.20296875 0.033928964987492635 -0.991766425392842
6.2041171875 0.03395290294658307 -0.9911792439560664
6.205265625 0.03298248866264662 -0.9920695355517559
6.2064140625 0.031108033557500733 -0.9915599780192236
6.2075625 0.03033237879921872 -0.9921444457507543
6.2087109375 0.029320482347843888 -0.9932585372769591
6.209859375 0.028755035679382736 -0.9922391184916903
6.2110078125 0.02770808326322792 -0.9918705065903098
6.21215625 0.0267324141932681 -0.9924435687241916
6.2133046875 0.024795540121407625 -0.991763103939808
6.214453125 0.024572841534776096 -0.9921725584251438
6.2156015625 0.023932164156181962 -0.9928988316355696
6.21675 0.021904129079320406 -0.992501115225479
6.2178984375 0.021275699107633522 -0.9916558317446824
6.219046875 0.019169353192173527 -0.9912751979766713
6.2201953125 0.019525684722518866 -0.9914611757949415
6.22134375 0.018538813638259127 -0.9908601277808966
6.2224921875 0.01740400868832731 -0.9921363899527574
6.223640625 0.01565986255145361 -0.991682839906165
6.2247890625 0.013597267958166945 -0.9907620892007524
6.2259375 0.013737200449285003 -0.9908974965084039
6.2270859375 0.013024987870960208 -0.9917730057125429
6.228234375 0.012479464309975964 -0.9919481444720754
6.2293828125 0.011916999237143538 -0.9912155968372595
6.23053125 0.010323504965204698 -0.9908765533086268
6.2316796875 0.009486138940239641 -0.9904252041137784
6.232828125 0.009120874853539393 -0.9909180539038193
6.2339765625 0.007666747101413199 -0.9900871039516053
6.235125 0.007260312905905335 -0.991061008812915
6.2362734375 0.006857117878261355 -0.9902479038182237
6.237421875 0.006413119386594168 -0.9908481737165268
6.2385703125 0.005184572423927045 -0.9908092417226402
6.23971875 0.0051035555415073555 -0.9906269766975057
6.2408671875 0.0037289823788006077 -0.9902256127773902
6.242015625 0.002297786328858048 -0.9906881795408439
6.2431640625 0.0017510353523090758 -0.9908342741055859
6.2443125 0.001620018630442796 -0.9896848560064369
6.2454609375 0.000773484636481081 -0.9896947140515608
6.246609375 0.00010732117537862185 -0.9904551540990987
6.2477578125 0.00030725514786283936 -0.990368976905445
6.24890625 -0.0009528140697910581 -0.9890297507926108
6.2500546875 -0.0019904403848624574 -0.9909217842137295
6.251203125 -0.0017451795418581134 -0.9907470746611818
6.2523515625 -0.00276224632534295 -0.9904795412098104
6.2535 -0.003052571088407327 -0.9901576578096117
6.2546484375 -0.005120471269507924 -0.9895346956871713
6.255796875 -0.005589128410405715 -0.9900798604839248
6.2569453125 -0.006128237709603017 -0.989480298477277
6.25809375 -0.006630863117324137 -0.9898708165287708
6.2592421875 -0.00710006978694544 -0.9907888909827233
6.260390625 -0.008922127307433976 -0.9901070600658163
6.2615390625 -0.009387727816380274 -0.9916787143924866
6.2626875 -0.009012638171382856 -0.9909562779481995
6.2638359375 -0.01122166084017008 -0.9906391900905435
6.264984375 -0.012044454210954264 -0.991168812294529
6.2661328125 -0.013778275527346617 -0.9904089074712668
6.26728125 -0.013870443084729345 -0.9907240226456557
6.2684296875 -0.013165314830803784 -0.9908143753663186
6.269578125 -0.014757563703999346 -0.9913903050365372
6.2707265625 -0.014871788747498102 -0.9915892237824044
6.271875 -0.016627790497786996 -0.9918824307546137
6.2730234375 -0.017663349489443446 -0.992342326845149
6.274171875 -0.018118860308111287 -0.9919456246847056
6.2753203125 -0.018628574920010903 -0.9920813700245572
6.27646875 -0.020652782408360215 -0.9927027451755873
6.2776171875 -0.021433293470233684 -0.9923037578026896
6.278765625 -0.022285466529127315 -0.9912598934265797
6.2799140625 -0.022833523949471055 -0.991220834080218
6.2810625 -0.023843031728173064 -0.9916581694677284
6.2822109375 -0.02480713281012451 -0.991307047976209
6.283359375 -0.025903586253677568 -0.9919764509450538
6.2845078125 -0.027071894513974903 -0.9911484070516051
6.28565625 -0.026461689553413215 -0.9910494588986308
6.2868046875 -0.026802419489272318 -0.9912512085678195
6.287953125 -0.028607990738542602 -0.9917833050947586
6.2891015625 -0.030307764958191097 -0.9927464241154688
6.29025 -0.031766581658974634 -0.991947737860796
6.2913984375 -0.033477433594434315 -0.9927253848871052
6.292546875 -0.0342177819949823 -0.9930092597951414
6.2936953125 -0.034399973496220176 -0.9913119456701822
6.29484375 -0.03589729239555831 -0.9920296649514533
6.2959921875 -0.03698885116661291 -0.991190682546496
6.297140625 -0.03727593054502218 -0.9908183284331649
6.2982890625 -0.038316022343855345 -0.9903214031983485
6.2994375 -0.04063825718588172 -0.9906573127330539
6.3005859375 -0.04075909770779705 -0.9906665754960988
6.301734375 -0.04210721326476379 -0.9907819277617131
6.3028828125 -0.042383565075490126 -0.9904904133887164
6.30403125 -0.04366575707968977 -0.9909651610857537
6.3051796875 -0.0438708947260528 -0.9904245921546267
6.306328125 -0.04503672626968669 -0.9905152597725341
6.3074765625 -0.04587402650631081 -0.9903976300073993
6.308625 -0.046606797807618006 -0.9897928556749183
6.3097734375 -0.04702681151382555 -0.9890468280914109
6.310921875 -0.04758276657118155 -0.9894979586359216
6.3120703125 -0.04794216651403133 -0.9893612314343864
6.31321875 -0.04905068616720748 -0.9893196167550844
6.3143671875 -0.04936021686827266 -0.9888153633137561
6.315515625 -0.049861383369858736 -0.9896577318797476
6.3166640625 -0.050545494127588714 -0.9897877150910053
6.3178125 -0.05199340118601592 -0.9906904855605129
6.3189609375 -0.05163277768350731 -0.9900290695327507
6.320109375 -0.051588031114262606 -0.9895453185555354
6.3212578125 -0.0531843195875249 -0.9895838112934232
6.32240625 -0.05408595425868589 -0.9900534192650574
6.3235546875 -0.055208356614411536 -0.9909051212860555
6.324703125 -0.05585710297209358 -0.9905624879400836
6.3258515625 -0.057778329819098834 -0.9893078324329317
6.327 -0.05846387626750096 -0.9894098889126163
6.3281484375 -0.05919855992787422 -0.9904757244580169
6.329296875 -0.0601367834526258 -0.9906466669285374
6.3304453125 -0.06005303999217233 -0.9900081835310186
6.33159375 -0.06104040661153221 -0.9901078515636084
6.3327421875 -0.062130705475452366 -0.9902047869645808
6.333890625 -0.06068999822992843 -0.9905195837537861
6.3350390625 -0.06208350265234917 -0.9902033633199678
6.3361875 -0.06351413777944936 -0.9893489199155627
6.3373359375 -0.06465866729721029 -0.9907626837481156
6.338484375 -0.06563743519590837 -0.9904796109330714
6.3396328125 -0.06612032824531631 -0.9898977092617568
6.34078125 -0.06672493039314714 -0.9901741532834479
6.3419296875 -0.067706013682235 -0.9903580967987137
6.343078125 -0.06820508418257668 -0.9902728568237299
6.3442265625 -0.06907562373801213 -0.9905478610535663
6.345375 -0.06994502188869084 -0.9907879660579173
6.3465234375 -0.0703475581134246 -0.9909044921307425
6.347671875 -0.07215937920534718 -0.9906307871818955
6.3488203125 -0.07278048405977669 -0.9903688688968545
6.34996875 -0.0740705457091779 -0.9898786112546902
6.3511171875 -0.07505521127463785 -0.9909261729203154
6.352265625 -0.07628867414531251 -0.9908919959737631
6.3534140625 -0.0762320612074901 -0.9904534746933326
6.3545625 -0.07702670869493276 -0.9908442409786564
6.3557109375 -0.07842323704091206 -0.9913719974571708
6.356859375 -0.07907837880740215 -0.9907955900551996
6.3580078125 -0.08027360138015387 -0.9910297197153756
6.35915625 -0.08085179875279208 -0.9916039104477471
6.3603046875 -0.08195637892627268 -0.9918382860456207
6.361453125 -0.08265954988202438 -0.991184634888589
6.3626015625 -0.08495239627501418 -0.9907288737071817
6.36375 -0.08515616751921051 -0.991156372608817
6.3648984375 -0.08560903702662659 -0.9905944135156499
6.366046875 -0.08597883003062876 -0.9907112439334308
6.3671953125 -0.08735103043983057 -0.9902743682576707
6.36834375 -0.08847733968710046 -0.9900180165076435
6.3694921875 -0.0896821178063396 -0.9899184713758252
6.370640625 -0.0915881802077068 -0.9911470780580488
6.3717890625 -0.09281455061541671 -0.9899745028808757
6.3729375 -0.09329420984565985 -0.9900074463861096
6.3740859375 -0.09429032493268573 -0.9907769380761907
6.375234375 -0.0948715147171078 -0.9893748842983053
6.3763828125 -0.09609835282667772 -0.9890787435336348
6.37753125 -0.09630592823724017 -0.9893901061241807
6.3786796875 -0.09710775380665035 -0.9884689343268577
6.379828125 -0.09738785851059714 -0.9882446489595802
6.3809765625 -0.09931292113042446 -0.9885034464286575
6.382125 -0.10015660921740976 -0.9888148040104402
6.3832734375 -0.10030146460589391 -0.988139004393123
6.384421875 -0.10159009950399916 -0.9877180121249126
6.3855703125 -0.10215712631283505 -0.9877311028846169
6.38671875 -0.10195847269722862 -0.9874905151250316
6.3878671875 -0.10345360231124962 -0.9874661181683274
6.389015625 -0.10412442785909587 -0.987508294778208
6.3901640625 -0.1039011518496826 -0.986809917244319
6.3913125 -0.10455318518208512 -0.9869109492849977
6.3924609375 -0.10574705350342462 -0.9869528360264519
6.393609375 -0.10704109861161631 -0.9878635667705286
6.3947578125 -0.107110441970162 -0.9867066083548726
6.39590625 -0.10761972673407603 -0.9870366107647108
6.3970546875 -0.10938468283815185 -0.987707662989985
6.398203125 -0.10990402196723469 -0.987508328178307
6.3993515625 -0.11018495888465989 -0.9883410464381444
6.4005 -0.11087105821344072 -0.9884853664981457
6.4016484375 -0.11227078407211669 -0.9878253176819708
6.402796875 -0.11399546740789257 -0.9877779269642041
6.4039453125 -0.1140290491545979 -0.9881248062238598
6.40509375 -0.1157582768525296 -0.9882233048178677
6.4062421875 -0.11586160385123244 -0.9874104499421483
6.407390625 -0.11752147313991429 -0.9873722660495694
6.4085390625 -0.11900598431606228 -0.9869261779624834
6.4096875 -0.11942551420035774 -0.9871047697951619
6.4108359375 -0.12076841666155554 -0.9870242056098342
6.411984375 -0.12043068710075817 -0.9872043514913598
6.4131328125 -0.12209353425685225 -0.9865376517939266
6.41428125 -0.12305891036699002 -0.9861173720912992
6.4154296875 -0.12415691845036086 -0.9862737325544069
6.416578125 -0.12378538466507344 -0.9858966424679764
6.4177265625 -0.1248092285245658 -0.9857100881164411
6.418875 -0.12567139918950737 -0.9850310040197441
6.4200234375 -0.12678237288917615 -0.9849963395868762
6.421171875 -0.12782675920917363 -0.9849117339951197
6.4223203125 -0.1289638253076072 -0.9848169165247567
6.42346875 -0.12966706668036704 -0.9852119263217741
6.4246171875 -0.12934333403612025 -0.9846985879071847
6.425765625 -0.1301771910311325 -0.9848213582161138
6.4269140625 -0.13094231121456223 -0.9852279437654702
6.4280625 -0.13148157589885748 -0.9848541663002413
6.4292109375 -0.13148095510714353 -0.9858188573040398
6.430359375 -0.13378999445008755 -0.9861217203020713
6.4315078125 -0.13401961755436376 -0.9859294679879108
6.43265625 -0.1343019556978775 -0.9858555285955296
6.4338046875 -0.13571236873742387 -0.98647177544513
6.434953125 -0.13771874718659805 -0.9863889644171873
6.4361015625 -0.13794038984817042 -0.9853561995491841
6.43725 -0.1394604677681664 -0.9851340942983061
6.4383984375 -0.13949755761555843 -0.9851165058596162
6.439546875 -0.14133811541461558 -0.9852718791644315
6.4406953125 -0.14200871404194942 -0.9856699438128048
6.44184375 -0.14255431768196886 -0.9860620861737959
6.4429921875 -0.1442349419436364 -0.9860399849411227
6.444140625 -0.14552124566530644 -0.9864811654011039
6.4452890625 -0.14692496135083066 -0.9865013078682703
6.4464375 -0.14623355046883377 -0.9867343612157061
6.4475859375 -0.14760759653686728 -0.9855646175034566
6.448734375 -0.14866171210108692 -0.9853336635579715
6.4498828125 -0.1488961599864184 -0.9847652784912069
6.45103125 -0.14958245045531404 -0.9846571759039228
6.4521796875 -0.15092429078061526 -0.9842909361211343
6.453328125 -0.15177277998372554 -0.9842724246676171
6.4544765625 -0.1527812578038725 -0.9835123402646779
6.455625 -0.15418989862009058 -0.9830258761163325
6.4567734375 -0.15601158088282824 -0.9826052157713718
6.457921875 -0.15633657035523846 -0.9827606116279228
6.4590703125 -0.1570875909325809 -0.9823371992162899
6.46021875 -0.15785812195253052 -0.9820328998808685
6.4613671875 -0.15871449253637018 -0.9817376281069814
6.462515625 -0.15896317279088706 -0.9815595747661274
6.4636640625 -0.1602440432145843 -0.9821132289727006
6.4648125 -0.1607013128560928 -0.9820761384396519
6.4659609375 -0.1619927714049392 -0.981274655079407
6.467109375 -0.16252829710175884 -0.9805666101998953
6.4682578125 -0.16329678158537902 -0.9806484469213039
6.46940625 -0.16382483345025695 -0.979765946952155
6.4705546875 -0.16509250778783924 -0.9807278321329256
6.471703125 -0.1659151756977703 -0.9806733473695984
6.4728515625 -0.16719729038200143 -0.980236328711861
6.474 -0.16852934677479034 -0.9798991721224837
6.4751484375 -0.1692559079159635 -0.9804827624007975
6.476296875 -0.16996310013419427 -0.98055214037164
6.4774453125 -0.17121247188870428 -0.9797382069963659
6.47859375 -0.17267610929783914 -0.9794740701408282
6.4797421875 -0.17288261582939063 -0.9789686162814556
6.480890625 -0.1741042060922522 -0.9779699228350778
6.4820390625 -0.1748870413248196 -0.9788907736747002
6.4831875 -0.17555358534338117 -0.9786203524407261
6.4843359375 -0.17673565336576103 -0.978736382398595
6.485484375 -0.17781401575771236 -0.9786312199693576
6.4866328125 -0.17795996937420508 -0.9778460599489958
6.48778125 -0.1774608482872131 -0.9778840021013326
6.4889296875 -0.17817430793055306 -0.9779529801460647
6.490078125 -0.17984475305819492 -0.9772048234771322
6.4912265625 -0.1803874196081118 -0.9771281376156418
6.492375 -0.18005887267686976 -0.9778134001825012
6.4935234375 -0.18114883094413908 -0.976360691055445
6.494671875 -0.1827345723776309 -0.9758366162194125
6.4958203125 -0.18277537947903122 -0.9756734599599403
6.49696875 -0.1832860883420769 -0.9767964357753907
6.4981171875 -0.18455303296893188 -0.9758431593627463
6.499265625 -0.1852307277491295 -0.9762555155813785
6.5004140625 -0.18635146635217822 -0.9764314077607383
6.5015625 -0.1876184461036092 -0.9760743784680874
6.5027109375 -0.18868726624235 -0.9749846942181177
6.503859375 -0.1898774983495193 -0.975537680384198
6.5050078125 -0.1902862908052142 -0.9755323283786587
6.50615625 -0.19170375034774811 -0.977040427540306
6.5073046875 -0.19271304401077147 -0.9764063327560341
6.508453125 -0.1929612529381604 -0.9751005981990188
6.5096015625 -0.19364915775722366 -0.9756977970369322
6.51075 -0.19392611036751267 -0.974716008560695
6.5118984375 -0.1940907087450154 -0.9752316140216943
6.513046875 -0.19500179711498233 -0.9748064516252498
6.5141953125 -0.19594126843692208 -0.97430205158612
6.51534375 -0.19695965815473213 -0.9740203565116443
6.5164921875 -0.1981547164298031 -0.9743800676848245
6.517640625 -0.1987250884898961 -0.9751515637363553
6.5187890625 -0.19908676543359372 -0.9751450419338019
6.5199375 -0.19946072593862524 -0.974595216196947
6.5210859375 -0.20006375310408858 -0.9752023706528525
6.522234375 -0.20109631493264524 -0.9733596156402209
6.5233828125 -0.2024335347914479 -0.9739596807247868
6.52453125 -0.20268418691164722 -0.9737096597322435
6.5256796875 -0.20403747694311442 -0.9732530011735189
6.526828125 -0.2047662793553046 -0.9722439659523008
6.5279765625 -0.20567942961775698 -0.9735036362909826
6.529125 -0.206704251023858 -0.9736187253307318
6.5302734375 -0.20717622876908337 -0.9730378719983297
6.531421875 -0.20769423184510483 -0.9715469515261784
6.5325703125 -0.20912813951138487 -0.9735774861519071
6.53371875 -0.208546011452947 -0.9714334685488715
6.5348671875 -0.20987538495667493 -0.9727018819094667
6.536015625 -0.21063029933323796 -0.9735824241032299
6.5371640625 -0.2122329499854407 -0.9711011311806022
6.5383125 -0.21345471419183298 -0.9713797626227695
6.5394609375 -0.2131165242462196 -0.9711552266194046
6.540609375 -0.21365905422797682 -0.9718377553968891
6.5417578125 -0.2150501948738166 -0.9719394294157385
6.54290625 -0.21569165519964897 -0.9714557474119694
6.5440546875 -0.21724328906576523 -0.9708307839575343
6.545203125 -0.21727509042495932 -0.9720725790148694
6.5463515625 -0.21796904946051365 -0.9719525035149135
6.5475 -0.21801645383934334 -0.9730388878902485
6.5486484375 -0.22036544554136986 -0.9715628432170532
6.549796875 -0.22083657863952658 -0.9706987019304938
6.5509453125 -0.22201434699108594 -0.9700378850088679
6.55209375 -0.22228458798861295 -0.970049265985353
6.5532421875 -0.22364794300301968 -0.9701319518177098
6.554390625 -0.22437414455419644 -0.9700951181714514
6.5555390625 -0.22615721332030533 -0.9698371717365214
6.5566875 -0.22669047109932805 -0.9698156136507714
6.5578359375 -0.22778508376793377 -0.9683868372377997
6.558984375 -0.22809727796300228 -0.9689731734611507
6.5601328125 -0.22890533960996406 -0.9682279939865773
6.56128125 -0.2299977251834987 -0.968516946442623
6.5624296875 -0.23072935979521175 -0.9678617160486763
6.563578125 -0.2303228803219257 -0.9682634484516719
6.5647265625 -0.2320862467723322 -0.9678547175317406
6.565875 -0.23143024589751693 -0.9692311027173229
6.5670234375 -0.23274749963826386 -0.9681985568891266
6.568171875 -0.23397254689455338 -0.9674888720349386
6.5693203125 -0.23496920783683872 -0.9682897947689103
6.57046875 -0.2349320954695278 -0.9681036650543176
6.5716171875 -0.23569584113005704 -0.9698194029310917
6.572765625 -0.23740921087755829 -0.9683481645265232
6.5739140625 -0.23726882981644765 -0.9687919176677531
6.5750625 -0.23961225489479682 -0.9687645551008294
6.5762109375 -0.24015464900926753 -0.9682828864590166
6.577359375 -0.24182640260029825 -0.9696803922307853
6.5785078125 -0.24298811754147656 -0.9693271225618881
6.57965625 -0.24328174749732465 -0.9687272618850371
6.5808046875 -0.24414109182031843 -0.9677008845664997
6.581953125 -0.24531450146487527 -0.9684722497255872
6.5831015625 -0.24634229861371448 -0.9690687930319077
6.58425 -0.24745926706337412 -0.9678655899047203
6.5853984375 -0.2481737644330449 -0.9668829924077975
6.586546875 -0.24894645627749626 -0.9671109479540485
6.5876953125 -0.2503692415850769 -0.9668844945739503
6.58884375 -0.25117352856827113 -0.9675475835528684
6.5899921875 -0.25178867278839245 -0.9680150492294304
6.591140625 -0.2536521686149038 -0.9670416346365934
6.5922890625 -0.2532125090553034 -0.9681808640900263
6.5934375 -0.25492105424893713 -0.966757860973696
6.5945859375 -0.255101267791573 -0.9673673170307117
6.595734375 -0.2567184984173794 -0.9678107971980663
6.5968828125 -0.2581127538956675 -0.9668986819318658
6.59803125 -0.2595997740587503 -0.9654389805940589
6.5991796875 -0.2600776935769199 -0.9657739458531471
6.600328125 -0.26103439951041013 -0.9656113511825333
6.6014765625 -0.2617608361795415 -0.9654347656278746
6.602625 -0.26175538657024244 -0.9635385765109843
6.6037734375 -0.26458289954700465 -0.9639760065902752
6.604921875 -0.2647165648526034 -0.9636833782898895
6.6060703125 -0.26498880427978067 -0.9620500959947587
6.60721875 -0.2658687825083749 -0.9632477720170728
6.6083671875 -0.2668253936289776 -0.9616699804641389
6.609515625 -0.2684262007218334 -0.9602802573892417
6.6106640625 -0.26870167067259343 -0.9592535582537693
6.6118125 -0.2702339679765112 -0.9591526728219971
6.6129609375 -0.2698586710709407 -0.9592799031243553
6.614109375 -0.27006820680956384 -0.95950700850192
6.6152578125 -0.27179118865649504 -0.9591451420808447
6.61640625 -0.2735881843485287 -0.9575139763931668
6.6175546875 -0.2744293392692659 -0.9571068276521886
6.618703125 -0.2747662339865435 -0.9585407067090437
6.6198515625 -0.27647475563277735 -0.9567098078797066
6.621 -0.2771288313653875 -0.9563298890242391
6.6221484375 -0.278791745932755 -0.9557186067880457
6.623296875 -0.2799894601812843 -0.9552629668820294
6.6244453125 -0.2796869397803871 -0.9564890858425302
6.62559375 -0.2798413601308373 -0.9571096220878414
6.6267421875 -0.2798150495585909 -0.9569094484534184
6.627890625 -0.28136774607461723 -0.9566763701365399
6.6290390625 -0.2815369184615129 -0.9560015795484551
6.6301875 -0.2829882587953521 -0.9567544992529067
6.6313359375 -0.28392233589665716 -0.9557733440125757
6.632484375 -0.28484107455165064 -0.9557143767115888
6.6336328125 -0.2856747416670027 -0.9550380761260648
6.63478125 -0.2863767388218647 -0.9549715092008104
6.6359296875 -0.2859027984479117 -0.9541627343234658
6.637078125 -0.28630840264047963 -0.9563184298846565
6.6382265625 -0.2885782046363071 -0.9551579146843471
6.639375 -0.28820825925687166 -0.9536598935277294
6.6405234375 -0.28901484136896916 -0.9541391919010818
6.641671875 -0.2890047639902908 -0.9540272454007598
6.6428203125 -0.2894532629545001 -0.9552468528121081
6.64396875 -0.29088055001044477 -0.9521735799317032
6.6451171875 -0.2926260010213191 -0.953399490709552
6.646265625 -0.2932451970813693 -0.9541090686361071
6.6474140625 -0.29503340420827073 -0.9529267038225195
6.6485625 -0.29504331256485133 -0.9541449248277973
6.6497109375 -0.2960460716182634 -0.9534065810198689
6.650859375 -0.2978281920465609 -0.9528214416352168
6.6520078125 -0.29801011806996536 -0.9534968875244776
6.65315625 -0.29891109957020345 -0.9521844845576096
6.6543046875 -0.29956877939283133 -0.9529844978646713
6.655453125 -0.29950301997561823 -0.952681987713881
6.6566015625 -0.3011728085644256 -0.9525506235928392
6.65775 -0.30286031000361263 -0.952384590563375
6.6588984375 -0.30411235289385957 -0.9523185196259099
6.660046875 -0.3037146139052136 -0.9542884547130706
6.6611953125 -0.3033854163624361 -0.9525141047771378
6.66234375 -0.3047051242208757 -0.9510479142280469
6.6634921875 -0.30650751155729916 -0.9518972680599187
6.664640625 -0.30825309765061715 -0.9511571467734344
6.6657890625 -0.3091304825153333 -0.9511168704601258
6.6669375 -0.30803545778577435 -0.9521864503715227
6.6680859375 -0.30967372051375336 -0.9514860843497797
6.669234375 -0.3106700125049204 -0.9493833607533285
6.6703828125 -0.31212271180052203 -0.9505893601237314
6.67153125 -0.31215674897741974 -0.9496007064709275
6.6726796875 -0.3130328135863871 -0.9513500398986632
6.673828125 -0.3134939513110482 -0.950070663816994
6.6749765625 -0.3136560678948667 -0.9501278577663503
6.676125 -0.314798519039784 -0.9490935657753417
6.6772734375 -0.31681889588349826 -0.9482975225182747
6.678421875 -0.316881791114774 -0.94789454010848
6.6795703125 -0.31930957358986856 -0.9472217249209355
6.68071875 -0.31690920457688193 -0.9470998285486872
6.6818671875 -0.318232593257693 -0.9455288988547784
6.683015625 -0.3203363455972199 -0.9455094331999232
6.6841640625 -0.32030326730757896 -0.9454174032634383
6.6853125 -0.3208167918106624 -0.9456924749988617
6.6864609375 -0.32238973263078763 -0.945638031207083
6.687609375 -0.3236321692393592 -0.9438586289102006
6.6887578125 -0.32497196529940603 -0.9427953529145121
6.68990625 -0.3256048472827903 -0.9451631385369367
6.6910546875 -0.3267006138169751 -0.9432776180543815
6.692203125 -0.328004944638456 -0.9423456828184691
6.6933515625 -0.328491232901514 -0.9420397560638869
6.6945 -0.3295427541318794 -0.9425857661916786
6.6956484375 -0.3303118050821573 -0.9420324639974783
6.696796875 -0.3301253531111325 -0.9423991181043503
6.6979453125 -0.3317971095079215 -0.9417789745110147
6.69909375 -0.33191411815055705 -0.9415860760445448
6.7002421875 -0.3332826289882555 -0.9417980124553555
6.701390625 -0.33448754167694134 -0.9424608602948328
6.7025390625 -0.33473950516071693 -0.9419895687450445
6.7036875 -0.3366490386555349 -0.9404458918026881
6.7048359375 -0.337511413070457 -0.9402255510878751
6.705984375 -0.33769976905274 -0.9396251962450625
6.7071328125 -0.33907329095818994 -0.9402888845111145
6.70828125 -0.3390627899436169 -0.941012684644742
6.7094296875 -0.33985283162451563 -0.9380505052103415
6.710578125 -0.34202260848258814 -0.9386887511047639
6.7117265625 -0.34266717353104303 -0.9377093592405851
6.712875 -0.3428082152178443 -0.9398324330090022
6.7140234375 -0.34331692903002275 -0.9405131864919244
6.715171875 -0.3442668475435507 -0.9390678369524165
6.7163203125 -0.3460396416728058 -0.9385597103484348
6.71746875 -0.34672138051355966 -0.9378953356286766
6.7186171875 -0.3472325345529672 -0.9371855605346467
6.719765625 -0.347235489648297 -0.9384569600063123
6.7209140625 -0.3487212650231711 -0.9389266609619314
6.7220625 -0.3498113453333952 -0.9374146139247173
6.7232109375 -0.349946188277518 -0.9379047943643446
6.724359375 -0.3517236041656307 -0.9374578661658657
6.7255078125 -0.352805497827435 -0.9374674768638345
6.72665625 -0.3519491330739476 -0.9368253271251125
6.7278046875 -0.35434932930975316 -0.9368176146394864
6.728953125 -0.3552737325533209 -0.935121988274669
6.7301015625 -0.35454888211941266 -0.9353088736523734
6.73125 -0.35616535135647326 -0.9353765743551335
6.7323984375 -0.35567130608160297 -0.9360471310786462
6.733546875 -0.35721327903859035 -0.934536775726259
6.7346953125 -0.35784599307321185 -0.9340327873257079
6.73584375 -0.35835190892134366 -0.933037618242115
6.7369921875 -0.360245892627847 -0.9334535226139791
6.738140625 -0.3597781145014449 -0.9341884674872042
6.7392890625 -0.3611023502104116 -0.9336519184505399
6.7404375 -0.3624608962827175 -0.9320613756374033
6.7415859375 -0.3628632288669059 -0.9305891322771787
6.742734375 -0.3625502903753984 -0.9317964030093263
6.7438828125 -0.36315816784430593 -0.9331659790320616
6.74503125 -0.3646092698021376 -0.9318561131516719
6.7461796875 -0.36545739579847897 -0.9312815324860508
6.747328125 -0.3664399943737023 -0.9293180110232105
6.7484765625 -0.3651915011724246 -0.9311770369103476
6.749625 -0.3655767049085329 -0.9312940676660785
6.7507734375 -0.36749123519889004 -0.9289423057917803
6.751921875 -0.3679552474170631 -0.9286630792857163
6.7530703125 -0.3699753197137694 -0.9281103907671906
6.75421875 -0.3708734845066433 -0.9277350400932269
6.7553671875 -0.3713773730458891 -0.9275685735874907
6.756515625 -0.37073718189710475 -0.9276619604082602
6.7576640625 -0.37476722099682636 -0.9281357054405038
6.7588125 -0.3750326433981562 -0.9266420512020481
6.7599609375 -0.376298821311565 -0.9268068959483404
6.761109375 -0.37675685148156535 -0.9267856147653551
6.7622578125 -0.3784974740787739 -0.9263536914899634
6.76340625 -0.3804433284677652 -0.9248656387827674
6.7645546875 -0.38163075237589955 -0.9250953856023091
6.765703125 -0.38341673199263715 -0.9244806697382184
6.7668515625 -0.3834888623931362 -0.9239122588290124
6.768 -0.38376288495271327 -0.9259024970693436
6.7691484375 -0.38433414184153425 -0.924868360395095
6.770296875 -0.3848039328308229 -0.9250256494060387
6.7714453125 -0.38553680538755913 -0.9239085584261826
6.77259375 -0.38626232574636604 -0.9230062336633909
6.7737421875 -0.3853805690693548 -0.9238347785152393
6.774890625 -0.38740495845157263 -0.9235363157919073
6.7760390625 -0.38912275565854887 -0.9238247360314936
6.7771875 -0.38902621287779454 -0.9226181715632508
6.7783359375 -0.3906733172010253 -0.9210014810361616
6.779484375 -0.39032703168891525 -0.9228006548014799
6.7806328125 -0.3913179186454834 -0.9221422696665819
6.78178125 -0.39180227851300525 -0.9215442565081087
6.7829296875 -0.39259337161767127 -0.9201514339310357
6.784078125 -0.39465867637129703 -0.9200183658580043
6.7852265625 -0.39631226523660934 -0.9198841218601391
6.786375 -0.3969728375407459 -0.9204798618895578
6.7875234375 -0.3992467463954327 -0.9190859665006837
6.788671875 -0.39927432328063683 -0.9170309906279466
6.7898203125 -0.4007146095429012 -0.9172231068836298
6.79096875 -0.40045898183770234 -0.9179090455131963
6.7921171875 -0.4020099300179105 -0.918475018117278
6.793265625 -0.4035610087621809 -0.9159256994909795
6.7944140625 -0.4046936752692559 -0.9152978490750401
6.7955625 -0.40672091789753273 -0.9157817149960291
6.7967109375 -0.4060886849879547 -0.9158405700698465
6.797859375 -0.40640614544174614 -0.9149355369124177
6.7990078125 -0.40844603200641094 -0.9140294981976643
6.80015625 -0.40847912153100724 -0.9130516959402266
6.8013046875 -0.40795072910129293 -0.9137332281350898
6.802453125 -0.40952261261402334 -0.9130507731775346
6.8036015625 -0.4095438917225639 -0.9144387554485034
6.80475 -0.40937152845412883 -0.913103099236737
6.8058984375 -0.41010854159006427 -0.9135788355646237
6.807046875 -0.4107627957085501 -0.9125319251146659
6.8081953125 -0.4117189263109654 -0.9127939003379677
6.80934375 -0.4105636189663625 -0.9127950467283886
6.8104921875 -0.4118661328166843 -0.9113741566504201
6.811640625 -0.4123060972874644 -0.9107691918914578
6.8127890625 -0.4134582301398168 -0.9102956841429306
6.8139375 -0.4147799227790119 -0.9105745522101818
6.8150859375 -0.41414061529672896 -0.9112271721734635
6.816234375 -0.41581549277940133 -0.9090821240019767
6.8173828125 -0.41638280776323566 -0.9095107941208108
6.81853125 -0.4189442225689467 -0.9062138597186813
6.8196796875 -0.4192635482640279 -0.9057780318385344
6.820828125 -0.41843328858014234 -0.9060735635667889
6.8219765625 -0.42018924846927763 -0.9052835576160472
6.823125 -0.422062837768768 -0.903386532058514
6.8242734375 -0.4213939275144915 -0.9026962804261329
6.825421875 -0.4227654581752403 -0.9023571117497178
6.8265703125 -0.42183381414230015 -0.9037526771512414
6.82771875 -0.423261673294541 -0.903242345835848
6.8288671875 -0.4247774538668938 -0.9014339595198395
6.830015625 -0.42551038809983666 -0.9006451527054561
6.8311640625 -0.4253050439237232 -0.9020230652496687
6.8323125 -0.4276375943964042 -0.9016414025730761
6.8334609375 -0.4277030781705404 -0.9013666073942707
6.834609375 -0.43038047540850577 -0.8996070490073376
6.8357578125 -0.43066760239667623 -0.9010939049959708
6.83690625 -0.4302184112978969 -0.8997662405063036
6.8380546875 -0.4319834159156415 -0.8986448995059868
6.839203125 -0.432187825386557 -0.8992208682686001
6.8403515625 -0.43269325895122535 -0.8968482845457348
6.8415 -0.434688257348015 -0.897924076692817
6.8426484375 -0.43513865164198795 -0.8978189175184602
6.843796875 -0.43439154727646817 -0.8981404832498394
6.8449453125 -0.4339590087394931 -0.8984258430044418
6.84609375 -0.43537963211912856 -0.8953292599654075
6.8472421875 -0.43468830954356613 -0.8950938107302465
6.848390625 -0.4377366808987677 -0.8950952974387458
6.8495390625 -0.4392911970133721 -0.8932732175107158
6.8506875 -0.43965916008851696 -0.8954092261849304
6.8518359375 -0.43961518849430836 -0.8960470963811682
6.852984375 -0.44058889062491624 -0.8953281497139604
6.8541328125 -0.44210503753712577 -0.8952976760470164
6.85528125 -0.443160567079755 -0.8950618273210141
6.8564296875 -0.4405521646621313 -0.8969117443758469
6.857578125 -0.4426092396245495 -0.8957071322383646
6.8587265625 -0.44433120789903835 -0.8937520247561231
6.859875 -0.44534723363568307 -0.892543498135249
6.8610234375 -0.44457567169707357 -0.8938418093314198
6.862171875 -0.44523291299254303 -0.8941213159644632
6.8633203125 -0.44627593403246835 -0.8943590569176199
6.86446875 -0.44721833246470816 -0.892512308102782
6.8656171875 -0.44773850378337515 -0.8916266426910261
6.866765625 -0.4479502736679639 -0.8910831620572273
6.8679140625 -0.450134052728698 -0.8936473164669259
6.8690625 -0.4496696954196308 -0.8943206041174162
6.8702109375 -0.45028645482395724 -0.8922551128395202
6.871359375 -0.4537855036985292 -0.8938753765679888
6.8725078125 -0.45316807448315055 -0.8910972452581764
6.87365625 -0.454601161858903 -0.8922660250128399
6.8748046875 -0.4533287150538593 -0.8948147565520433
6.875953125 -0.45606094652022255 -0.8908098055134963
6.8771015625 -0.4578289018591266 -0.8910321742422681
6.87825 -0.45811890946945927 -0.8902507668059081
6.8793984375 -0.4578213467379775 -0.8905713278993521
6.880546875 -0.4575807001308066 -0.8908130973974057
6.8816953125 -0.45917069038918057 -0.8889179174835572
6.88284375 -0.4610230644905803 -0.8900964147666648
6.8839921875 -0.4607907420204103 -0.8874820921533318
6.885140625 -0.461264305924107 -0.8879195764789608
6.8862890625 -0.46156539845241945 -0.8897944810626572
6.8874375 -0.4631232400184142 -0.8884552731263314
6.8885859375 -0.4644456892691362 -0.888058811225594
6.889734375 -0.46509225488217726 -0.8870189775154088
6.8908828125 -0.46454093654663464 -0.8870914991704333
6.89203125 -0.46569405224044913 -0.8874577856572712
6.8931796875 -0.4660072213770253 -0.8856020229042232
6.894328125 -0.4653765087744695 -0.8851127310442742
6.8954765625 -0.46704380829379577 -0.884659619695185
6.896625 -0.46755088165846614 -0.8836273717984051
6.8977734375 -0.4676438625296402 -0.8854816605933856
6.898921875 -0.46870252720796635 -0.8836254395753864
6.9000703125 -0.47123163828263936 -0.8820120044316355
6.90121875 -0.47045482188517385 -0.8816337046114907
6.9023671875 -0.47244718489053006 -0.882295016292944
6.903515625 -0.47323031345063055 -0.8813671123863809
6.9046640625 -0.47251068228086257 -0.8818178157675066
6.9058125 -0.47477172208572105 -0.882248424094957
6.9069609375 -0.4755316198305549 -0.8811238208438088
6.908109375 -0.47712617532720036 -0.8813912450276258
6.9092578125 -0.4769916244507719 -0.8795513452791144
6.91040625 -0.4770076772583366 -0.880717293423007
6.9115546875 -0.4771263268148105 -0.87866485516248
6.912703125 -0.4795091012307643 -0.8788342336400193
6.9138515625 -0.480028503773776 -0.8779104318933603
6.915 -0.47996650549087905 -0.8777124300162099
6.9161484375 -0.48129868335105425 -0.8800576405155003
6.917296875 -0.48158860154665384 -0.8781541729247948
6.9184453125 -0.48256007313115534 -0.8787469767212974
6.91959375 -0.4828955408410389 -0.8785012161160962
6.9207421875 -0.48428751037087836 -0.8778554288313515
6.921890625 -0.4835052035784001 -0.8784411593316899
6.9230390625 -0.4847948505155983 -0.8760088877042141
6.9241875 -0.48596744669512454 -0.8746871756039694
6.9253359375 -0.48664792089515224 -0.874629863807358
6.926484375 -0.4876172074382372 -0.8757570792587863
6.9276328125 -0.48812397001794744 -0.8767043515718771
6.92878125 -0.4887453799585555 -0.8748015362701155
6.9299296875 -0.49014821621393956 -0.8738672743313362
6.931078125 -0.4911232510179522 -0.8736554012960087
6.9322265625 -0.49114426010270007 -0.8730680675821857
6.933375 -0.49090282058827295 -0.8731081113892103
6.9345234375 -0.4916210365993948 -0.8734936863020147
6.935671875 -0.4926660650702892 -0.8724814094613382
6.9368203125 -0.49556432281722335 -0.8719053985747061
6.93796875 -0.49709595219090114 -0.8734164642994049
6.9391171875 -0.497564662015592 -0.8742906719185009
6.940265625 -0.4986322760515778 -0.8749630000498813
6.9414140625 -0.4995310249596141 -0.8731978722692249
6.9425625 -0.5001660633777136 -0.873512751247795
6.9437109375 -0.5009029854951745 -0.873400455144336
6.944859375 -0.5012369282729838 -0.8733176927780218
6.9460078125 -0.5040540603020892 -0.8732662892933314
6.94715625 -0.5051897994118466 -0.8720506835950622
6.9483046875 -0.5052587098692412 -0.8705948383325277
6.949453125 -0.5069630821152343 -0.8691804679825826
6.9506015625 -0.5083390992410617 -0.869836989048067
6.95175 -0.5087753854291083 -0.87044703130453
6.9528984375 -0.5092468569531384 -0.8689413259852914
6.954046875 -0.5102866421534831 -0.8676972355286637
6.9551953125 -0.5102836806723247 -0.8669452761775346
6.95634375 -0.5106283022999917 -0.8663912088112395
6.9574921875 -0.5114303753807171 -0.8668602024822518
6.958640625 -0.5138568656096258 -0.8657825611177878
6.9597890625 -0.5150853312795547 -0.8668110770116098
6.9609375 -0.5126643892235441 -0.8636562771778824
6.9620859375 -0.5130283080445823 -0.8640477499518215
6.963234375 -0.5127434735072072 -0.8626592682638504
6.9643828125 -0.5125673324873555 -0.8626561166468031
6.96553125 -0.5150254641518004 -0.8628325171960759
6.9666796875 -0.5168181358061955 -0.8621698963467164
6.967828125 -0.5175448042101685 -0.8616136643598877
6.9689765625 -0.5187340561890867 -0.8607841500861239
6.970125 -0.5204978442212265 -0.8612856837362883
6.9712734375 -0.5214793702760814 -0.8613309916544114
6.972421875 -0.5225622366669633 -0.859694232426578
6.9735703125 -0.5248617798637439 -0.8600032485410771
6.97471875 -0.5259608738420105 -0.8595489846405505
6.9758671875 -0.5263010810829513 -0.859153051220825
6.977015625 -0.5264832113090783 -0.8563946242671046
6.9781640625 -0.5273960074221624 -0.8550857450321441
6.9793125 -0.529115811923491 -0.855040200957448
6.9804609375 -0.5308847589674774 -0.8544157633496032
6.981609375 -0.5294320198245815 -0.8544516796290119
6.9827578125 -0.5304560676087325 -0.8536592775566938
6.98390625 -0.5325238264295278 -0.8528977600668486
6.9850546875 -0.5332748046626776 -0.8534968816030074
6.986203125 -0.5324220759349161 -0.8515638207496108
6.9873515625 -0.53337591641968 -0.8517319837965845
6.9885 -0.532936207678034 -0.8528660809175918
6.9896484375 -0.5345165974180772 -0.8513083691657907
6.990796875 -0.5346576056853822 -0.8503181173587808
6.9919453125 -0.5377328898678413 -0.8496052952774878
6.99309375 -0.5379900469757096 -0.8491319857620637
6.9942421875 -0.5387266218958211 -0.8474751193448721
6.995390625 -0.5396155055574903 -0.8471409376459869
6.9965390625 -0.5412143098807458 -0.8465016594820797
6.9976875 -0.5405365781418582 -0.8458143952776799
6.9988359375 -0.5418481844620857 -0.8442927938575924
6.999984375 -0.5427950625567435 -0.845447643397014
7.0011328125 -0.5440584753546887 -0.8454914542992633
7.00228125 -0.5433801425163494 -0.8441301276025596
7.0034296875 -0.5434740215287068 -0.842810865967662
7.004578125 -0.5445888682020226 -0.8420419372472401
7.0057265625 -0.5454437759031678 -0.8417072986310918
7.006875 -0.547019190953396 -0.8403340859188443
7.0080234375 -0.5481755229845309 -0.8431862110083633
7.009171875 -0.5473972224059425 -0.8410053501110332
7.0103203125 -0.5481645691715903 -0.8419624189332264
7.01146875 -0.5492223664075733 -0.8406793815589921
7.0126171875 -0.5502946582458685 -0.8390585975909445
7.013765625 -0.5501432993393593 -0.8386202994104455
7.0149140625 -0.5529517224176531 -0.8401109976261906
7.0160625 -0.5526107438724409 -0.836744985300651
7.0172109375 -0.5507766241930458 -0.8371876580479097
7.018359375 -0.5523526018370077 -0.8369334658695065
7.0195078125 -0.5515013836875069 -0.8375944697705895
7.02065625 -0.5537063459514013 -0.8370946903915883
7.0218046875 -0.5556079597979184 -0.8376591783681859
7.022953125 -0.5553912696636845 -0.8374272658056083
7.0241015625 -0.5567242695287088 -0.8364487452777378
7.02525 -0.5570778306358009 -0.8362780632661864
7.0263984375 -0.5579550996574847 -0.8366049218841575
7.027546875 -0.5582832263106213 -0.8339713237930817
7.0286953125 -0.559027952353682 -0.8345141306796919
7.02984375 -0.5604184200791213 -0.8355316824151153
7.0309921875 -0.5605563689958243 -0.8349517132245309
7.032140625 -0.560197589379275 -0.8339889041810934
7.0332890625 -0.5617417222322446 -0.8332248568703661
7.0344375 -0.5649072789880314 -0.83334525407828
7.0355859375 -0.5646448960867357 -0.8322143649770635
7.036734375 -0.5662704283701978 -0.8324261648321687
7.0378828125 -0.5673874107027034 -0.831951881010776
7.03903125 -0.5673060270930506 -0.8306425924799197
7.0401796875 -0.5679341967270132 -0.8309045873261051
7.041328125 -0.568885429794473 -0.8300948005621331
7.0424765625 -0.5695413415927728 -0.8297328584191715
7.043625 -0.569227117408931 -0.8289314483175266
7.0447734375 -0.5701201271151437 -0.829102731767457
7.045921875 -0.5712574363080418 -0.8278595767826089
7.0470703125 -0.571234141602625 -0.8271236754994651
7.04821875 -0.5722394699750281 -0.8260397267295959
7.0493671875 -0.5720165201083858 -0.8247680444476119
7.050515625 -0.5710678425591522 -0.824543124844111
7.0516640625 -0.572263266756222 -0.8240739450689817
7.0528125 -0.5723163530679153 -0.8252168920532772
7.0539609375 -0.5743842302638547 -0.8239331257803341
7.055109375 -0.5756885869555246 -0.8239581933140838
7.0562578125 -0.5761605662153967 -0.8246097150144798
7.05740625 -0.5759277579338847 -0.8221552416200121
7.0585546875 -0.5748619716722045 -0.8217652394586803
7.059703125 -0.5766645676486868 -0.82098074812442
7.0608515625 -0.5769064183336634 -0.8199761504531575
7.062 -0.5797214633133227 -0.8208645926873592
7.0631484375 -0.5795439954632313 -0.8197422273210436
7.064296875 -0.578035168584643 -0.8203867144647806
7.0654453125 -0.5781424208413618 -0.8176943769792193
7.06659375 -0.5804666099572804 -0.8186734618463569
7.0677421875 -0.5801482449485142 -0.8190631834520338
7.068890625 -0.5808607790410403 -0.8172723461338952
7.0700390625 -0.5814514305898488 -0.8164893228003143
7.0711875 -0.5816589266667679 -0.8158696162620711
7.0723359375 -0.5835064862257728 -0.8172914450431745
7.073484375 -0.583105197429133 -0.8149662452587026
7.0746328125 -0.5828109774315322 -0.8168189551590966
7.07578125 -0.5828358433738603 -0.814680805248801
7.0769296875 -0.5839904618866166 -0.8166316338352315
7.078078125 -0.5858952593761252 -0.8160049996613254
7.0792265625 -0.5842179854949373 -0.8169024302513261
7.080375 -0.5876530824365844 -0.8180249492346692
7.0815234375 -0.5891396408331534 -0.8171382577321129
7.082671875 -0.5887172351683836 -0.8172881891092993
7.0838203125 -0.5901067518698142 -0.8173406173451834
7.08496875 -0.591112348785771 -0.8165653333851971
7.0861171875 -0.5935978809689504 -0.8145668305844891
7.087265625 -0.5920876416714927 -0.814698427010261
7.0884140625 -0.5934851132132648 -0.8150056498049247
7.0895625 -0.5952407620873603 -0.8142703147172625
7.0907109375 -0.5973364713497703 -0.8132570734237451
7.091859375 -0.5972700490910356 -0.8124189686709667
7.0930078125 -0.5989736487753385 -0.8132362987405016
7.09415625 -0.5988717027957587 -0.8136027055212236
7.0953046875 -0.6004752553526813 -0.812183364185993
7.096453125 -0.6020292104421903 -0.8125247062486971
7.0976015625 -0.6036781289016543 -0.81195505272598
7.09875 -0.6047523587653164 -0.8102424182490863
7.0998984375 -0.6030630664501185 -0.8080748378167543
7.101046875 -0.606368902830867 -0.8099318218273711
7.1021953125 -0.6077090237907214 -0.8080240051767953
7.10334375 -0.6096870096808765 -0.8079012522887494
7.1044921875 -0.6097143063444133 -0.8065321216339998
7.105640625 -0.6112739089530675 -0.8061547841979442
7.1067890625 -0.6121887200864116 -0.8053291125934267
7.1079375 -0.6134571875483713 -0.8037716435876403
7.1090859375 -0.6147461540884382 -0.8031591101002415
7.110234375 -0.6154026572711455 -0.8034672968764143
7.1113828125 -0.6171013277614292 -0.8029162561038756
7.11253125 -0.6175354928394696 -0.8036270529793756
7.1136796875 -0.6175501967256736 -0.8024069441623871
7.114828125 -0.6178460956893844 -0.801822956199151
7.1159765625 -0.6197596086791527 -0.800412918934478
7.117125 -0.6212344500816132 -0.8000352678122993
7.1182734375 -0.6228323201525682 -0.8000049312678148
7.119421875 -0.6234838056200647 -0.7988440519357022
7.1205703125 -0.6246918353774931 -0.7980025263455885
7.12171875 -0.6248250183308042 -0.7968358738415282
7.1228671875 -0.625605520780381 -0.796785544918104
7.124015625 -0.6246551318254648 -0.7967894868954712
7.1251640625 -0.6267454544093171 -0.7943744816073375
7.1263125 -0.6286143603293283 -0.7929733827447916
7.1274609375 -0.628769904097049 -0.7929740302818987
7.128609375 -0.6302255949211317 -0.7923245221968565
7.1297578125 -0.6303862923503676 -0.7917201681119045
7.13090625 -0.6313226765610828 -0.79041715595096
7.1320546875 -0.6323031862562959 -0.7903695712107006
7.133203125 -0.6324742274666576 -0.7894544948381801
7.1343515625 -0.6337512442750466 -0.7878027771829925
7.1355 -0.6345868177989733 -0.7872314735883896
7.1366484375 -0.6379247490556355 -0.7865764521171996
7.137796875 -0.6387388968582814 -0.7856797299547866
7.1389453125 -0.6390342138865427 -0.7853457151969164
7.14009375 -0.6400736762079761 -0.7843447905275752
7.1412421875 -0.6396061476295631 -0.7842474722573604
7.142390625 -0.6417078467865601 -0.782531588574966
7.1435390625 -0.640914489814198 -0.7812145380159651
7.1446875 -0.6424613292734143 -0.7784851082383253
7.1458359375 -0.6449254251226815 -0.7764896922961225
7.146984375 -0.6449847492778654 -0.7759098736043449
7.1481328125 -0.6444482468736696 -0.7760634204428984
7.14928125 -0.6450174456029032 -0.774903352579966
7.1504296875 -0.6461108055213682 -0.773631899608163
7.151578125 -0.6462052739702612 -0.7734110271950653
7.1527265625 -0.6456959993122426 -0.7731236159976866
7.153875 -0.647239538755614 -0.7716240152207525
7.1550234375 -0.6481208807814098 -0.7685223011754214
7.156171875 -0.6497312647894796 -0.767505391108609
7.1573203125 -0.648584381144458 -0.7670170227963828
7.15846875 -0.6490568571362649 -0.7666945454445243
7.1596171875 -0.6476886129201631 -0.7657407421065964
7.160765625 -0.6482120179744382 -0.7636992173770495
7.1619140625 -0.6491032646095103 -0.7632186130492185
7.1630625 -0.6483414008118006 -0.761471754960662
7.1642109375 -0.6504316281586389 -0.7614820884656037
7.165359375 -0.6504206708759381 -0.7611076750213096
7.1665078125 -0.6504556636574806 -0.7600896321501794
7.16765625 -0.6524977566811212 -0.7595391230305728
7.1688046875 -0.6530787004674878 -0.7580846801533733
7.169953125 -0.6519081280338608 -0.7566605772395792
7.1711015625 -0.6517992528075565 -0.7544653966266027
7.17225 -0.6525443288049242 -0.7550548855222592
7.1733984375 -0.6532216958782152 -0.7536680074024672
7.174546875 -0.6524128373810005 -0.7527317249861906
7.1756953125 -0.6525605995971748 -0.7523271361592975
7.17684375 -0.6535565459086365 -0.7520450046442306
7.1779921875 -0.6519804265826052 -0.7518170963321884
7.179140625 -0.651247821657169 -0.7525742780569704
7.1802890625 -0.651903648318052 -0.7515274572367939
7.1814375 -0.6528801215716897 -0.7518347580996283
7.1825859375 -0.6528690068769454 -0.7515531383750341
7.183734375 -0.65351691410911 -0.7494404150601576
7.1848828125 -0.6547624978242819 -0.7481400805302367
7.18603125 -0.6557150273315931 -0.7477900540786901
7.1871796875 -0.6553510668978757 -0.748014281289137
7.188328125 -0.6535714210290486 -0.7479810204677582
7.1894765625 -0.6541863197360569 -0.7467384395270343
7.190625 -0.655286773047379 -0.7449679484531306
7.1917734375 -0.6556613476186829 -0.744815752365248
7.192921875 -0.655492670105835 -0.7453235432043748
7.1940703125 -0.6542404852175887 -0.7448639088872049
7.19521875 -0.6545569225773733 -0.7438679481573157
7.1963671875 -0.6554627227208003 -0.7430844656868576
7.197515625 -0.6556873583790181 -0.7429958043173546
7.1986640625 -0.6590219662493406 -0.7420623116581112
7.1998125 -0.6579280274260684 -0.7434912917260093
7.2009609375 -0.6575893943092788 -0.7410181585487498
7.202109375 -0.6566814142668075 -0.7416288991251471
7.2032578125 -0.6581466741859843 -0.7412119282818899
7.20440625 -0.6578877350012543 -0.7394689911207604
7.2055546875 -0.6577702276967621 -0.7390287521751111
7.206703125 -0.6580035979907459 -0.7407588784078013
7.2078515625 -0.6575656155291606 -0.7391935748467406
7.209 -0.6600243204582157 -0.7383352261092897
7.2101484375 -0.6594662601002433 -0.7387882019432044
7.211296875 -0.6599502916162213 -0.7400967642077529
7.2124453125 -0.6593036398415739 -0.7390373398227644
7.21359375 -0.6593011772875235 -0.7389536178598757
7.2147421875 -0.6598171042531671 -0.7407009040195947
7.215890625 -0.659744984418061 -0.7389504040458209
7.2170390625 -0.6592407797359006 -0.7389239651701539
7.2181875 -0.6630269708026211 -0.7399905287297868
7.2193359375 -0.6616612808950362 -0.7377310940722696
7.220484375 -0.6631579596231573 -0.7372455911244999
7.2216328125 -0.664310057022607 -0.7373144426319274
7.22278125 -0.6633448064720833 -0.738891603720627
7.2239296875 -0.6644361423608229 -0.7382334551351253
7.225078125 -0.6646521646902308 -0.7381213078487966
7.2262265625 -0.6647026027012992 -0.7384796485412626
7.227375 -0.6682364882310177 -0.7378560394246284
7.2285234375 -0.6688594048955016 -0.7394087683685744
7.229671875 -0.6723023470995149 -0.7383339597880564
7.2308203125 -0.6700273237601746 -0.7390102984310347
7.23196875 -0.6722428263191308 -0.7363917171508063
7.2331171875 -0.6737528058810736 -0.7353315495804671
7.234265625 -0.6741784369821509 -0.7338100269840837
7.2354140625 -0.6763085279951956 -0.7365636267225528
7.2365625 -0.6771513944790298 -0.7353370039092144
7.2377109375 -0.6779651402586284 -0.7326783498225808
7.238859375 -0.6768003856453738 -0.7316887155675119
7.2400078125 -0.677820689308437 -0.7336585727082314
7.24115625 -0.6783109464566197 -0.7312165746855933
7.2423046875 -0.6777247101193657 -0.7315147953572936
7.243453125 -0.6782846359539279 -0.7297136892014846
7.2446015625 -0.6801162558478266 -0.7315994352075841
7.24575 -0.6796356023854878 -0.7290666218202646
7.2468984375 -0.6802045330182391 -0.7296148074757541
7.248046875 -0.682958633054561 -0.7273647538176067
7.2491953125 -0.683635982847004 -0.7264757535390045
7.25034375 -0.6822905468881282 -0.7263388726795665
7.2514921875 -0.6839655850685802 -0.7251890992086831
7.252640625 -0.6873608717799484 -0.7256714765525281
7.2537890625 -0.68684669802324 -0.723972614083361
7.2549375 -0.6869465580202858 -0.7241318635273394
7.2560859375 -0.6882721783805092 -0.7230621197799416
7.257234375 -0.688104702805095 -0.7229397895410137
7.2583828125 -0.688867365741928 -0.7225585455964575
7.25953125 -0.689353008715591 -0.7220646243960664
7.2606796875 -0.690258029223747 -0.7203246573387432
7.261828125 -0.6898207311263687 -0.7211622324322535
7.2629765625 -0.6892503188293768 -0.7216806970095249
7.264125 -0.687348287598556 -0.7218550789872004
7.2652734375 -0.6886644882466708 -0.7212301211095692
7.266421875 -0.6890842871802525 -0.7191307603213375
7.2675703125 -0.6912289590217983 -0.7212684823442437
7.26871875 -0.6901762467560895 -0.7214826226674074
7.2698671875 -0.69179667367484 -0.7209043337841072
7.271015625 -0.6940758840543628 -0.7204566723605963
7.2721640625 -0.6943987374357421 -0.7206906685321833
7.2733125 -0.6961849215646815 -0.7190312446329121
7.2744609375 -0.6994978697668794 -0.719717225921839
7.275609375 -0.6992199870765249 -0.7181682738323748
7.2767578125 -0.6984356692422802 -0.7153119120954117
7.27790625 -0.6991662026883605 -0.7149490429080381
7.2790546875 -0.6995593825883354 -0.711614249533154
7.280203125 -0.6986150566828713 -0.7115225142387283
7.2813515625 -0.6976993736937741 -0.7102864710760606
7.2825 -0.6989523984116579 -0.7089130602297999
7.2836484375 -0.6986096779786521 -0.70949057069341
7.284796875 -0.6990276092526069 -0.7078296802168406
7.2859453125 -0.6978544197671899 -0.7088438743733613
7.28709375 -0.6970799995092447 -0.7082481283963014
7.2882421875 -0.6985820776131664 -0.70711497430582
7.289390625 -0.6984067159977226 -0.7084001850016082
7.2905390625 -0.6978378126751388 -0.705166939550387
7.2916875 -0.697047900359557 -0.7075324070055582
7.2928359375 -0.6961579550656906 -0.7069687612686624
7.293984375 -0.697861442572817 -0.7057808056776413
7.2951328125 -0.6991234996626411 -0.7067300289929731
7.29628125 -0.6987108620131462 -0.7049337658028618
7.2974296875 -0.698283018599823 -0.7076874610343604
7.298578125 -0.697253875237592 -0.7061961098566059
7.2997265625 -0.6973847782760866 -0.7074986633666647
7.300875 -0.6987818246598553 -0.7089752325602747
7.3020234375 -0.6998659107020323 -0.7076342792321377
7.303171875 -0.6985139288990388 -0.709173480264234
7.3043203125 -0.6988009109024769 -0.7101302566803087
7.30546875 -0.7016199035894223 -0.7115044244155
7.3066171875 -0.7022497386820199 -0.711898924780559
7.307765625 -0.7020509477691501 -0.7123118140448769
7.3089140625 -0.7014179836961734 -0.7135711447642453
7.3100625 -0.7027255189145755 -0.7117934598181701
7.3112109375 -0.7049487702194481 -0.7129777134637239
7.312359375 -0.7072958541643237 -0.7129021971329861
7.3135078125 -0.7085502438578841 -0.7139216173869064
7.31465625 -0.7106481186073025 -0.7128701661789258
7.3158046875 -0.7143070796987689 -0.713796301089208
7.316953125 -0.7145554163393465 -0.7135675342608243
7.3181015625 -0.714121033177725 -0.713567330199944
7.31925 -0.7165891080408797 -0.7151556734622693
7.3203984375 -0.716916227578053 -0.7128316002418161
7.321546875 -0.7170530205437005 -0.7146758659388821
7.3226953125 -0.7179088264399555 -0.7145716293402895
7.32384375 -0.7187955212356639 -0.7149248150330001
7.3249921875 -0.7194755393521256 -0.7136965094989043
7.326140625 -0.7220711844838318 -0.7159114113217281
7.3272890625 -0.723738058305976 -0.7176121976750036
7.3284375 -0.7253933498722291 -0.7174548901783002
7.3295859375 -0.7291979853198938 -0.7178774340893112
7.330734375 -0.7322260145765844 -0.7201419845670942
7.3318828125 -0.7345439569857797 -0.7175853429772607
7.33303125 -0.7375914968019052 -0.7175759479445056
7.3341796875 -0.738356519894944 -0.7192549223092061
7.335328125 -0.7420148039581427 -0.7176904443639385
7.3364765625 -0.745408719430344 -0.7175693143781063
7.337625 -0.745931954703686 -0.7109325182642967
7.3387734375 -0.7503956601923815 -0.7086706340907136
7.339921875 -0.7509131141789163 -0.7078311567061957
7.3410703125 -0.7521001871401266 -0.7065720591486039
7.34221875 -0.7562675033802664 -0.7062165151841189
7.3433671875 -0.7582813544468511 -0.70301272581285
7.344515625 -0.7574282278602609 -0.7011095560169222
7.3456640625 -0.7603140517027529 -0.7015804727181707
7.3468125 -0.7612357912193695 -0.7005837362780609
7.3479609375 -0.7622067357905254 -0.7000248969393688
7.349109375 -0.763363406024465 -0.697088473160332
7.3502578125 -0.7653578763099436 -0.6948674205860221
7.35140625 -0.7663948412587133 -0.6943504561585461
7.3525546875 -0.7668206188101088 -0.6926517970387618
7.353703125 -0.769072356871263 -0.6889870829583343
7.3548515625 -0.7680668864472572 -0.6877733551051372
7.356 -0.7675602052934187 -0.6816072406465423
7.3571484375 -0.7692877460053145 -0.6804956269702929
7.358296875 -0.7697200307737573 -0.6791935572835912
7.3594453125 -0.768200285515991 -0.6789434889015681
7.36059375 -0.7680754621261172 -0.6770838074971097
7.3617421875 -0.7688434235196009 -0.673697989166711
7.362890625 -0.7691670218046728 -0.6745777033402807
7.3640390625 -0.7691257609202081 -0.6749383316939629
7.3651875 -0.770046763536067 -0.6719359136056694
7.3663359375 -0.769231938825664 -0.6698344719032184
7.367484375 -0.7696240239365056 -0.6651499770819311
7.3686328125 -0.7693295159143405 -0.663479363664023
7.36978125 -0.7701699121237588 -0.6640637544135676
7.3709296875 -0.7702283123665239 -0.6619792762232969
7.372078125 -0.7707462126281845 -0.6620630924060606
7.3732265625 -0.7710416485596988 -0.6603396133083876
7.374375 -0.7701878638919418 -0.6598954731686447
7.3755234375 -0.7711403057128192 -0.6614550618287742
7.376671875 -0.7712547872766488 -0.6594224518687715
7.3778203125 -0.7698506908479517 -0.6600423242261255
7.37896875 -0.7719152354269172 -0.6568332849736878
7.3801171875 -0.7732450510584358 -0.659309502412594
7.381265625 -0.7733211805322989 -0.6590164394997495
7.3824140625 -0.774949399004599 -0.6565775951691425
7.3835625 -0.7766848077783245 -0.6564178802617746
7.3847109375 -0.7776964975331092 -0.6544393717493652
7.385859375 -0.7745725485438293 -0.6520640977762554
7.3870078125 -0.7755135900506194 -0.6500293659985776
7.38815625 -0.7750924668943622 -0.6487122244541829
7.3893046875 -0.7731566541272896 -0.6451878249725183
7.390453125 -0.7732227912228524 -0.6422392367702304
7.3916015625 -0.7729567792640545 -0.6416321868150856
7.39275 -0.771522861286839 -0.6391946195011124
7.3938984375 -0.7724846846576239 -0.6377828020059837
7.395046875 -0.772849298716658 -0.6372283602613301
7.3961953125 -0.7718692302626391 -0.6372019161245712
7.39734375 -0.7715401365783976 -0.6337761111676417
7.3984921875 -0.7721787636872847 -0.636255851050707
7.399640625 -0.7717613711338227 -0.636398363357235
7.4007890625 -0.7711676904213004 -0.6403257846964364
7.4019375 -0.7708604624626016 -0.6411851133675555
7.4030859375 -0.7721037263437943 -0.6430512059716744
7.404234375 -0.7718687260296624 -0.6415211225360294
7.4053828125 -0.7713638078485786 -0.643175617483054
7.40653125 -0.7738931934516826 -0.644132185566989
7.4076796875 -0.7742002380710933 -0.6437674398711835
7.408828125 -0.775187615517458 -0.6459912460390711
7.4099765625 -0.7792374746140406 -0.6457529335450007
7.411125 -0.7789944218617166 -0.6429823480757468
7.4122734375 -0.7826890012100622 -0.6414912290162087
7.413421875 -0.7839137133096119 -0.6415787711346439
7.4145703125 -0.7837752990485277 -0.6400527732871968
7.41571875 -0.786624323643446 -0.6382059972104334
7.4168671875 -0.7853494200477449 -0.641305660601738
7.418015625 -0.785446822638548 -0.6402489346333757
7.4191640625 -0.785744353092658 -0.6372355485095371
7.4203125 -0.7838253416600814 -0.6395254090586571
7.4214609375 -0.7848501152799912 -0.6347566623647007
7.422609375 -0.7872919942034415 -0.6340677632693889
7.4237578125 -0.7871017357686916 -0.6364143690573201
7.42490625 -0.7881156084102259 -0.6364640607210116
7.4260546875 -0.7878256135172521 -0.6359479193459835
7.427203125 -0.7898925462205725 -0.6332099989455069
7.4283515625 -0.7904103692718363 -0.6326444775364999
7.4295 -0.7916710611941762 -0.6322735251883154
7.4306484375 -0.7909912393308369 -0.6324719593559369
7.431796875 -0.7904287091423127 -0.6333128819191134
7.4329453125 -0.7909272925869926 -0.6302216549614278
7.43409375 -0.7927259738195663 -0.6309619509876282
7.4352421875 -0.7905261572201598 -0.6307797561259219
7.436390625 -0.7917844313512803 -0.6299266289294945
7.4375390625 -0.7920739497017717 -0.62720484318962
7.4386875 -0.7920744727383966 -0.6235860467486223
7.4398359375 -0.7967614220732637 -0.6203531808866771
7.440984375 -0.7985646954405824 -0.62077406001002
7.4421328125 -0.7981910029063868 -0.6234252838898677
7.44328125 -0.7970935137763696 -0.6205244470944029
7.4444296875 -0.7987728641498414 -0.6209280161281685
7.445578125 -0.798206306881584 -0.6201512390148343
7.4467265625 -0.7981175863648341 -0.6187070787450412
7.447875 -0.8010038747531547 -0.6185499245734519
7.4490234375 -0.8012830356805984 -0.6194796042947852
7.450171875 -0.7997405409172472 -0.6170556285124413
7.4513203125 -0.8012471305931084 -0.6152567523515355
7.45246875 -0.7997262430639723 -0.6144466971828797
7.4536171875 -0.7996168631903329 -0.6148073188993368
7.454765625 -0.7986902518042299 -0.6151333549485865
7.4559140625 -0.8021058134065434 -0.6151438248079426
7.4570625 -0.8050415914313127 -0.6115860778722266
7.4582109375 -0.8030275938793492 -0.6133236829310609
7.459359375 -0.8043310022586725 -0.6113392383136853
7.4605078125 -0.8033214630282797 -0.6095901696929091
7.46165625 -0.8069875658062295 -0.6043194141369728
7.4628046875 -0.808574629267659 -0.6008819137934099
7.463953125 -0.808092408316974 -0.6015505868886764
7.4651015625 -0.8092015493811086 -0.5996648184553965
7.46625 -0.807503937709518 -0.5992570410008873
7.4673984375 -0.8063113933411448 -0.5999185650561375
7.468546875 -0.8073621246593226 -0.5955541387185113
7.4696953125 -0.8071862089222861 -0.596361666921031
7.47084375 -0.8077370226613478 -0.5962387372443257
7.4719921875 -0.8079627309882701 -0.5947263965662726
7.473140625 -0.8068959562713891 -0.592567593184935
7.4742890625 -0.8092905310418187 -0.5917804007803078
7.4754375 -0.8074779705508706 -0.590910726625269
7.4765859375 -0.8040758858739645 -0.5928971247637643
7.477734375 -0.8034163760191408 -0.5931851449075217
7.4788828125 -0.804037767237887 -0.5936957596569367
7.48003125 -0.8050556288963016 -0.5920175517894148
7.4811796875 -0.806368858013971 -0.5924098929455641
7.482328125 -0.8062424780687993 -0.594064979014604
7.4834765625 -0.8072050875499395 -0.5961211907162846
7.484625 -0.8077420497327602 -0.5969314763176214
7.4857734375 -0.8075320182033153 -0.5952254061407236
7.486921875 -0.8086548960011126 -0.5937050398241991
7.4880703125 -0.807149115128648 -0.5953135938258926
7.48921875 -0.8078181142101287 -0.5977157971013332
7.4903671875 -0.8069001586047888 -0.5958489134756855
7.491515625 -0.8098554607306145 -0.5966742154373639
7.4926640625 -0.8113252574171294 -0.592034978722122
7.4938125 -0.8126016064306847 -0.592797619493004
7.4949609375 -0.8111023423386727 -0.5926783062355705
7.496109375 -0.811168434483098 -0.5920245670482971
7.4972578125 -0.8121298932356802 -0.5914192170810737
7.49840625 -0.8133187885726094 -0.5874908457835378
7.4995546875 -0.8148802152039709 -0.5884313442908436
7.500703125 -0.8145649328283453 -0.5887280809233537
7.5018515625 -0.8144950328834202 -0.5899578052583134
7.503 -0.8129769227861858 -0.5904027677165808
7.5041484375 -0.8154759659016546 -0.5879594690745304
7.505296875 -0.8145968120020238 -0.5877545406944523
7.5064453125 -0.8197785854209998 -0.5901769083715023
7.50759375 -0.8196134206825042 -0.5913175719233648
7.5087421875 -0.8214759982978888 -0.5904168813767381
7.509890625 -0.8219175408093149 -0.5883458132170958
7.5110390625 -0.8228601126064702 -0.586168821460784
7.5121875 -0.8245807461557632 -0.5863058760592208
7.5133359375 -0.8252974984783414 -0.584402882420666
7.514484375 -0.8262930070759809 -0.5834463859537532
7.5156328125 -0.8288077328582159 -0.5807389677681977
7.51678125 -0.8298318138302834 -0.5775116648619018
7.5179296875 -0.8279768956550088 -0.5739256087211161
7.519078125 -0.8266998679070738 -0.571482241267872
7.5202265625 -0.8270030243981574 -0.572891665276461
7.521375 -0.8284459601025704 -0.573437624645731
7.5225234375 -0.8299785391334681 -0.570670730704247
7.523671875 -0.8327721348262054 -0.5716506399069992
7.5248203125 -0.8322226373094299 -0.5687615408504929
7.52596875 -0.8330302418104657 -0.5671072865958036
7.5271171875 -0.833844618283342 -0.5677952714761634
7.528265625 -0.8367910573740059 -0.563022408976841
7.5294140625 -0.8364842353042377 -0.5631376412109886
7.5305625 -0.837840843856062 -0.5651759765734532
7.5317109375 -0.835295836885216 -0.5643050299237207
7.532859375 -0.8338516879508939 -0.5630347257996786
7.5340078125 -0.8368652520438715 -0.5611640172594866
7.53515625 -0.8382170075576895 -0.5629988856029988
7.5363046875 -0.8367111363628614 -0.5619701177177959
7.537453125 -0.8385770969583823 -0.5581662267457601
7.5386015625 -0.8366971116198659 -0.5557226796873229
7.53975 -0.8363043369640647 -0.551473791586395
7.5408984375 -0.8355483805039449 -0.5492147769199881
7.542046875 -0.8369411092613859 -0.5460921401824255
7.5431953125 -0.8330476039275148 -0.5460493288803121
7.54434375 -0.8380829850068675 -0.5456801140835825
7.5454921875 -0.8354910417856235 -0.5427288541728187
7.546640625 -0.8401056524687349 -0.5444109051323341
7.5477890625 -0.8384355264526362 -0.5414707727104859
7.5489375 -0.8350016816392621 -0.5428110092654994
7.5500859375 -0.8385061388115309 -0.5445399354315592
7.551234375 -0.8393393947378263 -0.5447311244201752
7.5523828125 -0.8355477372832862 -0.5427826780607443
7.55353125 -0.839336513586931 -0.5438641876371106
7.5546796875 -0.8429829529583656 -0.5425263673511457
7.555828125 -0.841585670475974 -0.5395569668340356
7.5569765625 -0.841012630961399 -0.5409861089124803
7.558125 -0.8438260063049716 -0.5358762197160055
7.5592734375 -0.8413239675249642 -0.5398695153658828
7.560421875 -0.8437157002774468 -0.5431992230157311
7.5615703125 -0.845676422364201 -0.5423672942272347
7.56271875 -0.8460300553351559 -0.5438919374966561
7.5638671875 -0.8463299398408185 -0.5397078141247282
7.565015625 -0.8431522099049009 -0.5417237986388687
7.5661640625 -0.84361106829603 -0.5409468553483566
7.5673125 -0.8433162091274947 -0.5392639158221721
7.5684609375 -0.8468788295201886 -0.5403758999630341
7.569609375 -0.845643370626129 -0.5359405061394098
7.5707578125 -0.8452235625689624 -0.5359770623823552
7.57190625 -0.8443003066219721 -0.5377857569962992
7.5730546875 -0.8462429968833172 -0.5397239018776128
7.574203125 -0.8448374732208335 -0.5396859613743423
7.5753515625 -0.8434533186001971 -0.5364802118831375
7.5765 -0.8474779873318143 -0.5378234363587453
7.5776484375 -0.8463923394821076 -0.5371088819862934
7.578796875 -0.8461179166828863 -0.5356371608170564
7.5799453125 -0.8483042786650082 -0.5354437536564692
7.58109375 -0.8490746489332253 -0.5333696913375018
7.5822421875 -0.8491380011295236 -0.5334020097861449
7.583390625 -0.8512387260014547 -0.5333746141423161
7.5845390625 -0.8471932940752627 -0.5312751015701784
7.5856875 -0.8480403995375447 -0.5321104465112152
7.5868359375 -0.848655195181697 -0.5305722096462484
7.587984375 -0.8469479494607619 -0.5276335085960384
7.5891328125 -0.846195926009137 -0.5296847721432625
7.59028125 -0.8443099104732846 -0.5309980921805781
7.5914296875 -0.8481661532582115 -0.5295360767172024
7.592578125 -0.8484170086211088 -0.5282607293198053
7.5937265625 -0.8510851566192541 -0.5200689367908805
7.594875 -0.8549824322450885 -0.522454628055252
7.5960234375 -0.8535742835980256 -0.5209716928546235
7.597171875 -0.8534765051170543 -0.5218196575602343
7.5983203125 -0.8538173164034146 -0.5224762144559583
7.59946875 -0.8519947929306406 -0.5192270741008412
7.6006171875 -0.8527928522167685 -0.5193628851857228
7.601765625 -0.8540491606549752 -0.5173686508012796
7.6029140625 -0.8527563836828576 -0.5191481466483914
7.6040625 -0.849892376822772 -0.521919023583974
7.6052109375 -0.8538074461742434 -0.5178457770155225
7.606359375 -0.8541934968633133 -0.521987275209892
7.6075078125 -0.8538264330949488 -0.5172045994335893
7.60865625 -0.8578602888139573 -0.5196679286886506
7.6098046875 -0.8572960552500775 -0.5173723668952956
7.610953125 -0.8556536032178279 -0.5153905283459741
7.6121015625 -0.8537457187447111 -0.5135628190385697
7.61325 -0.8573845744433289 -0.5086754158432231
7.6143984375 -0.8535905018651102 -0.5116915505817476
7.615546875 -0.8556919896052455 -0.5145593363717488
7.6166953125 -0.8554340224034495 -0.5111180629236137
7.61784375 -0.8561127989022639 -0.512116561743814
7.6189921875 -0.8546593157754021 -0.5074881329528406
7.620140625 -0.8554926977923101 -0.5092090852765174
7.6212890625 -0.8571377823827472 -0.506878052742429
7.6224375 -0.8567174873139729 -0.5074832497106438
7.6235859375 -0.8559685038105023 -0.5066452181342984
7.624734375 -0.8557456017469467 -0.5048923150035006
7.6258828125 -0.8580289795102649 -0.5046808363938381
7.62703125 -0.8584578019716673 -0.5027795014583153
7.6281796875 -0.8600300989197194 -0.5038393265449932
7.629328125 -0.8582180915437028 -0.5024961619536142
7.6304765625 -0.8611824132196326 -0.5001295427946532
7.631625 -0.8661549536753337 -0.4998965617487846
7.6327734375 -0.8676542954050017 -0.505612795190602
7.633921875 -0.8688609789538022 -0.5050130366911945
7.6350703125 -0.8670235232051867 -0.5032543773421521
7.63621875 -0.8697188452013582 -0.5036203316331365
7.6373671875 -0.8666704236620195 -0.5004262848119161
7.638515625 -0.8695759183676836 -0.5020637525151362
7.6396640625 -0.8694532788032603 -0.5041243508394714
7.6408125 -0.866223698130053 -0.5021844849504034
7.6419609375 -0.8686953008255215 -0.5030269777738707
7.643109375 -0.8681296598124612 -0.4957979519121338
7.6442578125 -0.8671281323514961 -0.5006712798292917
7.64540625 -0.8684219557295352 -0.49780006490209605
7.6465546875 -0.8686394852885355 -0.5012608056714302
7.647703125 -0.8683048749523523 -0.4983188457880451
7.6488515625 -0.8693310763485473 -0.49528575279015696
7.65 -0.8685281888397451 -0.4975914055166346
7.6511484375 -0.8693883396377552 -0.49934174565806333
7.652296875 -0.869893399240297 -0.4944488370305079
7.6534453125 -0.8738128612021 -0.49282591197575876
7.65459375 -0.8736143123817678 -0.4897288667586841
7.6557421875 -0.8741602663567978 -0.4880791883300487
7.656890625 -0.8756251010764821 -0.4901855372145393
7.6580390625 -0.8737506648498624 -0.49142960297765437
7.6591875 -0.8755349552439233 -0.4913860823403905
7.6603359375 -0.8739492592626888 -0.487815705900409
7.661484375 -0.8738548884017293 -0.48807716662858824
7.6626328125 -0.8730995726683657 -0.48793288700707727
7.66378125 -0.8734229228458849 -0.48734895651494936
7.6649296875 -0.874457494789824 -0.4869269304340691
7.666078125 -0.8773133076929509 -0.4820844366305779
7.6672265625 -0.878844997501301 -0.47831523483823757
7.668375 -0.8796839046109223 -0.4792220970563301
7.6695234375 -0.8788940823718847 -0.4785109753835841
7.670671875 -0.8792920692000701 -0.47958771087854357
7.6718203125 -0.8783626486218747 -0.47834603348049276
7.67296875 -0.8803300425880377 -0.4746946591031247
7.6741171875 -0.8794368870233435 -0.4780026219206692
7.675265625 -0.8813731338816088 -0.4769698467589656
7.6764140625 -0.8795123688938417 -0.47676915013921284
7.6775625 -0.880245750254405 -0.47523627481298086
7.6787109375 -0.8797515641175813 -0.47165142863276904
7.679859375 -0.8803561047127554 -0.4700686798076615
7.6810078125 -0.8825828207670555 -0.4731431977149193
7.68215625 -0.8823849268077391 -0.4725710597270502
7.6833046875 -0.8805214425291021 -0.4708677527588627
7.684453125 -0.8803816418428236 -0.4644150708329786
7.6856015625 -0.8811057836466003 -0.4644178676120975
7.68675 -0.8816038835593552 -0.4653018088913065
7.6878984375 -0.8824610868202923 -0.46772145273536425
7.689046875 -0.8820357326006713 -0.46443012970403663
7.6901953125 -0.8784649068232099 -0.46047548660316723
7.69134375 -0.8794520544980919 -0.462172793589409
7.6924921875 -0.8771197932534865 -0.4617141024378239
7.693640625 -0.8803165941731644 -0.4621132591832525
7.6947890625 -0.8771102506883688 -0.462383343022819
7.6959375 -0.8798602510569371 -0.457953992406781
7.6970859375 -0.8782657597145191 -0.4585426869118394
7.698234375 -0.8805303279696496 -0.45627016023320116
7.6993828125 -0.8792715168296252 -0.4552271534972287
7.70053125 -0.8781062195505807 -0.4548513423911292
7.7016796875 -0.8818394520686819 -0.4525090391436768
7.702828125 -0.8893386962955296 -0.451593735873636
7.7039765625 -0.8898298842261116 -0.45628993054257294
7.705125 -0.8886407022464073 -0.45554858390310193
7.7062734375 -0.8876406154370852 -0.45703239747078483
7.707421875 -0.8866096172531996 -0.460436630005804
7.7085703125 -0.8893307882968672 -0.4540115766058702
7.70971875 -0.887153275333647 -0.45478269190630993
7.7108671875 -0.8875441933018103 -0.4556132931109074
7.712015625 -0.885788548281922 -0.4553029857619932
7.7131640625 -0.886098549657791 -0.45501088861600103
7.7143125 -0.8895398309813403 -0.4488945842815644
7.7154609375 -0.8896007342311479 -0.4517290311905372
7.716609375 -0.8930325783730969 -0.45027064702124125
7.7177578125 -0.8928633267686191 -0.4490651615481704
7.71890625 -0.8943377806818316 -0.4518535560994923
7.7200546875 -0.8924578708213727 -0.44868852579333174
7.721203125 -0.8897977697155255 -0.44788909072999045
7.7223515625 -0.890860228235946 -0.45106148738632756
7.7235 -0.8902641064012148 -0.44982135223918207
7.7246484375 -0.8907758605574229 -0.44906944954171346
7.725796875 -0.8920761830423132 -0.448985915389105
7.7269453125 -0.8908175570732463 -0.45051203913007015
7.72809375 -0.8895384722480513 -0.4508734172863268
7.7292421875 -0.8922207392041142 -0.44929077872552653
7.730390625 -0.894493206998985 -0.4484119831312865
7.7315390625 -0.8938609390899935 -0.44851417889773143
7.7326875 -0.8917758645625906 -0.44773382373405046
7.7338359375 -0.8934236313332709 -0.4470783766469262
7.734984375 -0.8945078318807991 -0.4446471562174617
7.7361328125 -0.8947280955503755 -0.4445454935650794
7.73728125 -0.8980252465169452 -0.4428227117897555
7.7384296875 -0.8958569023686487 -0.4409940030313628
7.739578125 -0.8962655236524628 -0.4422048434703869
7.7407265625 -0.8969209731166347 -0.4431404487341314
7.741875 -0.8963986035634184 -0.4421880670048025
7.7430234375 -0.8976320891412217 -0.439251693811779
7.744171875 -0.9019230545787511 -0.4340549592371178
7.7453203125 -0.9018213509260792 -0.4350879976248855
7.74646875 -0.902329700545828 -0.43421939923192865
7.7476171875 -0.901782699219566 -0.43329444003808926
7.748765625 -0.901806420249604 -0.43355218653171934
7.7499140625 -0.9034980832912678 -0.4271055636031367
7.7510625 -0.903908882331531 -0.43221796851348826
7.7522109375 -0.9041816644932517 -0.43156334071656344
7.753359375 -0.904816733096412 -0.43026656786625417
7.7545078125 -0.9068553589185893 -0.4329023038265841
7.75565625 -0.9051569593717517 -0.42784766696681464
7.7568046875 -0.9077085635803515 -0.42886792654216577
7.757953125 -0.9068558746451102 -0.42989665190229365
7.7591015625 -0.9048080478148058 -0.42848789004756427
7.76025 -0.9076209025503388 -0.4260273331261585
7.7613984375 -0.906421075648088 -0.42382309030244814
7.762546875 -0.9084591681357145 -0.42254344927575116
7.7636953125 -0.9066926126245909 -0.4233000192739538
7.76484375 -0.9100157793788606 -0.42234015916138734
7.7659921875 -0.9090847872663904 -0.4206388193700359
7.767140625 -0.9093967638146698 -0.4192001134107446
7.7682890625 -0.9097712228972792 -0.41837808106415475
7.7694375 -0.909859809875514 -0.41772509868663676
7.7705859375 -0.9101922990114386 -0.4166427711314551
7.771734375 -0.9093126438474419 -0.4156896619288979
7.7728828125 -0.90877166224088 -0.41833978627701407
7.77403125 -0.9058713302334642 -0.41360355009336136
7.7751796875 -0.9094449399588601 -0.41564637796718307
7.776328125 -0.9086616443011922 -0.41180031371502746
7.7774765625 -0.9108198424877089 -0.41257494222010904
7.778625 -0.90959626357509 -0.4136491426046982
7.7797734375 -0.9105275037954824 -0.4096406951855741
7.780921875 -0.9112310844145481 -0.41213213005917804
7.7820703125 -0.9120149347684176 -0.41250672026773916
7.78321875 -0.9105887422466096 -0.4105900907651794
7.7843671875 -0.9093156217011104 -0.40910705755675925
7.785515625 -0.9115487875612974 -0.40403888482446737
7.7866640625 -0.9126312557673337 -0.4064849683125207
7.7878125 -0.912029698045746 -0.4067881050874004
7.7889609375 -0.9132748441293705 -0.4071357995511157
7.790109375 -0.91413257133581 -0.4068478520926967
7.7912578125 -0.9157306514644239 -0.40501848346320024
7.79240625 -0.915776838709917 -0.4041017302950224
7.7935546875 -0.9174630193185335 -0.4066625078389118
7.794703125 -0.9198645776906565 -0.40397920231132733
7.7958515625 -0.9222354580640926 -0.40400144128484006
7.797 -0.9207881550475827 -0.4006633283972437
7.7981484375 -0.9228273178949167 -0.40138189471995434
7.799296875 -0.9228827922883314 -0.39836074987058157
7.8004453125 -0.9234744940415491 -0.39816343865718984
7.80159375 -0.9246300546634317 -0.3981759694791921
7.8027421875 -0.9242684768529132 -0.39589948673972075
7.803890625 -0.9256267813530021 -0.3907212381954849
7.8050390625 -0.9268681728206409 -0.39199615637008156
7.8061875 -0.9260055369575575 -0.39321037156377103
7.8073359375 -0.9270532657255535 -0.3921125608287226
7.808484375 -0.9277506514565359 -0.3927077860128486
7.8096328125 -0.9272382774190566 -0.3850260622938251
7.81078125 -0.9259356397155358 -0.3886949535479587
7.8119296875 -0.9268476676290484 -0.3853059037916494
7.813078125 -0.9256509315276424 -0.3831937182061781
7.8142265625 -0.9237832390928955 -0.38404599371718606
7.815375 -0.9246684443700427 -0.38116968253603634
7.8165234375 -0.9254809373753782 -0.38394923689754235
7.817671875 -0.9246449044487828 -0.38210934344202296
7.8188203125 -0.9229926700066597 -0.3813270710663641
7.81996875 -0.9248633714088907 -0.3818881280166997
7.8211171875 -0.9238892367752091 -0.3784619612621848
7.822265625 -0.9235568459480502 -0.3796629653640874
7.8234140625 -0.9233626903585022 -0.3803676015778309
7.8245625 -0.923133472986303 -0.379242627380903
7.8257109375 -0.9233699363728437 -0.37911023906555297
7.826859375 -0.9224592558426037 -0.37137333092157854
7.8280078125 -0.9241399114784461 -0.3724413088544737
7.82915625 -0.921281700335541 -0.3756956788433582
7.8303046875 -0.9223093168373586 -0.3741552135236348
7.831453125 -0.9224035327034801 -0.37588977818821867
7.8326015625 -0.9237619942054633 -0.37517846741186867
7.83375 -0.9261922424383415 -0.3713654886126373
7.8348984375 -0.9237510156305162 -0.37482752306797285
7.836046875 -0.9218979225841938 -0.37625417355011825
7.8371953125 -0.92488564991919 -0.37452608725307557
7.83834375 -0.9281622875844866 -0.3713081638353338
7.8394921875 -0.9262684546108636 -0.3653508538177954
7.840640625 -0.9261950507672381 -0.36931331850951776
7.8417890625 -0.9265265070239781 -0.36898861591741283
7.8429375 -0.9266923860004908 -0.36982230956366846
7.8440859375 -0.9253355662841867 -0.3673248171343868
7.845234375 -0.9301136064901199 -0.3620622814939999
7.8463828125 -0.929709865024089 -0.36478144810009683
7.84753125 -0.9318417161854012 -0.3681124189007836
7.8486796875 -0.9345388924058755 -0.3673712147395507
7.849828125 -0.9338108322485439 -0.36714057403960787
7.8509765625 -0.9343017159454952 -0.36391377518311596
7.852125 -0.9348795071953108 -0.36284196591611106
7.8532734375 -0.9319453695109603 -0.3642630391725069
7.854421875 -0.9305056504104202 -0.36027374945198753
7.8555703125 -0.932106618460458 -0.36012764940285535
7.85671875 -0.9327405983196637 -0.3579036596072276
7.8578671875 -0.9370708723100556 -0.35934491670669233
7.859015625 -0.936692759679884 -0.36025890103867075
7.8601640625 -0.9355883461519667 -0.3578027370105189
7.8613125 -0.9359783622079944 -0.3589074060462816
7.8624609375 -0.9345859922008074 -0.35810358754423344
7.863609375 -0.9330235705314635 -0.35806399714361736
7.8647578125 -0.9332798560009773 -0.35820325973355993
7.86590625 -0.9325683630267331 -0.3573530255330738
7.8670546875 -0.9312168660426282 -0.3566892422436281
7.868203125 -0.9308435557794278 -0.3582125169304914
7.8693515625 -0.932270768921357 -0.35592981833326776
7.8705 -0.9328965662148618 -0.35784287540114823
7.8716484375 -0.9349051518043592 -0.35495976508169136
7.872796875 -0.9362361003924126 -0.35272801527407616
7.8739453125 -0.9344233981070525 -0.35532884731283865
7.87509375 -0.9357129072670846 -0.35191176399273494
7.8762421875 -0.9365343175382652 -0.3554700324581693
7.877390625 -0.937144407636492 -0.3554409868445657
7.8785390625 -0.9356583939586761 -0.3519426377219457
7.8796875 -0.9387587808787935 -0.35078330953889636
7.8808359375 -0.9398461528164394 -0.34653483065334356
7.881984375 -0.9419709748417566 -0.3456181653417988
7.8831328125 -0.9410741387910107 -0.3459225371914951
7.88428125 -0.9412654748456711 -0.34407985875272784
7.8854296875 -0.9411975819681984 -0.34286952714703456
7.886578125 -0.9424798607861461 -0.33954579446583655
7.8877265625 -0.9419555316756865 -0.3411467309866304
7.888875 -0.9427804035788385 -0.338978528417025
7.8900234375 -0.9420131582434044 -0.3413667803351923
7.891171875 -0.9432105102142505 -0.3407183636877106
7.8923203125 -0.942491939771675 -0.337413826341849
7.89346875 -0.9434042135955982 -0.33728875891280785
7.8946171875 -0.9444870693317708 -0.33773967081443534
7.895765625 -0.9447331455263484 -0.33657127844665224
7.8969140625 -0.9443084069715514 -0.33637515210000146
7.8980625 -0.9446901786432697 -0.33414766931697437
7.8992109375 -0.9459079284591427 -0.3339673789154841
7.900359375 -0.9452932746494677 -0.33188395755688493
7.9015078125 -0.946315544886658 -0.33222205005592076
7.90265625 -0.9473671739369609 -0.3296404540575534
7.9038046875 -0.9485383956323581 -0.328981487533604
7.904953125 -0.947167054697853 -0.32779267598414485
7.9061015625 -0.948867135315403 -0.3270725047780517
7.90725 -0.9474459234144067 -0.3289747485631922
7.9083984375 -0.9497531212202592 -0.3285566122640049
7.909546875 -0.9469213540754201 -0.32799603826594714
7.9106953125 -0.9474872590682689 -0.3237462761610651
7.91184375 -0.9496708197389561 -0.3243712877034439
7.9129921875 -0.9485627843105746 -0.3259285616605747
7.914140625 -0.9506282650483879 -0.32428892155797384
7.9152890625 -0.9504183181558268 -0.32239159269121875
7.9164375 -0.9487910127117059 -0.3176999018757094
7.9175859375 -0.9491719289402295 -0.3192534800037077
7.918734375 -0.9491684310961281 -0.3193792807572726
7.9198828125 -0.9489120884306081 -0.3174768997359244
7.92103125 -0.9491880066006474 -0.317206868214713
7.9221796875 -0.9516707343531189 -0.31519914343193123
7.923328125 -0.949675501083548 -0.3170244693437214
7.9244765625 -0.9481141882764588 -0.3164368711471339
7.925625 -0.9487941727475347 -0.31452318286065484
7.9267734375 -0.9511996852020723 -0.31493564718015354
7.927921875 -0.9520729011644453 -0.31119749602778857
7.9290703125 -0.953528791727132 -0.3124264611910058
7.93021875 -0.9504830256558666 -0.3128835543734184
7.9313671875 -0.9507152051854187 -0.31042393332678053
7.932515625 -0.9511720346227291 -0.30958476462292595
7.9336640625 -0.9535979414516811 -0.3082280918581598
7.9348125 -0.9541684521477143 -0.3060234070448409
7.9359609375 -0.9558228140968628 -0.3070333993123763
7.937109375 -0.9554677991863071 -0.3063917315729746
7.9382578125 -0.9543017963258812 -0.304710165150306
7.93940625 -0.9544184947014437 -0.3057644878904393
7.9405546875 -0.9554450833373137 -0.3028879745366082
7.941703125 -0.9547585635721022 -0.30396611404508533
7.9428515625 -0.9542675550076407 -0.30320078269620054
7.944 -0.9549383418436692 -0.3017143969754119
7.9451484375 -0.9543870670244898 -0.30260947854628517
7.946296875 -0.9538634449419494 -0.2983489464877387
7.9474453125 -0.9556673818629797 -0.300830131596872
7.94859375 -0.955575975859577 -0.300910588077657
7.9497421875 -0.9558155843540818 -0.3009083228572941
7.950890625 -0.9566118251483283 -0.2994662380663814
7.9520390625 -0.9576709324497759 -0.2957175610343258
7.9531875 -0.9576600967680581 -0.2945441850406697
7.9543359375 -0.9572794969161935 -0.29373419550349333
7.955484375 -0.9572476583094128 -0.2945928057765774
7.9566328125 -0.9573304047643605 -0.2937107465277431
7.95778125 -0.9587085826933253 -0.29021846677250696
7.9589296875 -0.9590484880937211 -0.2902549342626314
7.960078125 -0.9573958742076519 -0.29035511830985195
7.9612265625 -0.9575219208962984 -0.2893105325221086
7.962375 -0.960524611475997 -0.28890531592403723
7.9635234375 -0.9603656169281578 -0.286295206763326
7.964671875 -0.9590903152664065 -0.28516500689288726
7.9658203125 -0.9584167445546914 -0.28659143124629016
7.96696875 -0.9608655004648148 -0.2860538978318151
7.9681171875 -0.9596717941297301 -0.2852086972926925
7.969265625 -0.9592158684574987 -0.28303507370269154
7.9704140625 -0.9599347490347592 -0.280442388577022
7.9715625 -0.9598506818025805 -0.2804904170926491
7.9727109375 -0.9593829855141784 -0.28172964435473413
7.973859375 -0.9582148291179617 -0.28092458042653734
7.9750078125 -0.958932049735813 -0.2795042055332626
7.97615625 -0.9617825777778091 -0.27776532057262115
7.9773046875 -0.9637305158921081 -0.2789516708975377
7.978453125 -0.9679799085560988 -0.2785473076945183
7.9796015625 -0.9662458332606758 -0.2798768346165146
7.98075 -0.9676881047465742 -0.27927421527572216
7.9818984375 -0.9666381706917601 -0.2773807365841293
7.983046875 -0.9648619061705079 -0.2772644071513487
7.9841953125 -0.9647734267242021 -0.27826974679454686
7.98534375 -0.9643776016185571 -0.276327213465286
7.9864921875 -0.9662562830736827 -0.27643346243075906
7.987640625 -0.9681999269554648 -0.2736830370266803
7.9887890625 -0.968022639434604 -0.2731000650743052
7.9899375 -0.9677079829627231 -0.2716935387203774
7.9910859375 -0.9666832641901133 -0.27116376758645044
7.992234375 -0.9668613585356934 -0.26971032515918003
7.9933828125 -0.9666006563829007 -0.2684523134568493
7.99453125 -0.966196551955 -0.2694501845246686
7.9956796875 -0.9651091687999213 -0.26790521975434667
7.996828125 -0.9669755925743042 -0.2652036413937281
7.9979765625 -0.9672116927897757 -0.26545646509162746
7.999125 -0.9683661006644497 -0.26458361807591774
8.0002734375 -0.9699840040520022 -0.2618967456818648
8.001421875 -0.9687445475141603 -0.26236937212677314
8.0025703125 -0.9686219598212797 -0.2647307127787141
8.00371875 -0.9701063313290297 -0.2613169789836044
8.0048671875 -0.9681247425354547 -0.2594614068950829
8.006015625 -0.969714817642164 -0.25999192099730856
8.0071640625 -0.9683609509039472 -0.2603773520059074
8.0083125 -0.9694061843213316 -0.258732028967819
8.0094609375 -0.9696428676314325 -0.2587070903484367
8.010609375 -0.9717911909437031 -0.26059330852781576
8.0117578125 -0.9718135631127721 -0.25735834210017117
8.01290625 -0.9708678812620409 -0.25723863941272784
8.0140546875 -0.9722464046766953 -0.2545190543696977
8.015203125 -0.9711125659721648 -0.2551595771191848
8.0163515625 -0.9739068386460576 -0.254486877595535
8.0175 -0.9710002659618716 -0.2524467845720705
8.0186484375 -0.9727686491286893 -0.2527713245469953
8.019796875 -0.975406870872332 -0.25115231973212876
8.0209453125 -0.9729396188570685 -0.24982790948664296
8.02209375 -0.973196917442462 -0.24970983749873393
8.0232421875 -0.9745937344386247 -0.24715574231144732
8.024390625 -0.9730934810301721 -0.24712221200014478
8.0255390625 -0.9734178962851461 -0.24612074796647282
8.0266875 -0.974350286846698 -0.24684644122619992
8.0278359375 -0.9743065081650593 -0.2447381799812447
8.028984375 -0.9716551151059302 -0.24282945429153147
8.0301328125 -0.9739505566075113 -0.24056855432810204
8.03128125 -0.9727276186908871 -0.24148564519103993
8.0324296875 -0.9708167754868173 -0.24158769305177563
8.033578125 -0.9723916588442689 -0.24024655347024476
8.0347265625 -0.971772347222394 -0.2394273921724993
8.035875 -0.9722208463765848 -0.2381459640084167
8.0370234375 -0.9723474202775735 -0.23791586807263532
8.038171875 -0.9729319430310085 -0.23902270726276476
8.0393203125 -0.9707120187744805 -0.23792946896623074
8.04046875 -0.9719278232112112 -0.23582373504051574
8.0416171875 -0.9718282455309134 -0.23297457811487732
8.042765625 -0.97192017716347 -0.23371253708620549
8.0439140625 -0.9718453361387399 -0.2319619618319596
8.0450625 -0.9736229115320785 -0.2322587788452306
8.0462109375 -0.9725991806317974 -0.23105230121363451
8.047359375 -0.9721644624065373 -0.2298934648302421
8.0485078125 -0.9717053518965433 -0.22927762520093503
8.04965625 -0.9714840807942645 -0.22834821120906085
8.0508046875 -0.9727212305655537 -0.22778417476106255
8.051953125 -0.9704806802391365 -0.22695964148634284
8.0531015625 -0.9715634194595318 -0.22605304364109957
8.05425 -0.9678776102649022 -0.22576547817884846
8.0553984375 -0.9677148616669438 -0.22605969285926608
8.056546875 -0.9687877775867084 -0.22454098626097935
8.0576953125 -0.9683660207642868 -0.22387422947344088
8.05884375 -0.9691471559580697 -0.2221804141907195
8.0599921875 -0.9680728576785395 -0.22249933116124293
8.061140625 -0.9677567065702357 -0.2221017275183066
8.0622890625 -0.9658451794550201 -0.22210492068069831
8.0634375 -0.9670946889319972 -0.22209194697867102
8.0645859375 -0.9677530215640671 -0.2207778104985394
8.065734375 -0.9674935506739044 -0.2208769541358525
8.0668828125 -0.9670621346685961 -0.22257579603305827
8.06803125 -0.967235871613415 -0.22142211574769588
8.0691796875 -0.967927488483624 -0.22055115135203546
8.070328125 -0.9685469285183764 -0.2201459004514537
8.0714765625 -0.9681274342675914 -0.2174371770851123
8.072625 -0.9681574058664263 -0.21886034449614788
8.0737734375 -0.9679829820506484 -0.21792280757986093
8.074921875 -0.9670872268965507 -0.21790053279889277
8.0760703125 -0.9680633446468594 -0.21816202917056593
8.07721875 -0.9679693328673652 -0.21813054800119303
8.0783671875 -0.9701793453941295 -0.22048639499288442
8.079515625 -0.971161088609574 -0.21830862415049557
8.0806640625 -0.9710975815863405 -0.21975752583757907
8.0818125 -0.9718349658896996 -0.21842928746612883
8.0829609375 -0.9732645943049993 -0.21675119757736278
8.084109375 -0.9734980751958409 -0.21781074940142398
8.0852578125 -0.9745867560082906 -0.21592502997928653
8.08640625 -0.9771273821239137 -0.216476294018638
8.0875546875 -0.9759450845811417 -0.21648852555959708
8.088703125 -0.9778778461748789 -0.216792963511043
8.0898515625 -0.9786142623031409 -0.21585692422978547
8.091 -0.9791401413983052 -0.21586623072860622
8.0921484375 -0.980554367486643 -0.21632359425461012
8.093296875 -0.9788142498329426 -0.21663736062540734
8.0944453125 -0.9814777442318451 -0.21231380854569737
8.09559375 -0.978863573370273 -0.21350438595808574
8.0967421875 -0.9797774069228672 -0.2136771614984867
8.097890625 -0.9822663467492824 -0.21392811244098264
8.0990390625 -0.9859745041792718 -0.2126154949879031
8.1001875 -0.9851264277282044 -0.21211578839810152
8.1013359375 -0.9847984857992351 -0.21154253911384668
8.102484375 -0.9868324316613536 -0.21058703703774018
8.1036328125 -0.9881573690985046 -0.21033134116390267
8.10478125 -0.9894572569493024 -0.20961287288971148
8.1059296875 -0.9882347242314522 -0.20863560219913557
8.107078125 -0.9905542505619789 -0.205876751119086
8.1082265625 -0.9894293590380858 -0.20611100780565483
8.109375 -0.9911986053168832 -0.20524085375334034
8.1105234375 -0.9909831709912891 -0.2051949282810524
8.111671875 -0.9925375630789348 -0.20453540463648529
8.1128203125 -0.9935891047089265 -0.20221615382666625
8.11396875 -0.994899017687239 -0.20350628844927793
8.1151171875 -0.9975202011532528 -0.2027849188992521
8.116265625 -0.9966595204136278 -0.20258984685661202
8.1174140625 -0.9980444521713916 -0.19978670621382255
8.1185625 -0.9985303298707403 -0.19764498670109948
8.1197109375 -0.9989374904469505 -0.19774244264627783
8.120859375 -1.0014424957042392 -0.1953304293296984
8.1220078125 -1.0010169967947655 -0.19615998351390612
8.12315625 -1.0012309468958556 -0.1945023042377978
8.1243046875 -1.0024376657829261 -0.18974271480647514
8.125453125 -1.0021456019849397 -0.19034260319119733
8.1266015625 -1.0024522993568117 -0.18942274997953945
8.12775 -1.0024060145812765 -0.18706307726278804
8.1288984375 -1.0046677606815249 -0.18404184855435407
8.130046875 -1.0039289124680324 -0.18346751093669467
8.1311953125 -1.0044477243055783 -0.18246921296946772
8.13234375 -1.0054628273841892 -0.18025281105932606
8.1334921875 -1.0059346075404223 -0.17964590193907215
8.134640625 -1.0048731865841853 -0.17769070440353263
8.1357890625 -1.0063329401405354 -0.1748165722277143
8.1369375 -1.0069732052016525 -0.1734386874482659
8.1380859375 -1.006761996985619 -0.17361144018318425
8.139234375 -1.0062530812846284 -0.17143941283455144
8.1403828125 -1.0059293662185111 -0.17001490791562635
8.14153125 -1.006007972079836 -0.1674513977451031
8.1426796875 -1.0063365069924424 -0.1660016263274371
8.143828125 -1.0063124693361116 -0.1646295298845566
8.1449765625 -1.0055000282590374 -0.1636900990728531
8.146125 -1.0057988839559173 -0.1629993757803075
8.1472734375 -1.0058728278724152 -0.16161854771709033
8.148421875 -1.005478804542627 -0.15945024570701677
8.1495703125 -1.0046949079376892 -0.15838517994567042
8.15071875 -1.004353059144358 -0.15733681934111404
8.1518671875 -1.0044953879099983 -0.1568802122683357
8.153015625 -1.0028932735533982 -0.1565312797647091
8.1541640625 -1.00338589506948 -0.15388964181894293
8.1553125 -1.0025627641479882 -0.15313865825660677
8.1564609375 -1.0024506387326926 -0.15307762723921875
8.157609375 -1.0026720584814064 -0.15248113033006255
8.1587578125 -1.0023767432283521 -0.15121727349130604
8.15990625 -1.0020441009191352 -0.15034583895613196
8.1610546875 -1.0015927007368477 -0.14937751004300492
8.162203125 -1.0016687755808693 -0.1487408019860279
8.1633515625 -1.0025568490920422 -0.14852970359198947
8.1645 -1.00227396893108 -0.14700059341253519
8.1656484375 -1.0008758736343664 -0.14584987496280816
8.166796875 -1.001664474748587 -0.14515739530450444
8.1679453125 -1.0011990342127892 -0.14477287615430062
8.16909375 -1.0016357453224378 -0.14344234555260227
8.1702421875 -1.001803259556708 -0.14308388507387426
8.171390625 -1.001905821409704 -0.14222492262079212
8.1725390625 -1.0009838965720612 -0.14167195384369513
8.1736875 -1.0015476348834003 -0.1404836828560061
8.1748359375 -1.0015359039391787 -0.14038547476178442
8.175984375 -1.0014440942410099 -0.13978067358756002
8.1771328125 -1.0017508375781992 -0.13766275270291134
8.17828125 -1.0017534724704213 -0.13739912808555899
8.1794296875 -1.0016510562394902 -0.1369690765549358
8.180578125 -1.001952338098531 -0.135457034976539
8.1817265625 -1.002036940333343 -0.13510399291941166
8.182875 -1.0017570787204026 -0.13433239311366552
8.1840234375 -1.001946246806202 -0.13271116128045085
8.185171875 -1.0031614023919384 -0.1332573375937079
8.1863203125 -1.0021132954418408 -0.1329542018927089
8.18746875 -1.001107232073397 -0.1326513677447096
8.1886171875 -1.0021273519514606 -0.13080340717254946
8.189765625 -1.0022551450127541 -0.12986195178480847
8.1909140625 -1.0022379206188368 -0.12925001807345032
8.1920625 -1.0029511686980344 -0.12824769557020393
8.1932109375 -1.0023049629414906 -0.12756752009560585
8.194359375 -1.002573519372604 -0.12765025736846802
8.1955078125 -1.0021494008895837 -0.12616365827031845
8.19665625 -1.0031689736428393 -0.12540945613552745
8.1978046875 -1.0030484088635154 -0.12516649384626155
8.198953125 -1.0027993682972556 -0.12382821932499555
8.2001015625 -1.0032412402001372 -0.12204246237723004
8.20125 -1.0032562438120955 -0.12178426720299246
8.2023984375 -1.0024493541339137 -0.12155143050185468
8.203546875 -1.0026927045125573 -0.12113195612836603
8.2046953125 -1.002376800039864 -0.12049279731084667
8.20584375 -1.0019546753752133 -0.11947476594301332
8.2069921875 -1.0026161471900172 -0.11895227440108985
8.208140625 -1.0035624111749444 -0.11737875792769298
8.2092890625 -1.003670710001699 -0.11666688641232487
8.2104375 -1.0032227474832898 -0.11535131669527965
8.2115859375 -1.0038035683316366 -0.11456930516409186
8.212734375 -1.0035506279627062 -0.1145235161494853
8.2138828125 -1.0035551227231267 -0.11305770212954941
8.21503125 -1.0037099401713534 -0.11218115334117107
8.2161796875 -1.0033017697052866 -0.11201652919257099
8.217328125 -1.0033587630251248 -0.11171091793303062
8.2184765625 -1.0032656576639973 -0.11008387343756282
8.219625 -1.003749619045447 -0.1093186128668594
8.2207734375 -1.0043069678460887 -0.10796553998454894
8.221921875 -1.0042972627515085 -0.10705208767401136
8.2230703125 -1.004933248591241 -0.1062089995659119
8.22421875 -1.004095847770558 -0.10560749719618073
8.2253671875 -1.004142439978282 -0.10474579486453223
8.226515625 -1.0045078712884654 -0.10447768391613055
8.2276640625 -1.0043767106888035 -0.10393431723818464
8.2288125 -1.0046757951359848 -0.10332957936916565
8.2299609375 -1.005154859922849 -0.10182137668771235
8.231109375 -1.005217536949782 -0.10085454519844794
8.2322578125 -1.0050807604573846 -0.09991240938249013
8.23340625 -1.0056980992458444 -0.09941014589863328
8.2345546875 -1.0055364975823977 -0.09811919268357566
8.235703125 -1.0057893298739486 -0.09772379536395326
8.2368515625 -1.0061529110713712 -0.09684042079574129
8.238 -1.0055412605304217 -0.09551661314836285
8.2391484375 -1.005824250169732 -0.09568020998052323
8.240296875 -1.0057806643656235 -0.09500648748220519
8.2414453125 -1.006571970420411 -0.09391480294359184
8.24259375 -1.0064195414966497 -0.09348082585498924
8.2437421875 -1.0062497063618343 -0.09266030121185809
8.244890625 -1.0061753839710208 -0.09021689554280715
8.2460390625 -1.0062987215379473 -0.08995927789894889
8.2471875 -1.0062923704181121 -0.08931706670334835
8.2483359375 -1.0067996338565852 -0.0882459406159527
8.249484375 -1.0068891927511832 -0.08774713510377069
8.2506328125 -1.0060760980640737 -0.08759260231700589
8.25178125 -1.0066067127896228 -0.08673249995724008
8.2529296875 -1.0074198650721609 -0.08585725889784607
8.254078125 -1.0069258905401546 -0.0854089130578457
8.2552265625 -1.0076061393795275 -0.08375864273140127
8.256375 -1.0073221149394327 -0.08286896291316981
8.2575234375 -1.0075999642843396 -0.08164923031733134
8.258671875 -1.0072083094633837 -0.08125905659114988
8.2598203125 -1.0080679931494685 -0.08018313247229045
8.26096875 -1.00824068158951 -0.07912071991122072
8.2621171875 -1.0079536873604242 -0.07828457370503997
8.263265625 -1.0081122399395726 -0.07732239732482271
8.2644140625 -1.0083721439969628 -0.07687001283946415
8.2655625 -1.0083505173966776 -0.07648662787275545
8.2667109375 -1.0087858279709028 -0.07496271897257184
8.267859375 -1.0087502095869365 -0.07353180190664246
8.2690078125 -1.0086251470539125 -0.07320203521645133
8.27015625 -1.0083801931320515 -0.07294315431427145
8.2713046875 -1.0085186473633039 -0.07179902108960133
8.272453125 -1.0083976233656093 -0.07059046827715033
8.2736015625 -1.0089671071165116 -0.06980802059891333
8.27475 -1.0091354331612044 -0.06836116035807574
8.2758984375 -1.0088588138833097 -0.06813867980847227
8.277046875 -1.0083260770423321 -0.06767767131630661
8.2781953125 -1.0086179668279143 -0.0668165728849727
8.27934375 -1.0090495969184838 -0.0649674223130616
8.2804921875 -1.0090147101696614 -0.06477716145269077
8.281640625 -1.0088806413123705 -0.06446865849830374
8.2827890625 -1.0098020196651682 -0.06388987716002141
8.2839375 -1.0092443199686292 -0.06286603332617326
8.2850859375 -1.009444003789266 -0.06190775410463735
8.286234375 -1.0093068363949742 -0.0605404885935245
8.2873828125 -1.00963615539293 -0.05952450569627571
8.28853125 -1.0091759434394856 -0.05880119856908134
8.2896796875 -1.0089520807868235 -0.0582350031900461
8.290828125 -1.0097385488165354 -0.0570706858917089
8.2919765625 -1.0096244456915362 -0.05632661068064556
8.293125 -1.009585520342858 -0.0558149902443871
8.2942734375 -1.0102690718501761 -0.05463935380638278
8.295421875 -1.0096527165047728 -0.05401286595151422
8.2965703125 -1.0095341896068954 -0.05300155744414456
8.29771875 -1.0100993109301513 -0.05188568491143383
8.2988671875 -1.0099153455715837 -0.05113804696830429
8.300015625 -1.0097952673547477 -0.05058835513997992
8.3011640625 -1.0101531836396291 -0.04957055243098786
8.3023125 -1.0106888694838165 -0.04870773046080634
8.3034609375 -1.0105826834984901 -0.04762010871646228
8.304609375 -1.0103776346429867 -0.046934025426009815
8.3057578125 -1.0108780217991267 -0.04596530551833164
8.30690625 -1.0108870173288007 -0.04567269746036573
8.3080546875 -1.010502923384576 -0.045186335615445467
8.309203125 -1.0107442781992333 -0.04384239606889698
8.3103515625 -1.0107848240547075 -0.042775156444081947
8.3115 -1.010845381139411 -0.041746684527947095
8.3126484375 -1.0117553933226198 -0.040663551179392306
8.313796875 -1.0121548155955735 -0.04017479231576786
8.3149453125 -1.0120119037723907 -0.039517718436514276
8.31609375 -1.0119621667787384 -0.038586267447430544
8.3172421875 -1.0121064362857848 -0.037599367116124355
8.318390625 -1.0119667093748164 -0.03670604580081105
8.3195390625 -1.0118894860590295 -0.0362422442175932
8.3206875 -1.0124668086602184 -0.03510584995063565
8.3218359375 -1.0123433639302477 -0.03440092608352886
8.322984375 -1.0122776861268967 -0.033809959292546474
8.3241328125 -1.0125476706466467 -0.03222748891133208
8.32528125 -1.012437812165472 -0.0313589370818423
8.3264296875 -1.012736268450768 -0.03062539082201926
8.327578125 -1.0130907511758287 -0.029300970360499057
8.3287265625 -1.0133427966986293 -0.028488366691650724
8.329875 -1.0129962683276634 -0.027924169613266367
8.3310234375 -1.013077373489119 -0.02698486380483242
8.332171875 -1.0136158529277508 -0.02563917792704626
8.3333203125 -1.012921803138915 -0.02528944189871145
8.33446875 -1.0124893308825045 -0.025207041929255186
8.3356171875 -1.0130953489610688 -0.023562812416359685
8.336765625 -1.013237790279176 -0.022740989067543904
8.3379140625 -1.0126944954745651 -0.021366074297238996
8.3390625 -1.0133856525038913 -0.020156989950620124
8.3402109375 -1.013079662176085 -0.019659962150214816
8.341359375 -1.012856862065035 -0.018872305771612363
8.3425078125 -1.013157272605535 -0.01799988190314128
8.34365625 -1.0130024652245768 -0.0173468473457552
8.3448046875 -1.0128568847821935 -0.016832552861976463
8.345953125 -1.0120628954178037 -0.016148999444099532
8.3471015625 -1.0123014132711254 -0.014418585748594004
8.34825 -1.0124661143799891 -0.013275924252941051
8.3493984375 -1.0125733374332975 -0.012529909086829688
8.350546875 -1.0135801977589953 -0.01117035726181484
8.3516953125 -1.0134529572340087 -0.010569602433784075
8.35284375 -1.0123440254686027 -0.009921954736801297
8.3539921875 -1.0129820881360436 -0.008750652157513306
8.355140625 -1.0129196083470149 -0.007684559707891114
8.3562890625 -1.0128433905474181 -0.006903860524098193
8.3574375 -1.0127493218533983 -0.005926027260848565
8.3585859375 -1.0127994543918908 -0.005323371698909868
8.359734375 -1.0132105288929836 -0.004550222056491526
8.3608828125 -1.0128393271433889 -0.0031750889776584745
8.36203125 -1.01290276184092 -0.0022984843227037144
8.3631796875 -1.0124001164026517 -0.0016638223082068304
8.364328125 -1.0128083171068631 -0.001122648421342437
8.3654765625 -1.0129703964462793 0.00048378878516799895
8.366625 -1.0127049441916012 0.0009587809666248559
8.3677734375 -1.0130826659399335 0.0020839374613833006
8.368921875 -1.0133214330881724 0.0030042582130018203
8.3700703125 -1.012802373632761 0.0034544190584207546
8.37121875 -1.012615749608657 0.0042858141832378405
8.3723671875 -1.0125744275710515 0.005582323830098823
8.373515625 -1.0131338992178125 0.00626348585861955
8.3746640625 -1.0131993027746389 0.006602300608698514
8.3758125 -1.0129439307864136 0.008171621816623412
8.3769609375 -1.0133711965903918 0.009681609798261187
8.378109375 -1.012837299945073 0.010087227137493437
8.3792578125 -1.012882136165059 0.011264680056193466
8.38040625 -1.0133417769853221 0.011713462128314117
8.3815546875 -1.0131687150743869 0.012522915659275755
8.382703125 -1.0136021027896884 0.012850628758927105
8.3838515625 -1.0133418852482787 0.014361055171614512
8.385 -1.0134171743655513 0.015249061242113573
8.3861484375 -1.013835405083883 0.015747464168127695
8.387296875 -1.0131160593030852 0.01712585235110428
8.3884453125 -1.0133874314130757 0.01834279808913772
8.38959375 -1.0134765059884239 0.018398501968864556
8.3907421875 -1.0135242379241747 0.019226736859171922
8.391890625 -1.0140556571944193 0.02031557258476746
8.3930390625 -1.0136962603263124 0.021197583947997437
8.3941875 -1.0137259244058634 0.0222248378508383
8.3953359375 -1.013282984188073 0.023781485988791866
8.396484375 -1.0125299528595968 0.024033918418354325
8.3976328125 -1.0131639190472352 0.024660709473607212
8.39878125 -1.013167429934253 0.025914502666307432
8.3999296875 -1.0129666436298175 0.026801161505943444
8.401078125 -1.0128988534190864 0.02756218587172002
8.4022265625 -1.0131513216125367 0.028619840735020913
8.403375 -1.0140510205121114 0.02906139385859808
8.4045234375 -1.0132581580748028 0.029855826190615758
8.405671875 -1.0133851901938975 0.03088820551744021
8.4068203125 -1.0135472633045022 0.03220527876323495
8.40796875 -1.0133681399251042 0.032385789322399106
8.4091171875 -1.0136812672215794 0.03323196058074704
8.410265625 -1.0136882203492417 0.03460503439241999
8.4114140625 -1.0135501727155385 0.035330856960959306
8.4125625 -1.013124625994191 0.036280058881997396
8.4137109375 -1.0136632270019212 0.036881425607887444
8.414859375 -1.013508897074434 0.03737287015760965
8.4160078125 -1.0135633874233152 0.03836097270319458
8.41715625 -1.0129029895615025 0.03996771075245273
8.4183046875 -1.0134285558684155 0.04163456348680408
8.419453125 -1.0134156434185932 0.0418341843063125
8.4206015625 -1.0130548611217365 0.04223220178430176
8.42175 -1.013728644171913 0.04293414341198799
8.4228984375 -1.013473047869267 0.0441009087081613
8.424046875 -1.0129826317160084 0.044966502899126015
8.4251953125 -1.0127989050102824 0.04562946988258333
8.42634375 -1.0128979139069123 0.04720354530820085
8.4274921875 -1.0131580730512817 0.04755686315500267
8.428640625 -1.0126518861173048 0.048815866974104644
8.4297890625 -1.0132589740733555 0.050159482411930356
8.4309375 -1.0131876323489208 0.0502108626787523
8.4320859375 -1.013225896297261 0.05115181957602066
8.433234375 -1.0133673351180144 0.05220483677957197
8.4343828125 -1.0129918363499961 0.05355005612939233
8.43553125 -1.0126389516344447 0.05398749110725379
8.4366796875 -1.012615190610134 0.055158827005740554
8.437828125 -1.0129742047950785 0.05631934239175937
8.4389765625 -1.0132859975852955 0.05673879192991632
8.440125 -1.0131601219872906 0.058250944080676686
8.4412734375 -1.0130171457515182 0.05938689644991485
8.442421875 -1.012575152916647 0.059908211558556246
8.4435703125 -1.0126518973423402 0.06012565362674657
8.44471875 -1.0127759432770895 0.06174138498715509
8.4458671875 -1.0129593697579573 0.0625487186820648
8.447015625 -1.0121825835189964 0.0634711203431034
8.4481640625 -1.0124026147471037 0.06457940571147056
8.4493125 -1.0128583224873302 0.06536315747880272
8.4504609375 -1.012695740758637 0.06543227519612071
8.451609375 -1.012981691642859 0.06664154849162116
8.4527578125 -1.012639275269927 0.06784334615611656
8.45390625 -1.0125016348368872 0.06863986182790552
8.4550546875 -1.0124498952140892 0.06889910695908455
8.456203125 -1.0126621203706039 0.07067880452475411
8.4573515625 -1.0124519897481143 0.07057286202635253
8.4585 -1.0118109151405026 0.07173954407392397
8.4596484375 -1.0126931661117684 0.07356004271439379
8.460796875 -1.0127262359395262 0.07433339374802281
8.4619453125 -1.0123699221785143 0.07532914724313317
8.46309375 -1.013204123570015 0.07594304514463784
8.4642421875 -1.012338275693748 0.07640000071200863
8.465390625 -1.012783488214561 0.07778090970598939
8.4665390625 -1.0122253994740416 0.07880239618497259
8.4676875 -1.0122666012439059 0.07967107286377627
8.4688359375 -1.0131174080601588 0.08062735795967958
8.469984375 -1.0132279043494674 0.08188544613819901
8.4711328125 -1.0126151346904746 0.0826391050626987
8.47228125 -1.0127745524704765 0.0837200328913994
8.4734296875 -1.0124762251989625 0.0848779134815669
8.474578125 -1.013397786814334 0.08559453676472219
8.4757265625 -1.0133379107791827 0.08620883367374235
8.476875 -1.013045036079232 0.08718679698104502
8.4780234375 -1.013087852389293 0.08821777210773485
8.479171875 -1.0134439678628855 0.08935747803735479
8.4803203125 -1.012859016002625 0.09064220204759876
8.48146875 -1.0131277625320056 0.09177298206161749
8.4826171875 -1.0130097391639792 0.09330986648980616
8.483765625 -1.012741054536106 0.09315774047056802
8.4849140625 -1.0125238444239835 0.09392239344125461
8.4860625 -1.0125315549352507 0.09558472200672305
8.4872109375 -1.0122316347415783 0.0959411374273732
8.488359375 -1.0114583057515658 0.09764928481403823
8.4895078125 -1.0114016085329995 0.09932646979549642
8.49065625 -1.0109674183244235 0.09937820631365882
8.4918046875 -1.0105737965421753 0.10033046585760688
8.492953125 -1.0115915008779361 0.10100519660412627
8.4941015625 -1.0104708644777651 0.10268752167638417
8.49525 -1.0106775846121274 0.1032054853693268
8.4963984375 -1.0103426923950725 0.10440472306841028
8.497546875 -1.010847120806656 0.1054346411401147
8.4986953125 -1.0102041720320285 0.10611290647322555
8.49984375 -1.0095974253690856 0.10673526859536403
8.5009921875 -1.008612059491706 0.10747873644337425
8.502140625 -1.0086079536154615 0.10875257529664745
8.5032890625 -1.008717006227381 0.10964069185132136
8.5044375 -1.0086272616580567 0.11055159654328917
8.5055859375 -1.0087195929360315 0.1122336988078988
8.506734375 -1.008613982381266 0.11351625771730028
8.5078828125 -1.0082352370948713 0.1141279713881034
8.50903125 -1.008670604414117 0.11520952652324945
8.5101796875 -1.0086124986173415 0.11548143485468498
8.511328125 -1.0085913311266936 0.11662478537975016
8.5124765625 -1.0080571983484612 0.11762157871994547
8.513625 -1.0078412419467047 0.11893949612842386
8.5147734375 -1.007361864325238 0.12002509119658333
8.515921875 -1.0069893385330286 0.12084988312756066
8.5170703125 -1.0076013765195488 0.12085237302675687
8.51821875 -1.0067027224433942 0.12248964631036101
8.5193671875 -1.0064537703453578 0.12362266027236615
8.520515625 -1.0069945928888324 0.12516175457415057
8.5216640625 -1.0070046832673902 0.12608078585602367
8.5228125 -1.00715162688563 0.12597300822261848
8.5239609375 -1.0063645508031267 0.12864043420180596
8.525109375 -1.0059231082004874 0.12912721801170832
8.5262578125 -1.0054900214822406 0.1295510480241301
8.52740625 -1.0050611730336871 0.13027602815508516
8.5285546875 -1.0057860717303138 0.13138268132654393
8.529703125 -1.0053617932056325 0.13229709107255
8.5308515625 -1.0042689093145971 0.13353556471710912
8.532 -1.0049099198976676 0.134364516843825
8.5331484375 -1.0040069990467124 0.1352751676628203
8.534296875 -1.0041373029183984 0.13612616546389514
8.5354453125 -1.0038580451107924 0.1374719444355904
8.53659375 -1.0034640911758643 0.13835267440727372
8.5377421875 -1.0030281288843594 0.13889978997345753
8.538890625 -1.0034518960362488 0.1399385181623663
8.5400390625 -1.0031609776373833 0.14039020271663788
8.5411875 -1.0025990148490478 0.14108001317518223
8.5423359375 -1.0028075430831116 0.14250805246055398
8.543484375 -1.0021427714465516 0.14278492295204004
8.5446328125 -1.0025129448965926 0.14292252879346443
8.54578125 -1.00152299314734 0.14411645088555003
8.5469296875 -1.002276037570193 0.14471110063628517
8.548078125 -1.0020313297335246 0.14524775602803508
8.5492265625 -1.002441062558878 0.14576023566559881
8.550375 -1.0019820253425575 0.1471688988967669
8.5515234375 -1.0015819789556986 0.14826066223621864
8.552671875 -1.001639494446711 0.14867608930693446
8.5538203125 -1.0012275262854762 0.150263284396541
8.55496875 -1.0012982599396552 0.1511178182307982
8.5561171875 -1.001489790413601 0.15200936353247818
8.557265625 -1.0014138985830345 0.15270720108937164
8.5584140625 -1.0016555877946232 0.15334098847579986
8.5595625 -1.0009219379587224 0.15455601538788508
8.5607109375 -1.000684973002752 0.1551249260837127
8.561859375 -1.0008348140422203 0.1562908642835546
8.5630078125 -1.0005959067746597 0.15702300418083223
8.56415625 -1.0004168298986962 0.15753116956620739
8.5653046875 -1.0000830262038067 0.15963773282057578
8.566453125 -0.9997086226573572 0.16001881921744301
8.5676015625 -0.999182828934571 0.16068322378568964
8.56875 -0.9989514859799408 0.16148160213377197
8.5698984375 -0.9991900412209642 0.16203168847678218
8.571046875 -0.9986500575128692 0.1631888258406109
8.5721953125 -0.9983931888851453 0.1635361894785451
8.57334375 -0.9985022609358056 0.16491221020172492
8.5744921875 -0.9989137249422976 0.16623814218515565
8.575640625 -0.9984724214916216 0.16637790621806592
8.5767890625 -0.99848673078118 0.16724860392742036
8.5779375 -0.9979913601414081 0.16822537045463415
8.5790859375 -0.9973501366770016 0.16949761925159815
8.580234375 -0.997370086148698 0.17052286248695955
8.5813828125 -0.9971911689352193 0.1703464715015579
8.58253125 -0.9967742944156163 0.1715760749416505
8.5836796875 -0.9965915724433653 0.17267986975490512
8.584828125 -0.9965731594070906 0.17308651524061597
8.5859765625 -0.9959756876485912 0.17407697869169575
8.587125 -0.9959394259001266 0.17438961212581716
8.5882734375 -0.9962309865375785 0.17478311714013733
8.589421875 -0.9957128531086548 0.17585362492685497
8.5905703125 -0.9962176121954938 0.1767879205231679
8.59171875 -0.9957075130506627 0.1780564716965423
8.5928671875 -0.9953241701153237 0.17913558444780167
8.594015625 -0.9952571078153042 0.1793462076708538
8.5951640625 -0.9951088672113216 0.18113406912944963
8.5963125 -0.9948934161531933 0.1811927156518233
8.5974609375 -0.9951052567789263 0.18174417093272757
8.598609375 -0.9948632445242185 0.18280844197714372
8.5997578125 -0.9954091019217621 0.1842998999548922
8.60090625 -0.9943122099273425 0.1845955672874029
8.6020546875 -0.9934163506471541 0.18593203254254365
8.603203125 -0.9940290460750718 0.18744715849686863
8.6043515625 -0.9938781246560563 0.18821442289166784
8.6055 -0.992881318484174 0.1883721771911018
8.6066484375 -0.9936472167675093 0.18934302048103516
8.607796875 -0.9936456903574896 0.19117554212076837
8.6089453125 -0.9934450523213678 0.19162971929392325
8.61009375 -0.9929707581139575 0.1929316996902915
8.6112421875 -0.9929045861370759 0.19373918159623899
8.612390625 -0.993661922781873 0.19424390389880408
8.6135390625 -0.9933947118337666 0.1954695351117146
8.6146875 -0.9928995568175601 0.19680772220777487
8.6158359375 -0.9918907837352384 0.19680921443143862
8.616984375 -0.9923231532377093 0.19838334745393432
8.6181328125 -0.9915693486845836 0.19908256245263675
8.61928125 -0.9916243269388765 0.2004094485064613
8.6204296875 -0.9916371407086891 0.20070671977157228
8.621578125 -0.991524088226202 0.20283864523516706
8.6227265625 -0.9910234469598479 0.2038715057139755
8.623875 -0.991140421681689 0.20436674928190426
8.6250234375 -0.990587652673 0.20580856316290988
8.626171875 -0.9909336314703474 0.20592812140143477
8.6273203125 -0.9900899035382686 0.2068262859855925
8.62846875 -0.9889772743319936 0.2079722017263395
8.6296171875 -0.9895086776529072 0.2085324892469158
8.630765625 -0.9896389098371908 0.2094128125817944
8.6319140625 -0.9891469059108968 0.21111494225877062
8.6330625 -0.9891526545726431 0.21240387516931863
8.6342109375 -0.9885782906280401 0.21319080128005116
8.635359375 -0.9887004779038389 0.21338061062023908
8.6365078125 -0.9879694501609324 0.21497448103560446
8.63765625 -0.9877088689219246 0.21542666129211668
8.6388046875 -0.9870714250969881 0.2161875132481639
8.639953125 -0.9869242021931107 0.2170408456372706
8.6411015625 -0.9875320627490934 0.2180446652908728
8.64225 -0.9872236716151286 0.21845533355726354
8.6433984375 -0.9869069666905264 0.21961625094776427
8.644546875 -0.9864654306649647 0.2210937248787376
8.6456953125 -0.9861634041998251 0.22173601520523106
8.64684375 -0.9858517955727375 0.22230818643839143
8.6479921875 -0.9859430521800902 0.22344910083775876
8.649140625 -0.98606239379348 0.2243103012242069
8.6502890625 -0.9856626432377893 0.2245348863749175
8.6514375 -0.9849602109195887 0.22556864304012197
8.6525859375 -0.9847747101668223 0.22667463588212988
8.653734375 -0.9846094849642557 0.2274803911034488
8.6548828125 -0.9845304806118954 0.22816056197795392
8.65603125 -0.9836088834165794 0.22980230115044192
8.6571796875 -0.9834901984992693 0.2308047365793498
8.658328125 -0.983293089758412 0.23116171554111264
8.6594765625 -0.9834517421453493 0.23207535817843677
8.660625 -0.9833141566081519 0.23353581793976963
8.6617734375 -0.9820625779786037 0.2334815625536025
8.662921875 -0.9823272949909041 0.23473934088233955
8.6640703125 -0.9814740686966021 0.2359437980710135
8.66521875 -0.98145456650148 0.2370643866051583
8.6663671875 -0.9812431077037083 0.23773550768660925
8.667515625 -0.9819894454774707 0.23861083020140916
8.6686640625 -0.9812751722593459 0.23935110742547983
8.6698125 -0.9805548222888701 0.24011214578796103
8.6709609375 -0.980497814035543 0.2411807147606862
8.672109375 -0.98038305479794 0.2414827053380615
8.6732578125 -0.9800634817030012 0.2421632976090845
8.67440625 -0.9798850689557922 0.24320289835139078
8.6755546875 -0.9796579350481099 0.24414563392510066
8.676703125 -0.9795448324882184 0.24502839094825757
8.6778515625 -0.9783989955028064 0.2459178225716211
8.679 -0.9779455775360295 0.24731985574548682
8.6801484375 -0.9782879376955124 0.24765662997844315
8.681296875 -0.9780180858169787 0.248515326626722
8.6824453125 -0.9780306338894128 0.24929174272251337
8.68359375 -0.9775306108465769 0.2492445108022698
8.6847421875 -0.9769661914376233 0.25017716558126646
8.685890625 -0.977181132938017 0.2515660935657524
8.6870390625 -0.976972743526649 0.2525688484731088
8.6881875 -0.9761057886169622 0.2534602317513423
8.6893359375 -0.976511034095974 0.2541482562903124
8.690484375 -0.976798704562287 0.25495086360398633
8.6916328125 -0.9757473750835765 0.2558977998780425
8.69278125 -0.9756337570668956 0.2570916335605269
8.6939296875 -0.9752653504584061 0.25807230944497006
8.695078125 -0.9749040746762351 0.2580407100040655
8.6962265625 -0.9752132814190168 0.25899557577711524
8.697375 -0.9749167962271477 0.2605065830792156
8.6985234375 -0.9746735031195983 0.2612749803708109
8.699671875 -0.9740807879229036 0.26234071373966594
8.7008203125 -0.9745731099274391 0.2627143256632032
8.70196875 -0.974546918407228 0.2638075815083291
8.7031171875 -0.97360620998091 0.2646392780146344
8.704265625 -0.9734469487506381 0.26582750819650053
8.7054140625 -0.9730285769457971 0.2664684054271767
8.7065625 -0.9724039318003477 0.2676530292586783
8.7077109375 -0.9719662698330791 0.2689042459435577
8.708859375 -0.9718273506911292 0.26947820401586164
8.7100078125 -0.9718641050864298 0.26982906692410225
8.71115625 -0.9716466638279522 0.2711265197387834
8.7123046875 -0.9710949760192992 0.2714476412587395
8.713453125 -0.970953577740046 0.27258052663453003
8.7146015625 -0.970358198218852 0.27382010982665894
8.71575 -0.970152189875518 0.27478316572732236
8.7168984375 -0.9706743539347801 0.275414034933823
8.718046875 -0.9700238014500104 0.27602443803216203
8.7191953125 -0.969596779045574 0.2771919545213569
8.72034375 -0.9693605937585428 0.2782378833381604
8.7214921875 -0.9683300726187538 0.27855511311058395
8.722640625 -0.96824042137052 0.27941348651236964
8.7237890625 -0.9680793352667298 0.28124990017072926
8.7249375 -0.9670730544945175 0.28192583239166324
8.7260859375 -0.9681334196946677 0.2816505592929889
8.727234375 -0.9673876633289373 0.2829701851484064
8.7283828125 -0.9666702036897636 0.28356476366400407
8.72953125 -0.967117710193675 0.28559317189345135
8.7306796875 -0.9663700689710166 0.28567757257434817
8.731828125 -0.9662684866494663 0.2863225855478651
8.7329765625 -0.9661215026492758 0.2872325777779259
8.734125 -0.9664112437988112 0.28827594330046535
8.7352734375 -0.965210171878247 0.2889939974806893
8.736421875 -0.9643988156604497 0.290697135499353
8.7375703125 -0.9639678246367027 0.290783416944441
8.73871875 -0.9650681644064892 0.291606214760016
8.7398671875 -0.9638550456482303 0.29195679551014436
8.741015625 -0.9640323794993014 0.29377273113959745
8.7421640625 -0.9633593324538099 0.29357748819476004
8.7433125 -0.9629931667770716 0.2954635845979897
8.7444609375 -0.961993707422912 0.2966367395369659
8.745609375 -0.9622920809651433 0.29769595553745776
8.7467578125 -0.9616696859361433 0.2991754089497387
8.74790625 -0.9617159302463627 0.29946788124764434
8.7490546875 -0.9610383818457652 0.3004071167560483
8.750203125 -0.9609987472362946 0.30073205997440744
8.7513515625 -0.9608618450925765 0.3015637283933431
8.7525 -0.9602535639016803 0.30286270001204124
8.7536484375 -0.9606736918922973 0.30418744485960103
8.754796875 -0.9605960663456683 0.30518525903480037
8.7559453125 -0.9599902664989943 0.3054508819807303
8.75709375 -0.9599388100486728 0.3067178423786966
8.7582421875 -0.959751637251556 0.30646795968517204
8.759390625 -0.9594462428444894 0.3074691816747075
8.7605390625 -0.9589993667999299 0.30856655288611073
8.7616875 -0.9586936357730601 0.3091166617381365
8.7628359375 -0.9580948791040182 0.310208982326517
8.763984375 -0.9572543941774887 0.3105586119675714
8.7651328125 -0.9574232857201248 0.3122121102249753
8.76628125 -0.9568700225656283 0.3126597215644741
8.7674296875 -0.9563936179915977 0.31353752906897236
8.768578125 -0.9564321372085185 0.31462189894828274
8.7697265625 -0.9559936017694044 0.3148695879134504
8.770875 -0.9554269527778186 0.31603860522224897
8.7720234375 -0.9553739021202774 0.317389572457575
8.773171875 -0.9553550181158177 0.31771582969806805
8.7743203125 -0.9554459631522515 0.31895825890486035
8.77546875 -0.9553574937596228 0.3194398063678674
8.7766171875 -0.9550634693471646 0.3205538926264524
8.777765625 -0.9542177288154833 0.3216058136801252
8.7789140625 -0.9533503924123025 0.3225291484784578
8.7800625 -0.9535090473131353 0.3234591726089808
8.7812109375 -0.9532622803954389 0.3240339887956657
8.782359375 -0.9528730380863599 0.32438356733189255
8.7835078125 -0.9528756579476629 0.3258342060383913
8.78465625 -0.9525023846279033 0.32638813604371575
8.7858046875 -0.9524798219773117 0.3274056381665237
8.786953125 -0.9525303129895458 0.328129904985262
8.7881015625 -0.9524181679393879 0.3292045365969063
8.78925 -0.9524612051971697 0.3301700610900885
8.7903984375 -0.9513128802411055 0.3314298880752834
8.791546875 -0.9508600106072892 0.3321530001514786
8.7926953125 -0.951012715041966 0.33359799214156327
8.79384375 -0.9502914776691189 0.3336057936938598
8.7949921875 -0.9497225190488455 0.33466712211361627
8.796140625 -0.9498462967850838 0.335660065648838
8.7972890625 -0.9488075994981875 0.3356712042414941
8.7984375 -0.9491183652662631 0.3375381741503367
8.7995859375 -0.9480604847608991 0.3380374639551072
8.800734375 -0.9485360090041648 0.3385298312226892
8.8018828125 -0.9476048879984273 0.3397071647484633
8.80303125 -0.9479089747927921 0.34150599804015414
8.8041796875 -0.9479977471265979 0.34209179799586487
8.805328125 -0.9471706035462348 0.34284835866993285
8.8064765625 -0.9470726510270737 0.34445537239013996
8.807625 -0.9464994160280629 0.34490910928377627
8.8087734375 -0.9461697562464676 0.3463838078573753
8.809921875 -0.9463049052053218 0.3473383995966721
8.8110703125 -0.9458463957456648 0.3489547305315265
8.81221875 -0.9455203622525821 0.3502446347348197
8.8133671875 -0.9439589375768571 0.35103225694341494
8.814515625 -0.943895693955727 0.35198927030962607
8.8156640625 -0.942927805236196 0.3530202978732908
8.8168125 -0.9429793583742813 0.3540542718263169
8.8179609375 -0.9434528546163712 0.3541016341643888
8.819109375 -0.9422020233967752 0.3550436777807752
8.8202578125 -0.9415781766387339 0.3562009791472044
8.82140625 -0.9413955955668636 0.3566482152777076
8.8225546875 -0.9408956573841527 0.35771528962806265
8.823703125 -0.9403278427596453 0.35804059738294547
8.8248515625 -0.9398428807413854 0.3599347828450512
8.826 -0.938823344461015 0.3603551429814195
8.8271484375 -0.9383770939179645 0.3607398311945417
8.828296875 -0.9376756551472412 0.3612226648654466
8.8294453125 -0.9373402742886925 0.3625858200219252
8.83059375 -0.9371105700455267 0.36341434593434485
8.8317421875 -0.9364309049991906 0.36456900783305035
8.832890625 -0.9361482698390979 0.3646361187196846
8.8340390625 -0.9355914264171938 0.3649085204775626
8.8351875 -0.9352812321080353 0.36590599153626574
8.8363359375 -0.9356634338576363 0.36717126162322083
8.837484375 -0.9345922543495023 0.3676890380615723
8.8386328125 -0.935021546000901 0.3693441997027511
8.83978125 -0.9342254859889474 0.3701265783578577
8.8409296875 -0.9337339219447858 0.371355691636718
8.842078125 -0.933357917927213 0.3714998881465761
8.8432265625 -0.9322909687726163 0.37319999477465066
8.844375 -0.932243795470433 0.3745953685262418
8.8455234375 -0.9315987732209099 0.37506041751253316
8.846671875 -0.9313721074792204 0.3752801743000997
8.8478203125 -0.9310588039227125 0.37683494933608863
8.84896875 -0.9293966911676881 0.377228635425013
8.8501171875 -0.9297726401900289 0.3784904936338406
8.851265625 -0.9290168976260966 0.3801770723820878
8.8524140625 -0.92908863023518 0.38129881027589607
8.8535625 -0.9278942698686201 0.38172270378119283
8.8547109375 -0.9268069859154244 0.38251215027750446
8.855859375 -0.9271837939158755 0.38348307812426324
8.8570078125 -0.9256947737315199 0.38428917180878347
8.85815625 -0.9262632877993099 0.3846420754345873
8.8593046875 -0.9268004838507566 0.3862910054937289
8.860453125 -0.925506990763707 0.3872107636335532
8.8616015625 -0.9249393362401999 0.38798605589880364
8.86275 -0.924784081278034 0.3878264769169848
8.8638984375 -0.9234687010634277 0.3885752463255998
8.865046875 -0.9229705578569991 0.38940585270185735
8.8661953125 -0.9220537765195822 0.392144603119534
8.86734375 -0.9214244894711581 0.39145509996468375
8.8684921875 -0.9216227749122764 0.3933939080965123
8.869640625 -0.9211441762135335 0.3939144264241458
8.8707890625 -0.9210342029644659 0.3950679965528826
8.8719375 -0.9200081379040633 0.39532555161470917
8.8730859375 -0.9178846519442995 0.3947980875874777
8.874234375 -0.9189936608416829 0.39588721763877416
8.8753828125 -0.917790719913052 0.39579439097516833
8.87653125 -0.9171182026272409 0.3969911565898908
8.8776796875 -0.9158410161271162 0.397721552219306
8.878828125 -0.9152183224700516 0.3983310486625649
8.8799765625 -0.9150985126537474 0.39857604561519966
8.881125 -0.9148970894468419 0.3983206225197614
8.8822734375 -0.9141598290508379 0.39894735730564057
8.883421875 -0.9145536624233728 0.4005191812453078
8.8845703125 -0.9145342410162531 0.4006127373611351
8.88571875 -0.9146586509790313 0.40153397896690124
8.8868671875 -0.9135853513187315 0.4018846019989451
8.888015625 -0.9133793031253659 0.40165793339348693
8.8891640625 -0.912047169168742 0.40248983745489
8.8903125 -0.9125912823290405 0.4025451688587337
8.8914609375 -0.9111056442975594 0.4031821152024908
8.892609375 -0.9117904346583554 0.4047257309247326
8.8937578125 -0.9122464463374478 0.40488596762412815
8.89490625 -0.9119286415613685 0.4045369033888906
8.8960546875 -0.911921883549246 0.4053263854056484
8.897203125 -0.9116330769913444 0.4071278470741059
8.8983515625 -0.912251988865058 0.40795792736564307
8.8995 -0.9097188409408467 0.4089058927277326
8.9006484375 -0.9102717158469631 0.4099476454885993
8.901796875 -0.9085760790612789 0.4104564452335748
8.9029453125 -0.9080315073943088 0.4104312537541352
8.90409375 -0.9094217635860602 0.4110522912258554
8.9052421875 -0.9097528788493936 0.41141448135711556
8.906390625 -0.9092315248973066 0.41053955231933903
8.9075390625 -0.9096457461264118 0.4122907851063917
8.9086875 -0.9091083509067066 0.413901094513056
8.9098359375 -0.9103607008183808 0.4133533517250215
8.910984375 -0.9102527705332006 0.4139277954421787
8.9121328125 -0.9094518373883307 0.4151357102641753
8.91328125 -0.9088820155339115 0.41595708224063727
8.9144296875 -0.9089892417229833 0.4179390135104112
8.915578125 -0.9083022223842065 0.41841163157513184
8.9167265625 -0.9090103583620386 0.41853720765557556
8.917875 -0.9097981576948011 0.4198049384982537
8.9190234375 -0.910046356466712 0.42141351141222716
8.920171875 -0.9081626228496147 0.42246809460589463
8.9213203125 -0.9088668091765153 0.4237161511879519
8.92246875 -0.9097978638312639 0.42388429857107074
8.9236171875 -0.9092928325666731 0.4258235290984021
8.924765625 -0.9070688956386108 0.42528542980389583
8.9259140625 -0.9070002725271054 0.4275239682109797
8.9270625 -0.9065721648416731 0.42804658070564233
8.9282109375 -0.9069101402066795 0.4293404114140048
8.929359375 -0.9055088383337593 0.4296023587829522
8.9305078125 -0.9053538319876473 0.4310887907854005
8.93165625 -0.9055914726248613 0.4320030656963568
8.9328046875 -0.9046813120020084 0.4327652007833141
8.933953125 -0.9050623158597377 0.4325259079227586
8.9351015625 -0.9061402481683816 0.43322089048097245
8.93625 -0.9049631918169807 0.43423008067529895
8.9373984375 -0.9035253037235127 0.43557805726235765
8.938546875 -0.9029840237147809 0.43736855932861485
8.9396953125 -0.9032384104901159 0.43760497437832047
8.94084375 -0.9029921850367778 0.43937700234672994
8.9419921875 -0.9026687935198021 0.44014186096511043
8.943140625 -0.9026052041430053 0.4413487243056571
8.9442890625 -0.9019952125367602 0.4422821628213066
8.9454375 -0.9019920003256705 0.44422046045869656
8.9465859375 -0.9012413181421164 0.4435478837083343
8.947734375 -0.9009814387365708 0.44474562653246585
8.9488828125 -0.9006191866033281 0.44698150125842945
8.95003125 -0.8995309665515692 0.44768793308811866
8.9511796875 -0.8991794024536747 0.4487572332110127
8.952328125 -0.898161235782418 0.449155748077819
8.9534765625 -0.8976003427811226 0.45112082408626164
8.954625 -0.8970031129087235 0.45217245548419843
8.9557734375 -0.8963574814515944 0.45282744382688384
8.956921875 -0.8963394797908701 0.4548360462939432
8.9580703125 -0.8958931862734864 0.45491731365359256
8.95921875 -0.894753869399814 0.4567891227971965
8.9603671875 -0.8951538909584519 0.45776442557494046
8.961515625 -0.892822911750532 0.4580975604678571
8.9626640625 -0.8915391662133622 0.45958580134938376
8.9638125 -0.8910669015810639 0.4600532817172507
8.9649609375 -0.891019729067118 0.4614472638441183
8.966109375 -0.8906023602674011 0.46245897222566074
8.9672578125 -0.8899977289212753 0.4621264473271761
8.96840625 -0.8889616350495305 0.46225396652966855
8.9695546875 -0.8887420201118461 0.46286566744715985
8.970703125 -0.8891261165520303 0.46264295751186985
8.9718515625 -0.8879959858868833 0.4643843541571918
8.973 -0.8873202668448517 0.46686687607518385
8.9741484375 -0.8863001573007535 0.46810199746205156
8.975296875 -0.8864810495687658 0.46812982048436247
8.9764453125 -0.8856595307900675 0.46926736775583444
8.97759375 -0.8858303893800614 0.4691075631785617
8.9787421875 -0.8858318622618189 0.4698794525373714
8.979890625 -0.8832770223666373 0.4718633732893994
8.9810390625 -0.8830121863807515 0.47318628598076823
8.9821875 -0.8830127621371564 0.47471121936610217
8.9833359375 -0.8837548418814298 0.4747742191572822
8.984484375 -0.8840149225332982 0.47512941563767475
8.9856328125 -0.883352900484971 0.47639098009638886
8.98678125 -0.8827237197967835 0.4760495819644889
8.9879296875 -0.8825465261838553 0.4775943205973946
8.989078125 -0.8800147114950774 0.47874786458900737
8.9902265625 -0.8792516186653547 0.4801533121104772
8.991375 -0.8806929266701891 0.4798483468187317
8.9925234375 -0.8798107659550064 0.48175713070611026
8.993671875 -0.8791080403560186 0.48158597458559976
8.9948203125 -0.8796376352247055 0.4832351303850946
8.99596875 -0.879155336652206 0.48578937817540857
8.9971171875 -0.8757011250262212 0.4861751920102898
8.998265625 -0.8753698368394303 0.48612014281222443
8.9994140625 -0.8744404345334624 0.48619550168013326
9.0005625 -0.8751815771167727 0.486831245667389
9.0017109375 -0.8736055217313125 0.4876608438486937
9.002859375 -0.873364005097726 0.48863739557568553
9.0040078125 -0.8740037518641401 0.4877986888544602
9.00515625 -0.8740183111066667 0.4882574702229892
9.0063046875 -0.8740673643535996 0.49122690152270326
9.007453125 -0.8736354928212526 0.49214160509290994
9.0086015625 -0.8737971780900756 0.4917349113480705
9.00975 -0.8705220944323081 0.49510013662524277
9.0108984375 -0.8717255499398189 0.49597834454569323
9.012046875 -0.8712906874091425 0.4954789614560535
9.0131953125 -0.8707161549175754 0.4967130928105899
9.01434375 -0.8689552247043923 0.49880232240718725
9.0154921875 -0.8690018159391133 0.5004633182521179
9.016640625 -0.8685880841536995 0.5005419047792923
9.0177890625 -0.8668044880934409 0.5007225704764908
9.0189375 -0.8652829468545585 0.5029710494196193
9.0200859375 -0.8632817767567385 0.5021367220302748
9.021234375 -0.864975991422045 0.5016696771471316
9.0223828125 -0.8611997415417886 0.5046721090024111
9.02353125 -0.8593466985030053 0.5038090070435952
9.0246796875 -0.8595764966766177 0.503568443168484
9.025828125 -0.8604248233742197 0.5049612277793756
9.0269765625 -0.859950694154427 0.5047521467668264
9.028125 -0.8601587544763856 0.5055374932521279
9.0292734375 -0.8593404004442993 0.5070090066834622
9.030421875 -0.8581372189820523 0.5062082618701084
9.0315703125 -0.8572611512325847 0.5070428602809985
9.03271875 -0.8571466548397473 0.5075429197830168
9.0338671875 -0.8538840360145968 0.5087448046448484
9.035015625 -0.8521205097652396 0.5096053318213447
9.0361640625 -0.8521300275123814 0.507969186189919
9.0373125 -0.8527233028621152 0.5077618895830558
9.0384609375 -0.8519576641380934 0.5089712806023041
9.039609375 -0.8516890301578209 0.5079470669504216
9.0407578125 -0.8526615689070681 0.5080011102761921
9.04190625 -0.8523079883973205 0.5069163199971921
9.0430546875 -0.8523096388006182 0.5075669606669055
9.044203125 -0.8536476068971862 0.5067628918913684
9.0453515625 -0.8523917413734707 0.5092140587330924
9.0465 -0.853308382232991 0.5088969376132548
9.0476484375 -0.852721071473648 0.509208573619406
9.048796875 -0.8521152325584609 0.5108704703998287
9.0499453125 -0.851886776108296 0.5103355200592588
9.05109375 -0.8531543803516133 0.5115288374190381
9.0522421875 -0.8533282775141587 0.513295100530512
9.053390625 -0.853295717003553 0.5136655143614084
9.0545390625 -0.8524217648078082 0.5140719339084572
9.0556875 -0.852140646471789 0.5157059467218491
9.0568359375 -0.851993675120912 0.5165530032329495
9.057984375 -0.8508998440370391 0.5167024200374406
9.0591328125 -0.8524485805291573 0.5184044857095067
9.06028125 -0.8520915031379515 0.5185887445559678
9.0614296875 -0.8495476237051167 0.5195425678801776
9.062578125 -0.8512368425447076 0.5224926326942005
9.0637265625 -0.8477994303659834 0.520913051064902
9.064875 -0.8504264421234997 0.5222030714876182
9.0660234375 -0.8486590205443585 0.5243973116295048
9.067171875 -0.8503886527482796 0.525001052567476
9.0683203125 -0.8492237154868109 0.5250822870092982
9.06946875 -0.8463578322904737 0.5245549757313972
9.0706171875 -0.8465959184209803 0.5276938883858592
9.071765625 -0.8452919742181862 0.527623006051245
9.0729140625 -0.8459636150645264 0.5254722718147904
9.0740625 -0.8450013712431743 0.5280237352633076
9.0752109375 -0.8446979556499292 0.5290644170295723
9.076359375 -0.844523716735211 0.5289434302068938
9.0775078125 -0.8426150660050827 0.5280444730585343
9.07865625 -0.8442582008142556 0.5298726732402592
9.0798046875 -0.8449317153941991 0.5311306331849146
9.080953125 -0.8437361745120283 0.5333931461203589
9.0821015625 -0.8445880731690946 0.5317465150831486
9.08325 -0.8441966078920409 0.532485758194492
9.0843984375 -0.8442542248039787 0.53371578088251
9.085546875 -0.8419834026216646 0.5335301112087525
9.0866953125 -0.8421385939569703 0.5355247096068675
9.08784375 -0.8399130988735614 0.5386746563580196
9.0889921875 -0.8415828570011588 0.5384828519958378
9.090140625 -0.8384505299087744 0.5404736731410014
9.0912890625 -0.837642027170741 0.5400652035896619
9.0924375 -0.8385200963230433 0.5398953263757307
9.0935859375 -0.8384913721189187 0.5433083468063229
9.094734375 -0.836390626985876 0.54225305471799
9.0958828125 -0.8385489721513045 0.54235148495653
9.09703125 -0.8382334395590603 0.5446835808553459
9.0981796875 -0.8373694808222082 0.5450280418739843
9.099328125 -0.8345121879887063 0.5455741092308499
9.1004765625 -0.8372416821344111 0.5452599603524643
9.101625 -0.8344386507248827 0.5448016176392364
9.1027734375 -0.8342920277038376 0.546135343270938
9.103921875 -0.8352477658546296 0.5476478407880887
9.1050703125 -0.832397327138242 0.5485471987090741
9.10621875 -0.8321136242721855 0.550022813758605
9.1073671875 -0.8319526826038943 0.5507790486343542
9.108515625 -0.8307691583127755 0.5499457461442907
9.1096640625 -0.8302649178529113 0.5517896658845067
9.1108125 -0.8301813476216777 0.5531606350099849
9.1119609375 -0.8298083012539832 0.5535721138006924
9.113109375 -0.8286730840831532 0.5557717182091878
9.1142578125 -0.8268961498235401 0.555831576114401
9.11540625 -0.8273156598336722 0.5564474308749591
9.1165546875 -0.827232690802902 0.559761976211195
9.117703125 -0.8259321119570553 0.5590405189428519
9.1188515625 -0.8272018156538544 0.5589516571544314
9.12 -0.8275076444779357 0.5620976500463252
9.1211484375 -0.826991811658015 0.5618239615019849
9.122296875 -0.8260443649289044 0.5623060018810073
9.1234453125 -0.8254800602893506 0.5638511143199346
9.12459375 -0.8247967271852936 0.5643602725044393
9.1257421875 -0.8233760768535434 0.564823879230597
9.126890625 -0.8229113745534495 0.5678349792198292
9.1280390625 -0.8222913156081619 0.5656710472972839
9.1291875 -0.8200497494555936 0.5693930944972988
9.1303359375 -0.8210520834845663 0.5711663421867117
9.131484375 -0.8207569501858093 0.5702525565401562
9.1326328125 -0.8172839009895293 0.569576519457203
9.13378125 -0.8181039255920014 0.5695850467772239
9.1349296875 -0.8190427884387118 0.5719546360161036
9.136078125 -0.8193558015501907 0.5707956289677947
9.1372265625 -0.8194140675662761 0.5738329655163654
9.138375 -0.8188248267737055 0.575270378782571
9.1395234375 -0.8189817751145062 0.5752067912426108
9.140671875 -0.8168011291771146 0.5738133898948258
9.1418203125 -0.8175280567594714 0.5742394948498382
9.14296875 -0.8169256202192112 0.5771079345387252
9.1441171875 -0.8164609972284544 0.5769098053544507
9.145265625 -0.8150197590903482 0.5768703430786769
9.1464140625 -0.8149377696003353 0.579569634514369
9.1475625 -0.8140966530987779 0.5817107348478872
9.1487109375 -0.8145480711856594 0.5789287325557051
9.149859375 -0.8138782497005077 0.5830834637448408
9.1510078125 -0.8142404712114681 0.581285049136564
9.15215625 -0.8122930582293235 0.5824602075266618
9.1533046875 -0.8129704648092281 0.5850062279466229
9.154453125 -0.8140506392308944 0.5857650289628142
9.1556015625 -0.8118106526378279 0.5852537195421301
9.15675 -0.8093027979411717 0.5839129667604572
9.1578984375 -0.8102498553773779 0.5841261966529405
9.159046875 -0.8093004548991694 0.5854236707625498
9.1601953125 -0.8090681818399197 0.5859451709973467
9.16134375 -0.8081336259951654 0.5868618921678546
9.1624921875 -0.8072387661101282 0.5877148746955374
9.163640625 -0.808153456963206 0.588440290571259
9.1647890625 -0.8073352362880073 0.5908341382615381
9.1659375 -0.8054785966620079 0.5914032285722305
9.1670859375 -0.8058007625212389 0.5906691142828141
9.168234375 -0.8058660190210953 0.5901726199614732
9.1693828125 -0.8059252286224905 0.5907195463861454
9.17053125 -0.8044424150205705 0.5923189041071639
9.1716796875 -0.8043264457151522 0.5912490627747548
9.172828125 -0.8030783363526286 0.5932163899074523
9.1739765625 -0.802178954524153 0.5932702862959593
9.175125 -0.8022120158267396 0.5940536683267593
9.1762734375 -0.8014497081782552 0.5956728475091333
9.177421875 -0.8011014122681498 0.5975886437696927
9.1785703125 -0.8007711211251511 0.5964367596559034
9.17971875 -0.7995792904858632 0.5962252067859262
9.1808671875 -0.800614462788729 0.5985332405952081
9.182015625 -0.7993393666913479 0.5986795811597584
9.1831640625 -0.7990528041959861 0.5978449574654744
9.1843125 -0.7976954633702991 0.5977998879924856
9.1854609375 -0.797687942053527 0.5982111881715372
9.186609375 -0.7974220437706657 0.5987892857892599
9.1877578125 -0.7967577604511229 0.5999088771371452
9.18890625 -0.7962674595794597 0.6031482015776192
9.1900546875 -0.7973297371472092 0.6010186923230547
9.191203125 -0.7957245628181961 0.6026021916487194
9.1923515625 -0.7947113077024738 0.6036654480615262
9.1935 -0.794317035250204 0.6022825406277094
9.1946484375 -0.7926907940155017 0.6043490309110054
9.195796875 -0.7929623849505609 0.6053072636907003
9.1969453125 -0.7932118053440833 0.6054181436547446
9.19809375 -0.7937313449833397 0.6065145517943329
9.1992421875 -0.7911991878705614 0.6073886404209892
9.200390625 -0.790491421572006 0.610113934441101
9.2015390625 -0.7901831351456164 0.6083206575666015
9.2026875 -0.7890903197729626 0.608528428717996
9.2038359375 -0.7884074126623766 0.6094458047855531
9.204984375 -0.7881196909562159 0.610139950765295
9.2061328125 -0.7893647245053176 0.613166124636332
9.20728125 -0.7873620639907268 0.6143633715233242
9.2084296875 -0.7879544396740817 0.6125472982521109
9.209578125 -0.7858821685429843 0.612157932730003
9.2107265625 -0.786021858418784 0.6133432540606368
9.211875 -0.7841064693979918 0.6154960230758288
9.2130234375 -0.7844094465396783 0.6180848462540546
9.214171875 -0.7855831064882857 0.6178461881126351
9.2153203125 -0.7839800841217045 0.6169546660466544
9.21646875 -0.78312041227308 0.6185093528805053
9.2176171875 -0.784696531630988 0.6195794511346837
9.218765625 -0.7831871383452783 0.6207907034300121
9.2199140625 -0.7826370143910377 0.6209963099128808
9.2210625 -0.7833122756624259 0.6213606308422277
9.2222109375 -0.7810339838163995 0.6217919290914364
9.223359375 -0.7805248474801361 0.6253573487976584
9.2245078125 -0.779252040657442 0.6252217373849944
9.22565625 -0.7794279603158248 0.6263040321829959
9.2268046875 -0.7788654165161633 0.6259192337189605
9.227953125 -0.7786034012048929 0.6284077816038425
9.2291015625 -0.7783586153331259 0.6298185285802187
9.23025 -0.7775803464776126 0.629578632177501
9.2313984375 -0.7780027129070483 0.6293976249618083
9.232546875 -0.7786421014734582 0.6305186101323781
9.2336953125 -0.7792331295762424 0.6316762722572985
9.23484375 -0.7784298172282346 0.6322527490776568
9.2359921875 -0.7781757005625091 0.6351009794810325
9.237140625 -0.7781420915284119 0.6354999751257928
9.2382890625 -0.7778299045465937 0.6372212286239727
9.2394375 -0.7773766292177047 0.6370431648391826
9.2405859375 -0.7756679447759587 0.6380436595742246
9.241734375 -0.7736819898701768 0.6388362227069873
9.2428828125 -0.7741224216383458 0.6400386392187799
9.24403125 -0.7736605681942923 0.6408355518277643
9.2451796875 -0.7728831322921453 0.6411448521362809
9.246328125 -0.771771865486453 0.6442280541807184
9.2474765625 -0.769923830262802 0.6436952960329612
9.248625 -0.7703828531809541 0.6446478511654501
9.2497734375 -0.7683405847928666 0.6448470826014191
9.250921875 -0.7680356633993921 0.645218856381624
9.2520703125 -0.7657996398724907 0.6450775025909109
9.25321875 -0.7662420173779227 0.6456488156040514
9.2543671875 -0.7641159845722486 0.6469783225362394
9.255515625 -0.764241836625175 0.6463991078178839
9.2566640625 -0.7634256314448377 0.6486205019020284
9.2578125 -0.7627197555260765 0.6498084944315897
9.2589609375 -0.7630342205980026 0.6493264660698173
9.260109375 -0.7620429675707675 0.650609493036205
9.2612578125 -0.7608586829329507 0.649996555870656
9.26240625 -0.7602693111445022 0.6507765111700098
9.2635546875 -0.7603318524498174 0.6505047945511697
9.264703125 -0.758629020040825 0.6513266959924294
9.2658515625 -0.7596437630528876 0.6533798621099449
9.267 -0.7579627246422368 0.6544904168578101
9.2681484375 -0.7578559236781959 0.6540189619409449
9.269296875 -0.756465705855353 0.6539031694070601
9.2704453125 -0.7565058880826041 0.6539948514249921
9.27159375 -0.7565585827310846 0.6539664657873508
9.2727421875 -0.75586116871727 0.6558929655309818
9.273890625 -0.7563909434726811 0.655262621168289
9.2750390625 -0.754599473370245 0.6607442897327916
9.2761875 -0.7551747049874493 0.6587618754530788
9.2773359375 -0.7537923982207682 0.6595087699789633
9.278484375 -0.7544837068003392 0.6640306536551301
9.2796328125 -0.7530255867289823 0.6601929905136596
9.28078125 -0.753724614416681 0.6613214087468002
9.2819296875 -0.7510677494358942 0.6629323962179525
9.283078125 -0.7506235931713152 0.6632362511824481
9.2842265625 -0.7508336921800314 0.6620664954995735
9.285375 -0.750674775580255 0.6655334849612831
9.2865234375 -0.7502571370918554 0.6652193730114115
9.287671875 -0.7452840226306352 0.6662163244960322
9.2888203125 -0.7464653490614522 0.6673421895763081
9.28996875 -0.7458547835904983 0.6670000981678029
9.2911171875 -0.7455099019939612 0.6672783064579894
9.292265625 -0.7446199182699681 0.6689178821701391
9.2934140625 -0.7455522110757371 0.6699368381051232
9.2945625 -0.7458571064791442 0.6711233192870064
9.2957109375 -0.74474037729452 0.6711751419899833
9.296859375 -0.7440488682757709 0.6727360702484526
9.2980078125 -0.7422848423629675 0.6707686494544866
9.29915625 -0.7420405160261256 0.6732627745075045
9.3003046875 -0.7416262056547758 0.6731927659328133
9.301453125 -0.7389693946374718 0.6741886384452855
9.3026015625 -0.7392054157084418 0.6774836339259027
9.30375 -0.739528831991612 0.6772249755939919
9.3048984375 -0.7389347497392733 0.6768038006321045
9.306046875 -0.7371162270533776 0.6799760148801193
9.3071953125 -0.7381060879148529 0.6809979402731738
9.30834375 -0.735632532275849 0.6815570265178305
9.3094921875 -0.7351958304829289 0.680832482587417
9.310640625 -0.7354210328353673 0.6820667044411817
9.3117890625 -0.7331677539829855 0.6820947626345414
9.3129375 -0.7320133705669306 0.682153405348643
9.3140859375 -0.732354057730283 0.6819414392894124
9.315234375 -0.7318492609261784 0.6824604188505959
9.3163828125 -0.7308570349220781 0.681933745979545
9.31753125 -0.7305964244205303 0.6827503241086686
9.3186796875 -0.7301906333439658 0.6845896031111443
9.319828125 -0.730445295864186 0.6859017187124163
9.3209765625 -0.7284811376696289 0.6861359391193139
9.322125 -0.7291924913801309 0.6873983860005072
9.3232734375 -0.7299917204441457 0.6863667780336858
9.324421875 -0.7297047539544317 0.687055025943393
9.3255703125 -0.7278061814446496 0.6869264427598634
9.32671875 -0.7256077600733688 0.6886734060534013
9.3278671875 -0.7247264890561524 0.6877699477479332
9.329015625 -0.7239046807226861 0.6896577549405634
9.3301640625 -0.7260736103049769 0.6893173985693651
9.3313125 -0.7237639752831778 0.6919982843929791
9.3324609375 -0.7224764589438731 0.6923004003885017
9.333609375 -0.7220474157316372 0.6941353223726338
9.3347578125 -0.7227336502597339 0.6947989186511774
9.33590625 -0.7203074045848107 0.6934628908855592
9.3370546875 -0.7173049810181089 0.6941022299008158
9.338203125 -0.7175967925792252 0.6933746994794237
9.3393515625 -0.7152604426825095 0.6952334631489879
9.3405 -0.7160528254036431 0.6940824090639717
9.3416484375 -0.7171443528091492 0.6955612932105018
9.342796875 -0.715480161104993 0.6954017510260517
9.3439453125 -0.715005284447672 0.6960006319303546
9.34509375 -0.7142168452281165 0.6948571142457665
9.3462421875 -0.7144102388261189 0.6944909865157043
9.347390625 -0.7126791306140601 0.6954076478573883
9.3485390625 -0.7125374780619528 0.69936134190133
9.3496875 -0.7111812333968374 0.6999148435540872
9.3508359375 -0.7087855865305649 0.6992820038071955
9.351984375 -0.7086103549293653 0.7013027039087167
9.3531328125 -0.7089872983215886 0.7005352291903839
9.35428125 -0.7077751533861717 0.7004978823580137
9.3554296875 -0.7070494354509294 0.7030271093228015
9.356578125 -0.7062375029947769 0.701536926475186
9.3577265625 -0.7049690816732987 0.7051233337950573
9.358875 -0.703796520388911 0.7020319398889026
9.3600234375 -0.7038850122316183 0.7028985315606254
9.361171875 -0.701380434060019 0.7033694532828966
9.3623203125 -0.7016962971258214 0.7019438934023836
9.36346875 -0.7004834772750427 0.7032432830224524
9.3646171875 -0.6995522884885041 0.7061874293810739
9.365765625 -0.6985473127277282 0.7050162334490068
9.3669140625 -0.6967717946701589 0.7080478712141378
9.3680625 -0.6967634520777408 0.7069943996684699
9.3692109375 -0.6964079991122956 0.7066703909736723
9.370359375 -0.6943470427967345 0.7084164706362097
9.3715078125 -0.6944267944913654 0.7078772200737904
9.37265625 -0.6933075892085305 0.7082244057372784
9.3738046875 -0.6930050723232045 0.7095105304552658
9.374953125 -0.694345047290288 0.7101716188401854
9.3761015625 -0.6934891140758345 0.7099814278299468
9.37725 -0.6928494481723032 0.7101759127480809
9.3783984375 -0.690908866584019 0.7135962038731309
9.379546875 -0.6921032305730382 0.7141921881776173
9.3806953125 -0.6919515485291536 0.714248294641701
9.38184375 -0.6910940155004537 0.7152354561940728
9.3829921875 -0.6903160973403374 0.7153464567391089
9.384140625 -0.6900911168434999 0.7165334320197028
9.3852890625 -0.6896962067130296 0.7170902070188221
9.3864375 -0.6882277535029354 0.7165831525394794
9.3875859375 -0.6887618929228628 0.7170077635082053
9.388734375 -0.6893134296936286 0.7185054828679696
9.3898828125 -0.6890378701063817 0.7192564649857776
9.39103125 -0.6877348937810728 0.7195353988528617
9.3921796875 -0.6885815973693123 0.7193200972167618
9.393328125 -0.685551708999477 0.7210262025160896
9.3944765625 -0.6863230218757133 0.7218572915297866
9.395625 -0.6866495473159888 0.7212394340043273
9.3967734375 -0.6836605259856672 0.7227411015368452
9.397921875 -0.6830225396357134 0.7236230320417462
9.3990703125 -0.6825027335124049 0.7233719286830717
9.40021875 -0.6819043922772031 0.7224256950108672
9.4013671875 -0.6808958069366094 0.7231534072498327
9.402515625 -0.6799925700097753 0.7233923374444596
9.4036640625 -0.6804533331154148 0.7230077212631772
9.4048125 -0.6811872493116136 0.7249127291746177
9.4059609375 -0.6797052773810461 0.7243094642105304
9.407109375 -0.6807141990732359 0.7260914285227568
9.4082578125 -0.6783211940845809 0.7270787904423576
9.40940625 -0.6786336800436373 0.727009359296931
9.4105546875 -0.6780835184795135 0.7270045352360364
9.411703125 -0.67842952127238 0.728199191315001
9.4128515625 -0.6769498952172838 0.7282909206846514
9.414 -0.6763150190608004 0.7300586726258448
9.4151484375 -0.676781174473424 0.7295799135792217
9.416296875 -0.6753484109054235 0.7289777925244837
9.4174453125 -0.6739519655486901 0.7294965751970774
9.41859375 -0.6740069108534759 0.7306272058473018
9.4197421875 -0.6727459895506867 0.7299316410485684
9.420890625 -0.6717145801221258 0.7299209991358557
9.4220390625 -0.6720435470291247 0.7288960064845167
9.4231875 -0.671771716208384 0.7290937735613654
9.4243359375 -0.6718569574537339 0.7303191145542485
9.425484375 -0.6724622688550962 0.7306023109816625
9.4266328125 -0.6719764462166954 0.7298689666799617
9.42778125 -0.6720497708870822 0.7313589333087547
9.4289296875 -0.6726640406887652 0.7305736793616687
9.430078125 -0.6728344541282067 0.7316659217609425
9.4312265625 -0.6734821686648282 0.7319529008479493
9.432375 -0.6719989498449229 0.7323496053681482
9.4335234375 -0.6720755988861936 0.7336666303313758
9.434671875 -0.6704090083473437 0.734715970877178
9.4358203125 -0.6710451020687279 0.7353225555410141
9.43696875 -0.6703450902846055 0.7358989313877049
9.4381171875 -0.6690983307916305 0.7373973527673899
9.439265625 -0.6689282746437613 0.7374668182010535
9.4404140625 -0.6690061925773092 0.7379230988819676
9.4415625 -0.669098494820249 0.7388406653362654
9.4427109375 -0.6687970255673049 0.7397310696588318
9.443859375 -0.6678079433758133 0.7403609040643095
9.4450078125 -0.6668499241611762 0.7413362116242005
9.44615625 -0.6659940833219202 0.7416786006206979
9.4473046875 -0.6662687734052867 0.7419606846267717
9.448453125 -0.665767178605902 0.7438269286847509
9.4496015625 -0.665277938202124 0.7446281650809131
9.45075 -0.665447058163049 0.7444335697975845
9.4518984375 -0.6645222284459791 0.7462950881791409
9.453046875 -0.6631470800144388 0.7483934616648862
9.4541953125 -0.6632312134045177 0.7483393341351863
9.45534375 -0.6630154519863666 0.7502129694538401
9.4564921875 -0.661351999794419 0.7516247199229384
9.457640625 -0.659876448323027 0.753584611375826
9.4587890625 -0.6595368172549445 0.7533142564722478
9.4599375 -0.6583702567712731 0.7549286653823507
9.4610859375 -0.6576154138723774 0.7557273853154788
9.462234375 -0.6564836557051453 0.7567602367519923
9.4633828125 -0.6555246007264472 0.7567329110565759
9.46453125 -0.6549987630223983 0.7570449031962159
9.4656796875 -0.6537658521986605 0.7602037960739171
9.466828125 -0.6531266077732848 0.7610873814438843
9.4679765625 -0.6518372715653205 0.7611456927743578
9.469125 -0.6513687515254953 0.7614506254583975
9.4702734375 -0.6504654524188037 0.7634189784962325
9.471421875 -0.6489226505527473 0.7630508741055986
9.4725703125 -0.6493997320250064 0.7635229504532353
9.47371875 -0.6481655563179496 0.7639632337478717
9.4748671875 -0.6474834914277091 0.7635954581730854
9.476015625 -0.6473697112115966 0.7628098888125912
9.4771640625 -0.6464450935550957 0.7640277707235872
9.4783125 -0.6453769487772794 0.7624947957049953
9.4794609375 -0.6434744578769721 0.7650669674806763
9.480609375 -0.6435307815634215 0.7654082696684712
9.4817578125 -0.6430616404482601 0.7654232025031136
9.48290625 -0.6431517330204987 0.7652540898252611
9.4840546875 -0.641788078922091 0.7672846551556272
9.485203125 -0.6410155520351477 0.7699558876929375
9.4863515625 -0.6396546208585618 0.7685274114861567
9.4875 -0.638449382417962 0.771030950985429
9.4886484375 -0.6386894131090864 0.7697593408752907
9.489796875 -0.6363069357737838 0.7691417948156708
9.4909453125 -0.6370715384791883 0.7705834553738958
9.49209375 -0.6358852801966123 0.7708209564063381
9.4932421875 -0.6360906845621412 0.7714671492226525
9.494390625 -0.6355784467723652 0.7707801709646243
9.4955390625 -0.6344048883332546 0.7727823078831185
9.4966875 -0.635090040522504 0.7715988669988288
9.4978359375 -0.6330211455659678 0.7735682696125245
9.498984375 -0.6330288763779891 0.7738486196780614
9.5001328125 -0.6328651807507888 0.7743527368559036
9.50128125 -0.6320668382924243 0.7752248182152746
9.5024296875 -0.6314911262503826 0.7747925519484185
9.503578125 -0.6302159068097154 0.7758322959091246
9.5047265625 -0.630532121433803 0.7768257127805409
9.505875 -0.6289787500685429 0.7764846913971568
9.5070234375 -0.6286230742031913 0.777440824665441
9.508171875 -0.6265877414940291 0.7774346998927175
9.5093203125 -0.6271279347575802 0.7779766372637344
9.51046875 -0.6273821784631688 0.7787099511831262
9.5116171875 -0.626350815622805 0.7791841642442918
9.512765625 -0.6258132055397915 0.7798668421802699
9.5139140625 -0.6250414374666464 0.7799139925195913
9.5150625 -0.6247630580711314 0.7807793412491587
9.5162109375 -0.6235770424550647 0.7810554389642325
9.517359375 -0.6226970072256788 0.7822472915553882
9.5185078125 -0.6225962776230418 0.7823529492256702
9.51965625 -0.6216725857540452 0.7837027377439862
9.5208046875 -0.6211296090502199 0.7834041504193967
9.521953125 -0.6195233807294304 0.7854362230666753
9.5231015625 -0.6192277084104124 0.7849996139864195
9.52425 -0.619202270692271 0.7863389621698404
9.5253984375 -0.6177723986847647 0.7862409639676567
9.526546875 -0.6167605432544571 0.7874395886729986
9.5276953125 -0.6170464716394988 0.7874806749623585
9.52884375 -0.6148850980002599 0.7883629811249729
9.5299921875 -0.6140392479615155 0.7889254801202091
9.531140625 -0.6140743773770105 0.7877467210415031
9.5322890625 -0.613155977289543 0.7891855974974766
9.5334375 -0.6121195462256629 0.7887491743186013
9.5345859375 -0.6116520257801941 0.7898315732116712
9.535734375 -0.6116002892997097 0.7898448948966219
9.5368828125 -0.6102095529697799 0.7909821777875874
9.53803125 -0.6102923730525014 0.7913183114105031
9.5391796875 -0.6092689947967943 0.7924832014103893
9.540328125 -0.6083462781846358 0.7934357866084766
9.5414765625 -0.6079725341116076 0.793844536575903
9.542625 -0.6070477829362534 0.7946726123944017
9.5437734375 -0.6067360913685713 0.794360620131286
9.544921875 -0.6057648022937384 0.7945990328542454
9.5460703125 -0.6054884566611786 0.7941582267744474
9.54721875 -0.6054079491426532 0.7949414693347499
9.5483671875 -0.6049334525469225 0.7959444524055487
9.549515625 -0.6049641112639044 0.7961909100229796
9.5506640625 -0.6040975793636207 0.7970278394889782
9.5518125 -0.6027257846313471 0.7974397571250871
9.5529609375 -0.600861529194062 0.7975111916623892
9.554109375 -0.6015493115519295 0.7983736472135192
9.5552578125 -0.5999701980105494 0.7983846507885897
9.55640625 -0.5996075143911912 0.7993997046220938
9.5575546875 -0.5985902180069018 0.8006139972068169
9.558703125 -0.5982508174298236 0.8002501329664697
9.5598515625 -0.5982481223767652 0.8011144358544584
9.561 -0.5976598541948386 0.8015126015131692
9.5621484375 -0.5964420667743335 0.8024757971306358
9.563296875 -0.5957543919422025 0.8039445094423119
9.5644453125 -0.5957951308806899 0.8033084093128693
9.56559375 -0.5944364569847114 0.8049095895856946
9.5667421875 -0.5939407109331362 0.8046411762604946
9.567890625 -0.5933374117590859 0.8051798468187426
9.5690390625 -0.5931360929975797 0.8057150700376638
9.5701875 -0.5930797541551719 0.8068083192092215
9.5713359375 -0.5921604990307971 0.8072058976972238
9.572484375 -0.5912289414362901 0.8076046698081483
9.5736328125 -0.5910933006526553 0.8073624089401814
9.57478125 -0.5901393471636682 0.8088954502160989
9.5759296875 -0.5890158061992705 0.8081359966974306
9.577078125 -0.5891891061802681 0.808328121695018
9.5782265625 -0.5891045118915406 0.8093602448518464
9.579375 -0.588267886868594 0.8094310039123306
9.5805234375 -0.5884110817804487 0.8105797037780227
9.581671875 -0.5877299189179302 0.8113721841790791
9.5828203125 -0.5864367804111399 0.8113652961731483
9.58396875 -0.5858141946648953 0.8116928274938007
9.5851171875 -0.5841899073595307 0.8121097219843298
9.586265625 -0.5840461691224305 0.8123300724881695
9.5874140625 -0.5824866444328336 0.8136083162455305
9.5885625 -0.5830102798894454 0.8138324380305478
9.5897109375 -0.5822733589351908 0.8148391535137858
9.590859375 -0.5817706836889132 0.8149901008599254
9.5920078125 -0.5805476711318766 0.8153307486468624
9.59315625 -0.5786435824522014 0.8165594025744303
9.5943046875 -0.578766939368747 0.8166083581806298
9.595453125 -0.5782148947662262 0.8167693638056774
9.5966015625 -0.5776107283268983 0.816713554197415
9.59775 -0.5768917265513267 0.8179200353321157
9.5988984375 -0.5766080729766605 0.8188566083909026
9.600046875 -0.5754449650886195 0.8185565661423756
9.6011953125 -0.5744758442338751 0.8192225494003367
9.60234375 -0.5741660701450577 0.8198145770757175
9.6034921875 -0.5725189429362127 0.8200188502895511
9.604640625 -0.5714305603404628 0.8211347472471858
9.6057890625 -0.5710890917058615 0.8218916770405802
9.6069375 -0.5713550140655653 0.8222121157831128
9.6080859375 -0.5695914729266134 0.8231574412147048
9.609234375 -0.5696158355047762 0.8238299365625855
9.6103828125 -0.5694166262796343 0.8246213030094766
9.61153125 -0.5685635302664693 0.8240804377559778
9.6126796875 -0.5676869086912295 0.8246098896998091
9.613828125 -0.5666909447756012 0.8240799216348841
9.6149765625 -0.5665760846712078 0.8255617943358105
9.616125 -0.5647327316396267 0.8260318084153595
9.6172734375 -0.565129529120975 0.8262431052065105
9.618421875 -0.5647694244307931 0.8274002972203983
9.6195703125 -0.5633269000318674 0.8273000094778222
9.62071875 -0.56303726353311 0.828428282299124
9.6218671875 -0.5623393114017576 0.8286254266932687
9.623015625 -0.5614554586816002 0.8296337704556307
9.6241640625 -0.5605988487788992 0.8300661200400862
9.6253125 -0.5597111629692163 0.8303982988990838
9.6264609375 -0.5586628027109207 0.8307262049741284
9.627609375 -0.5581819094546026 0.8318697840910605
9.6287578125 -0.557459207348986 0.83149878586699
9.62990625 -0.5569972500672504 0.832439833269291
9.6310546875 -0.5560812911668225 0.83303826842051
9.632203125 -0.555891631370631 0.832419730408278
9.6333515625 -0.555489318945569 0.8332331772288557
9.6345 -0.5542813148718949 0.8347023185883817
9.6356484375 -0.5538013123599876 0.8345020439160972
9.636796875 -0.5542118338892886 0.8355171854887
9.6379453125 -0.5530875911643109 0.8350644944003993
9.63909375 -0.5521142866411011 0.836751897392936
9.6402421875 -0.552123255806181 0.8359155654796966
9.641390625 -0.5512862356089077 0.8369999140809097
9.6425390625 -0.5499918540077599 0.8382701769763865
9.6436875 -0.5491558370491925 0.8373779678465669
9.6448359375 -0.5484027398215562 0.8384665051482303
9.645984375 -0.5492987009269027 0.8382739673007666
9.6471328125 -0.547781371889981 0.8390878103523619
9.64828125 -0.5475472073788124 0.839841623666518
9.6494296875 -0.5477302311095176 0.8407628472644654
9.650578125 -0.5462374620299404 0.8400469879203892
9.6517265625 -0.5447204029794461 0.8406868996088314
9.652875 -0.5441966931437234 0.8411354541475665
9.6540234375 -0.5443711975717095 0.8420050285757817
9.655171875 -0.5432589281043606 0.8421049137362155
9.6563203125 -0.5437669043504103 0.8427613127883058
9.65746875 -0.5423366670755926 0.8438745243611907
9.6586171875 -0.5415826295356201 0.8445346007648005
9.659765625 -0.540710141460458 0.8439562286891974
9.6609140625 -0.5398848004754163 0.8453120685381229
9.6620625 -0.540195819278289 0.8454583928562002
9.6632109375 -0.539371728399644 0.8459286288554532
9.664359375 -0.5387538378635767 0.8457005089933554
9.6655078125 -0.5381693299896488 0.8472087218426942
9.66665625 -0.5369788108866822 0.8471485705399286
9.6678046875 -0.5365206999920864 0.8469492687495448
9.668953125 -0.5360047712670367 0.848454741869696
9.6701015625 -0.5353845365849429 0.8481300684334312
9.67125 -0.5350030274239528 0.8480289248762607
9.6723984375 -0.5334129566252344 0.8492762288896134
9.673546875 -0.5338208159822567 0.8496669399913113
9.6746953125 -0.5322173001009457 0.8500332491299863
9.67584375 -0.5319604230969824 0.8510306373989811
9.6769921875 -0.5308393898450748 0.8520977350547361
9.678140625 -0.530202128380614 0.852228171787432
9.6792890625 -0.5296532173687677 0.852065972499255
9.6804375 -0.5285696275469121 0.8526661098692491
9.6815859375 -0.5273467609938374 0.8537463283416271
9.682734375 -0.526834564550976 0.8539557384043016
9.6838828125 -0.5265940198894099 0.8546051654644836
9.68503125 -0.5261748780828145 0.8554566637800346
9.6861796875 -0.5246082735362639 0.855479418551174
9.687328125 -0.5231396297818909 0.8565645657599011
9.6884765625 -0.523879227255565 0.8576382270417006
9.689625 -0.5219483890407244 0.8570091158000248
9.6907734375 -0.5212449323901365 0.8574827034691324
9.691921875 -0.5197932223625596 0.8584361180115783
9.6930703125 -0.520659820169965 0.8587339318703586
9.69421875 -0.5196478349050118 0.8590157961081752
9.6953671875 -0.5184475887566922 0.8594014183088519
9.696515625 -0.5186081438828132 0.8610223980332282
9.6976640625 -0.5174999405521632 0.8606191714729381
9.6988125 -0.5169424370303015 0.8620556990429767
9.6999609375 -0.515992554109098 0.8618360241776588
9.701109375 -0.5157696858118617 0.8624760804535407
9.7022578125 -0.5150779700541608 0.8628539917845457
9.70340625 -0.5139772357345902 0.8634455142822101
9.7045546875 -0.5124544223979522 0.8640122423489062
9.705703125 -0.5126609913011614 0.8646864895283531
9.7068515625 -0.511629666824742 0.8657429106488388
9.708 -0.5112455297113517 0.8649939522839907
9.7091484375 -0.510585431490582 0.8659446523723943
9.710296875 -0.5088513347977353 0.8659207257542614
9.7114453125 -0.5090135008381755 0.866320856942282
9.71259375 -0.5086177201684804 0.8659225042795171
9.7137421875 -0.5079193478411821 0.866969756464546
9.714890625 -0.5070614176116228 0.8684094773029931
9.7160390625 -0.5057292727465186 0.8684909715696222
9.7171875 -0.5046293226769032 0.8695574719730119
9.7183359375 -0.50357902772418 0.869618705374815
9.719484375 -0.5036260418749224 0.8693866354283553
9.7206328125 -0.5029391763442066 0.8687430686493981
9.72178125 -0.5019193807077339 0.8695519702069007
9.7229296875 -0.5018906631844378 0.8685245360499806
9.724078125 -0.5015452168983334 0.8687083728332069
9.7252265625 -0.5002071916010036 0.8697814511277884
9.726375 -0.4993378339524531 0.8694348066403286
9.7275234375 -0.4983755888800232 0.8701391523475955
9.728671875 -0.49835840682179033 0.8697304475043938
9.7298203125 -0.4986424789369997 0.8700263694297616
9.73096875 -0.4982295833863314 0.8698577151993029
9.7321171875 -0.4983781323922337 0.8696812696037055
9.733265625 -0.4972671384370301 0.8714042742247157
9.7344140625 -0.49664721455099287 0.8715419853402272
9.7355625 -0.4961521862384314 0.8713188970401313
9.7367109375 -0.4962602088592817 0.8730485293579578
9.737859375 -0.4947286751760719 0.8733846755222248
9.7390078125 -0.493598840252997 0.8738345379760504
9.74015625 -0.4939628062945831 0.8733386946951637
9.7413046875 -0.49375375211266026 0.8742244616569319
9.742453125 -0.49346205900734474 0.8760269773581182
9.7436015625 -0.4927858555424559 0.875467805756843
9.74475 -0.49039193200743486 0.8759038073946632
9.7458984375 -0.4912586870854365 0.8765846162531206
9.747046875 -0.49033914505996073 0.8766681786807142
9.7481953125 -0.49071701187898287 0.8780170301494392
9.74934375 -0.4909640361846098 0.87692160398481
9.7504921875 -0.4898640259712029 0.8773563831956978
9.751640625 -0.4877165280153341 0.8792460263073707
9.7527890625 -0.48781252792962926 0.8801542214221855
9.7539375 -0.4884508088186021 0.8794562509293449
9.7550859375 -0.48576523302050983 0.8791381774336771
9.756234375 -0.48484161862102637 0.8808722135919024
9.7573828125 -0.4860732904666742 0.8798335266700287
9.75853125 -0.4845218751819035 0.8806190568069827
9.7596796875 -0.4853810970481118 0.8807386986316831
9.760828125 -0.4858233596633252 0.8820234116399797
9.7619765625 -0.48598434401330703 0.8808871690101188
9.763125 -0.48418777193670737 0.8832196327338178
9.7642734375 -0.48518672347689884 0.8840090429322978
9.765421875 -0.4855839652132599 0.8838820780465675
9.7665703125 -0.485602624452002 0.8855093167813852
9.76771875 -0.4853030883710849 0.8864284817208545
9.7688671875 -0.48484949432085817 0.886617323999397
9.770015625 -0.4817119156035107 0.8863330906203766
9.7711640625 -0.48358007387611956 0.8886102633595673
9.7723125 -0.4825299540783038 0.8888440184264511
9.7734609375 -0.48180306397492695 0.8889407508486982
9.774609375 -0.4816205169799595 0.8916193960522308
9.7757578125 -0.4796021493777374 0.8946772773744704
9.77690625 -0.47809911941660427 0.895626480625623
9.7780546875 -0.47670715843157985 0.8966131912224238
9.779203125 -0.4776743234183196 0.8948913639031332
9.7803515625 -0.47613855519835846 0.8955798572319027
9.7815 -0.4748585280228306 0.8962297643694492
9.7826484375 -0.47475793721618975 0.8980237190418273
9.783796875 -0.4742272823257701 0.8956081763805384
9.7849453125 -0.4740774131510032 0.8974837874167579
9.78609375 -0.4736633599396866 0.8983928064446032
9.7872421875 -0.47277437827923935 0.898536879816698
9.788390625 -0.4712673004476883 0.8982190068029657
9.7895390625 -0.471997856132995 0.8995258892301462
9.7906875 -0.47139273991255626 0.9011048845427032
9.7918359375 -0.470075012565882 0.8992290996546868
9.792984375 -0.4680153480216094 0.9006869310429578
9.7941328125 -0.46867481793982674 0.9010524012544564
9.79528125 -0.468987206374025 0.9016884333632367
9.7964296875 -0.4675145535881366 0.9028652131618999
9.797578125 -0.466565646190225 0.9038337505221311
9.7987265625 -0.4659977927762321 0.904761682632333
9.799875 -0.46501442950678534 0.9055659595865155
9.8010234375 -0.4653089510060615 0.9072165880139476
9.802171875 -0.463442698763189 0.9067713297778806
9.8033203125 -0.46320160519504566 0.9069484161043734
9.80446875 -0.4607443668146098 0.9086158770234976
9.8056171875 -0.4615692647973812 0.908106974113073
9.806765625 -0.4604229703909113 0.909013515086037
9.8079140625 -0.45962654492015503 0.9089599423750842
9.8090625 -0.45967265697647824 0.9096658884245706
9.8102109375 -0.4579925887145972 0.91060278323193
9.811359375 -0.45701379762537564 0.9104444437462614
9.8125078125 -0.456413861408344 0.9123457223721185
9.81365625 -0.45589169936831014 0.912571240266631
9.8148046875 -0.454410911848923 0.9129911549877654
9.815953125 -0.4522841917700666 0.915708396481409
9.8171015625 -0.45287478951037063 0.9138406522506234
9.81825 -0.45295481699627727 0.9137559647213305
9.8193984375 -0.45247587338929496 0.9145588607590271
9.820546875 -0.45224295717969976 0.9152010618081426
9.8216953125 -0.4507675922278892 0.9135096598808276
9.82284375 -0.4513899304191568 0.9137445072823416
9.8239921875 -0.4504858510548086 0.9184025828098804
9.825140625 -0.45027895661243567 0.9189445641943215
9.8262890625 -0.4491773168458304 0.9197416242047989
9.8274375 -0.44601032604522517 0.9203888477481152
9.8285859375 -0.44470436266968294 0.9202813166949242
9.829734375 -0.44376172228227595 0.9217591662856038
9.8308828125 -0.4402563290004807 0.9215323558164091
9.83203125 -0.44127232177763376 0.9231322177648635
9.8331796875 -0.4402472268500366 0.9225293947963884
9.834328125 -0.43903143497023167 0.9228510454298039
9.8354765625 -0.436600730508562 0.9247211186431139
9.836625 -0.4375085684791106 0.9242872830925744
9.8377734375 -0.43420730472540703 0.9255908564445101
9.838921875 -0.43373289531121484 0.9270927702031854
9.8400703125 -0.43285526162062027 0.9275924851876287
9.84121875 -0.4336041573604255 0.9283566653718538
9.8423671875 -0.4319708668113461 0.9267515648977998
9.843515625 -0.4306689585189588 0.9277074966682529
9.8446640625 -0.4299987479346814 0.9297581132107339
9.8458125 -0.4290943350144493 0.9321033816733726
9.8469609375 -0.4285755675404027 0.9331510434190063
9.848109375 -0.4263168585354083 0.9325978092080801
9.8492578125 -0.425283075509118 0.932930231226478
9.85040625 -0.42487096895438964 0.9330684251740781
9.8515546875 -0.42087263729438634 0.9339867767153875
9.852703125 -0.42128030152978135 0.9359108670119187
9.8538515625 -0.42033891469024265 0.9373979636314868
9.855 -0.4195982986916366 0.9363521878136136
9.8561484375 -0.4194331895290356 0.9380020706905677
9.857296875 -0.41761601534166026 0.9365843205674115
9.8584453125 -0.4179457376881909 0.9362123428180525
9.85959375 -0.41593127692158216 0.9381192389835589
9.8607421875 -0.4166023063295512 0.9384712539515885
9.861890625 -0.41314085611553353 0.9390579390235774
9.8630390625 -0.4138440549803884 0.9396215271083193
9.8641875 -0.4130742784495543 0.9393722554749708
9.8653359375 -0.41160154497617646 0.9409233584602488
9.866484375 -0.4114485612473072 0.9420932101632463
9.8676328125 -0.4109235732958816 0.9411275166006251
9.86878125 -0.40781811840137666 0.9410496319283078
9.8699296875 -0.4064911745080704 0.9399940720037141
9.871078125 -0.4060142927828415 0.9406822772474188
9.8722265625 -0.40535309291475 0.9414771814761487
9.873375 -0.40498024488455653 0.9424768608811895
9.8745234375 -0.4049763058593679 0.9425631439289297
9.875671875 -0.4055972003774836 0.9415022587627289
9.8768203125 -0.4048573467343769 0.9439829818000239
9.87796875 -0.40445015895985587 0.9424398922566732
9.8791171875 -0.40347381572325336 0.9419500618329197
9.880265625 -0.4007696734349596 0.9425240400112467
9.8814140625 -0.4006818129718548 0.9442187653770907
9.8825625 -0.40096569898866624 0.9441933551673204
9.8837109375 -0.39956706869444253 0.9451980482342344
9.884859375 -0.4002874634258369 0.9436110832854889
9.8860078125 -0.3973242855025992 0.9443939587666822
9.88715625 -0.39696930352301646 0.9431494722868368
9.8883046875 -0.39651625400957147 0.9455240661580973
9.889453125 -0.39699717036308424 0.9444038299030161
9.8906015625 -0.3946678093809726 0.9447601532216918
9.89175 -0.3948253448614171 0.945400040952154
9.8928984375 -0.39118780903708955 0.945239823971807
9.894046875 -0.39147511407773566 0.9437869488981366
9.8951953125 -0.3914943387563452 0.945518512442907
9.89634375 -0.3895496326333765 0.9466677822615687
9.8974921875 -0.39051546594730496 0.9454559558668094
9.898640625 -0.3879471566984533 0.9471859799241782
9.8997890625 -0.38833229724616847 0.9443788264988112
9.9009375 -0.38790920984139643 0.9475318832895221
9.9020859375 -0.38681927245400516 0.947041174502481
9.903234375 -0.38719576977842973 0.9488816803127491
9.9043828125 -0.3872929845345856 0.9480295798816036
9.90553125 -0.38406790394599244 0.9486714056795218
9.9066796875 -0.38356071297542704 0.9508653156222041
9.907828125 -0.38461018491976406 0.9502305765694208
9.9089765625 -0.38045554601599746 0.9500543384155855
9.910125 -0.37875510819559455 0.9496264438596356
9.9112734375 -0.3817882459353933 0.9508805840347794
9.912421875 -0.37967880799706655 0.9500207966606847
9.9135703125 -0.37793450816213353 0.9525645944100972
9.91471875 -0.37925882613322104 0.9517911362149974
9.9158671875 -0.37506198161853527 0.9526570308051776
9.917015625 -0.37601757098523986 0.9536964471327971
9.9181640625 -0.37493774272259145 0.9545681115851692
9.9193125 -0.373857064531791 0.9537430156363176
9.9204609375 -0.3743178187050298 0.9545017311510893
9.921609375 -0.3708586268096535 0.9583905484436184
9.9227578125 -0.36930487642511817 0.9554202166349968
9.92390625 -0.3690919128462207 0.9560927093578604
9.9250546875 -0.36762202059389076 0.956511160802254
9.926203125 -0.3699924503296545 0.9553611093322356
9.9273515625 -0.36510978542935923 0.9577841474450587
9.9285 -0.36473395817088244 0.9556865384784967
9.9296484375 -0.36356394881533616 0.9567378898306229
9.930796875 -0.36435584041239966 0.9554529407399124
9.9319453125 -0.36321840544391204 0.9572079807627711
9.93309375 -0.36062477607473287 0.9589576324946825
9.9342421875 -0.359993898963786 0.9566144984996137
9.935390625 -0.35716238157956853 0.9572266434135575
9.9365390625 -0.35564265747381824 0.9573741418728547
9.9376875 -0.3569816963621375 0.9601333029365928
9.9388359375 -0.3532729989446993 0.9584740853933664
9.939984375 -0.3541220617776843 0.959569836487796
9.9411328125 -0.35462906700854857 0.9581332193719505
9.94228125 -0.3526821908740178 0.957918252304922
9.9434296875 -0.3511364355209973 0.9563959573372649
9.944578125 -0.350303438993009 0.9575415729194052
9.9457265625 -0.35244489490149333 0.9585924627125848
9.946875 -0.35152704615570696 0.9587080359005802
9.9480234375 -0.3476454123712357 0.9610588159679517
9.949171875 -0.34898939545720137 0.9588679366372954
9.9503203125 -0.34928886655515423 0.9583698172991273
9.95146875 -0.34618222529814485 0.9559515743552492
9.9526171875 -0.3499223953864563 0.9597845546929901
9.953765625 -0.34760881429589957 0.9568924626165526
9.9549140625 -0.3468520213091377 0.9594970155781756
9.9560625 -0.3486337690184965 0.9593137478023244
9.9572109375 -0.34529471652611365 0.9581736295533548
9.958359375 -0.34524400384561893 0.959227733966708
9.9595078125 -0.34553383410568256 0.9601803233183275
9.96065625 -0.3439625192490446 0.9601468218612486
9.9618046875 -0.3431334310149112 0.9612363574851672
9.962953125 -0.34339744337532985 0.9583262365043486
9.9641015625 -0.3435538511457738 0.9594242167605478
9.96525 -0.3422099023317253 0.9608795019940704
9.9663984375 -0.34293076341213047 0.9603389873796533
9.967546875 -0.3438077533280336 0.9613876502642694
9.9686953125 -0.34192444976020964 0.9619222012640888
9.96984375 -0.34424448742172764 0.9605014275244758
9.9709921875 -0.34190968922056036 0.9585644974067208
9.972140625 -0.3413397041452566 0.9609510309421532
9.9732890625 -0.3410755959876003 0.9619533989592564
9.9744375 -0.3384083666960554 0.9631447749109399
9.9755859375 -0.3392675949094509 0.9655105699439573
9.976734375 -0.3412087034410843 0.9609699742170569
9.9778828125 -0.33468608396788535 0.9646578139249704
9.97903125 -0.3378005823224238 0.9635662927474242
9.9801796875 -0.33717117493033677 0.9636599510149196
9.981328125 -0.33230751677757076 0.962820912108238
9.9824765625 -0.3324324374169444 0.966514515159729
9.983625 -0.331138473704212 0.9665549467968755
9.9847734375 -0.3302236298784899 0.9684538262779278
9.985921875 -0.328427013396107 0.9697247896994132
9.9870703125 -0.32858471457925387 0.9672056204791121
9.98821875 -0.32875296716201263 0.9696971196880664
9.9893671875 -0.3278501128799487 0.9701004737762373
9.990515625 -0.32829264473396536 0.9694346687651255
9.9916640625 -0.32697927508263525 0.9687107600798734
9.9928125 -0.3253697374774497 0.9698318246862688
9.9939609375 -0.3247460476540266 0.9730353339340848
9.995109375 -0.32375134469901423 0.969911169908555
9.9962578125 -0.32308515034833407 0.9703906624738654
9.99740625 -0.32445310964260693 0.9712349286668188
9.9985546875 -0.323129588195871 0.9697697434355818
9.999703125 -0.3241060269363354 0.9714801549705318
10.0008515625 -0.32310671820297576 0.9714813245153648
10.002 -0.3216833258082712 0.9712072413668997
10.0031484375 -0.3223456611132828 0.975179800087125
10.004296875 -0.3208731215977584 0.9734677816864362
10.0054453125 -0.32014456724416507 0.9738235766475823
10.00659375 -0.3168793857539509 0.9752679676266912
10.0077421875 -0.31707356709624135 0.9735470890247742
10.008890625 -0.3157161249513829 0.9740528404960038
10.0100390625 -0.31466689421710875 0.9758800977770177
10.0111875 -0.31451499770403424 0.9771034713570941
10.0123359375 -0.31365323181454347 0.9768749176024196
10.013484375 -0.3144900975159409 0.9798727942557119
10.0146328125 -0.3131116624465937 0.9791261222640265
10.01578125 -0.31225265192723256 0.9791739820794383
10.0169296875 -0.3110944485424755 0.9817762881106287
10.018078125 -0.3104040255980704 0.9816989972585828
10.0192265625 -0.309151552116655 0.9811837127447707
10.020375 -0.3082327600016039 0.9822364612493244
10.0215234375 -0.30961382086638134 0.9817101419862969
10.022671875 -0.3087471516712684 0.9816024035400699
10.0238203125 -0.3053609103472136 0.9829773166256877
10.02496875 -0.30688493756695756 0.9843298242987357
10.0261171875 -0.3061250464305809 0.9852137502520116
10.027265625 -0.3069016777744295 0.9818246257659028
10.0284140625 -0.30784490126338626 0.9851124121844623
10.0295625 -0.30344217847483806 0.9851947638468252
10.0307109375 -0.3047124361057159 0.9859939641162687
10.031859375 -0.3035862696001259 0.9889499405128344
10.0330078125 -0.3056200211561537 0.9912711757589581
10.03415625 -0.30304520807104396 0.9876137023387666
10.0353046875 -0.30346983338701994 0.9908491716017289
10.036453125 -0.3001444999966218 0.9909488036338698
10.0376015625 -0.2983364238353643 0.9900074887090796
10.03875 -0.29799784532683793 0.992829890839874
10.0398984375 -0.29654748615503707 0.989671059543491
10.041046875 -0.29624044453446213 0.9900172264800351
10.0421953125 -0.29459753305365544 0.9888953958035193
10.04334375 -0.2950454591456897 0.9878199585180043
10.0444921875 -0.29272159807565906 0.9907331334084319
10.045640625 -0.2941455951415567 0.9881955603591432
10.0467890625 -0.28950633276876514 0.9876932468755037
10.0479375 -0.2912728478291481 0.9904913540347094
10.0490859375 -0.29009857240114034 0.9895886474157776
10.050234375 -0.28863752208508703 0.9903062548499393
10.0513828125 -0.2876790916300333 0.9895773227690982
10.05253125 -0.2875885159811645 0.9901212283549501
10.0536796875 -0.2883680469123932 0.9901758139742208
10.054828125 -0.28710857503708054 0.9918535503838555
10.0559765625 -0.28719874158345926 0.9911315383267577
10.057125 -0.286831511653712 0.9918767646636237
10.0582734375 -0.2854893721534658 0.9898703976127136
10.059421875 -0.2845924475748953 0.9925246078956262
10.0605703125 -0.2861975809233599 0.9916416065242626
10.06171875 -0.28268859643494915 0.9909972092730429
10.0628671875 -0.28253307071261347 0.9924373073561453
10.064015625 -0.28351633876645616 0.9937937756607425
10.0651640625 -0.2820346964225453 0.9936545769757602
10.0663125 -0.2792882409911769 0.9937346372408574
10.0674609375 -0.2787379537691619 0.9961269391391132
10.068609375 -0.27910414960690083 0.9944292740938702
10.0697578125 -0.2778658571701332 0.9966569532199842
10.07090625 -0.2756610948462641 0.9980306971919961
10.0720546875 -0.27649231607538116 0.9967696115230942
10.073203125 -0.2758595737487478 0.9980180443615203
10.0743515625 -0.2738014101878337 0.9994645170103592
10.0755 -0.27408048413418046 0.9986894798511343
10.0766484375 -0.2728241273513062 0.9986539028018689
10.077796875 -0.27138555426240807 0.9991573350863345
10.0789453125 -0.27022585342255917 1.001813627304574
10.08009375 -0.26796645204022074 0.9976874973237683
10.0812421875 -0.2670734208247272 1.0013359630992242
10.082390625 -0.2650189371540085 1.0049933140916483
10.0835390625 -0.2648112278503237 1.0046676233294523
10.0846875 -0.26613199586550523 1.002579818484781
10.0858359375 -0.263729894825131 1.0044609344629032
10.086984375 -0.2643811458478361 1.0056137025647085
10.0881328125 -0.2616516455241038 1.0031546240711933
10.08928125 -0.258507663547349 1.005513791633419
10.0904296875 -0.258168817280183 1.0058823575202906
10.091578125 -0.2581452916994864 1.0070862332124424
10.0927265625 -0.2593635412120778 1.0057125986774302
10.093875 -0.25310484967955454 1.0063280939274692
10.0950234375 -0.2565556923811877 1.0092786168715266
10.096171875 -0.25770166953593565 1.008267870140989
10.0973203125 -0.2522006527905104 1.0074574145732058
10.09846875 -0.255104362349722 1.0079341686795809
10.0996171875 -0.25135515932417285 1.0092586660135132
10.100765625 -0.24955916135320177 1.0108531792128272
10.1019140625 -0.25054436762016064 1.0105135727102703
10.1030625 -0.25024089134157645 1.0129053311021072
10.1042109375 -0.25078728047882665 1.0060864113322858
10.105359375 -0.24983780778352244 1.0125500070904572
10.1065078125 -0.2481933130018107 1.0130796174544416
10.10765625 -0.24554958626682893 1.016937086626628
10.1088046875 -0.24432774629863024 1.0144017258582747
10.109953125 -0.24301131350700006 1.0159244839232455
10.1111015625 -0.24187252194565534 1.0155095476239442
10.11225 -0.24261192710063884 1.016715131786905
10.1133984375 -0.24342379491872174 1.016977000086338
10.114546875 -0.2385193507386616 1.0198954328417584
10.1156953125 -0.23601238918323325 1.0199688946854868
10.11684375 -0.24056404458172365 1.0175372108325365
10.1179921875 -0.2356991760816446 1.0143452349691569
10.119140625 -0.23649753797592638 1.0144216800003167
10.1202890625 -0.2352875339717876 1.0185593343001569
10.1214375 -0.232004626440365 1.0186232063694192
10.1225859375 -0.2357269441141957 1.0159209731588614
10.123734375 -0.23596017160302346 1.0198761634527498
10.1248828125 -0.23581260472165344 1.0190681778822626
10.12603125 -0.22960102838287688 1.0212190870594842
10.1271796875 -0.22884244877272358 1.0206398961603718
10.128328125 -0.22783804991873702 1.0180368898069119
10.1294765625 -0.2270237858780611 1.0193141615462717
10.130625 -0.22572217279505757 1.0183585917758093
10.1317734375 -0.22859468903826374 1.0204532027327389
10.132921875 -0.22568469768645671 1.0216041212879285
10.1340703125 -0.22588955347943185 1.0201974696118374
10.13521875 -0.22311695120148872 1.0219043047640524
10.1363671875 -0.21990177885101025 1.0208443223653312
10.137515625 -0.21664556290243808 1.0209874640556622
10.1386640625 -0.2157431398939168 1.0212335606059235
10.1398125 -0.21665592593882316 1.0208817832140453
10.1409609375 -0.21599815127378674 1.0197494110675338
10.142109375 -0.2143755197984022 1.018447974654881
10.1432578125 -0.21653011743632017 1.0194173492745089
10.14440625 -0.21273943881167567 1.0189726573087858
10.1455546875 -0.21203000912665682 1.0172413830117075
10.146703125 -0.21355992975840504 1.0199981086817695
10.1478515625 -0.21149696204447638 1.0208970296116373
10.149 -0.21001398234594537 1.019964182929689
10.1501484375 -0.20932051909980426 1.0232742751936414
10.151296875 -0.2072703050519104 1.0207847287430192
10.1524453125 -0.20692166638209203 1.0207969318280017
10.15359375 -0.20599601909239784 1.0235768734298856
10.1547421875 -0.203496213946325 1.024582809673381
10.155890625 -0.2018595378979271 1.0258632009534425
10.1570390625 -0.19969899757850967 1.0240777949330766
10.1581875 -0.19914835846493342 1.027305584651479
10.1593359375 -0.1968942345487302 1.0271986461804747
10.160484375 -0.19536951113386797 1.0258159035558472
10.1616328125 -0.19295909567284508 1.0262419894453327
10.16278125 -0.19048194202590407 1.0224545903381657
10.1639296875 -0.18821001379961155 1.0217580523921326
10.165078125 -0.18535164350185573 1.0228211946090797
10.1662265625 -0.18647022954081022 1.0191192515300602
10.167375 -0.18693521566807797 1.0197466346817206
10.1685234375 -0.18324673581178916 1.0218585877247506
10.169671875 -0.1848807040447355 1.0184336088487957
10.1708203125 -0.18209665844356854 1.017720418927956
10.17196875 -0.18185875769357196 1.0180918597739805
10.1731171875 -0.17907709195856447 1.0202385346729548
10.174265625 -0.1783011785328581 1.0172896767354054
10.1754140625 -0.17885483780778838 1.0184707096661385
10.1765625 -0.17609191239337463 1.0185688037978833
10.1777109375 -0.17456467968088718 1.0167986848933053
10.178859375 -0.17423497019340073 1.0132738891451112
10.1800078125 -0.17216593028821475 1.0155208696110163
10.18115625 -0.17028150232223732 1.0157035145002622
10.1823046875 -0.16894426139923652 1.0116544524566975
10.183453125 -0.1704094145831594 1.010783852187453
10.1846015625 -0.16668270524926865 1.010879601187383
10.18575 -0.16803103279126907 1.0088393783184453
10.1868984375 -0.16662692698594356 1.0069200927390565
10.188046875 -0.1664013430820523 1.008455495515036
10.1891953125 -0.16565189553762355 1.0053960204077874
10.19034375 -0.1697576436049072 1.0063517692545427
10.1914921875 -0.16570954168162177 1.0029848373413115
10.192640625 -0.17044615183415165 1.0012127613189294
10.1937890625 -0.1657390085507577 1.0031272616022302
10.1949375 -0.17047933630495127 0.9990878984422533
10.1960859375 -0.16893676218901496 0.9980288727941508
10.197234375 -0.167901300504876 0.9978261284468518
10.1983828125 -0.1675380714404834 0.9968418963410483
10.19953125 -0.17298447734992067 0.996131516370748
10.2006796875 -0.17046425461989212 0.9959984437038968
10.201828125 -0.1717396843604953 0.9959562056401552
10.2029765625 -0.1693781780982169 1.0002947914639184
10.204125 -0.1733903236281019 1.0000061013411166
10.2052734375 -0.17447365930295639 0.9963017376023322
10.206421875 -0.17302059072698084 0.9999199353011358
10.2075703125 -0.1730500444101017 1.0022936053274616
10.20871875 -0.1742029702792084 0.9979467629928582
10.2098671875 -0.175215266228477 1.0003405390486781
10.211015625 -0.17629084823432972 1.0023087438401246
10.2121640625 -0.174798905513105 0.9990941100660122
10.2133125 -0.17688884195583818 0.9994438574111641
10.2144609375 -0.17603846037022094 1.0001744024420125
10.215609375 -0.17716586761748654 1.0020790442900713
10.2167578125 -0.1767732888977854 1.0036906919404682
10.21790625 -0.1771718024506574 1.0036381473045841
10.2190546875 -0.17689112549696825 1.0037092763781004
10.220203125 -0.17759070323153373 1.005239388321678
10.2213515625 -0.17614431970953337 1.0069091526435447
10.2225 -0.17703907560936583 1.007102681061924
10.2236484375 -0.17656422790269782 1.0079798085046916
10.224796875 -0.17584650635208587 1.0072461454689394
10.2259453125 -0.17732182411122532 1.0092620286578708
10.22709375 -0.17825457337598827 1.0095750255241547
10.2282421875 -0.17886774099956226 1.0087085891100522
10.229390625 -0.17824746361192587 1.014094760483294
10.2305390625 -0.17718857347452882 1.0146620284690069
10.2316875 -0.17596024172627767 1.0142440283923506
10.2328359375 -0.17681224184078015 1.017606207196522
10.233984375 -0.17493439397983962 1.0191978970468643
10.2351328125 -0.17458991561264298 1.0186022915043687
10.23628125 -0.1726979358144255 1.0187167779014128
10.2374296875 -0.17303558729099058 1.020047570426284
10.238578125 -0.17190724441430472 1.019193592618635
10.2397265625 -0.17139723422752048 1.022718051451961
10.240875 -0.17049481531900335 1.0221210622707668
10.2420234375 -0.1702624129180652 1.0242184211319665
10.243171875 -0.17039679811918765 1.0251881398088771
10.2443203125 -0.1682015945930535 1.029451825722454
10.24546875 -0.16868865829919186 1.029761415225992
10.2466171875 -0.16877157596294978 1.0303478894693
10.247765625 -0.16686473710117405 1.0327602710099937
10.2489140625 -0.1651843663679683 1.0359301213706291
10.2500625 -0.16242832229899887 1.035832263617707
10.2512109375 -0.1623876151752689 1.0376242660997437
10.252359375 -0.15959035463894036 1.0373902377288293
10.2535078125 -0.1572727285644368 1.0383375406373547
10.25465625 -0.1539735723984747 1.0398527806330224
10.2558046875 -0.15110896420311132 1.0396790613371671
10.256953125 -0.14833130566730018 1.0385287110143466
10.2581015625 -0.14795263995551702 1.03606531784213
10.25925 -0.14530130328958638 1.0364299679920954
10.2603984375 -0.14651619033541916 1.0368597308886345
10.261546875 -0.14503320499456407 1.0371699749654806
10.2626953125 -0.14294724417223695 1.0368031287146486
10.26384375 -0.1431326279704296 1.0368656947806814
10.2649921875 -0.1426474183677383 1.0376302940261795
10.266140625 -0.14130268129981288 1.0388540185180049
10.2672890625 -0.13841488244806183 1.0391279445607586
10.2684375 -0.13811382008111683 1.0383260404938366
10.2695859375 -0.13702249287392876 1.0351878258731273
10.270734375 -0.13523938468162414 1.0360080670499299
10.2718828125 -0.13481336289064763 1.035491583210165
10.27303125 -0.13529523830769458 1.0339907160445498
10.2741796875 -0.1345810917010533 1.035076315636482
10.275328125 -0.13639277397164223 1.0356063715757966
10.2764765625 -0.13421831764855363 1.0390940082331883
10.277625 -0.1345909699136551 1.0386446510949356
10.2787734375 -0.13179176233502593 1.040848049480235
10.279921875 -0.13106737723376666 1.0396263308987808
10.2810703125 -0.13004144325312972 1.0410935093497862
10.28221875 -0.12497966339051136 1.0400504521914722
10.2833671875 -0.12414434314041572 1.0376072443103697
10.284515625 -0.12504475326630116 1.036628339450985
10.2856640625 -0.1238601804910266 1.0385936676242697
10.2868125 -0.125337184743313 1.0369317924567039
10.2879609375 -0.12589709563957563 1.0381154019979013
10.289109375 -0.1233398148863718 1.036137243032006
10.2902578125 -0.12314862519728556 1.0399918223310254
10.29140625 -0.12093932784893024 1.040007154852105
10.2925546875 -0.12107181708708348 1.0378786706505971
10.293703125 -0.11904881557329366 1.041332295917746
10.2948515625 -0.12228054544660738 1.0381676424308484
10.296 -0.1180537286934521 1.0396658529960914
10.2971484375 -0.11870059756497786 1.0410947105860804
10.298296875 -0.11767290911917805 1.0421362393566058
10.2994453125 -0.1196049405234989 1.0407857907727838
10.30059375 -0.12030646071865653 1.0407672254749798
10.3017421875 -0.11861489352072657 1.0429833485785571
10.302890625 -0.12016440197288497 1.0430944527594619
10.3040390625 -0.11731640144471345 1.044713038042259
10.3051875 -0.11693600043655011 1.0472706030947032
10.3063359375 -0.1157882284929847 1.0466591643975223
10.307484375 -0.11247834960863112 1.0457262535938168
10.3086328125 -0.1094835563418462 1.053598704547711
10.30978125 -0.1103604328751672 1.0540063949195337
10.3109296875 -0.10793534601503285 1.053780371428716
10.312078125 -0.10407571482653491 1.0549765388061596
10.3132265625 -0.10506533966457465 1.0536870610166806
10.314375 -0.09819600244732585 1.0510614459183132
10.3155234375 -0.09755418708628233 1.055440758173806
10.316671875 -0.09711825464541529 1.0536545750462862
10.3178203125 -0.09679486365372131 1.0554471780524326
10.31896875 -0.09364004762435929 1.0522307913881739
10.3201171875 -0.09500736171006735 1.052975376755942
10.321265625 -0.09476767135700276 1.0515556844500518
10.3224140625 -0.09190137666191997 1.0520895715044076
10.3235625 -0.09007613784224083 1.0531947215962822
10.3247109375 -0.09141145808255935 1.0509412695178229
10.325859375 -0.09091784495117383 1.0518974164200408
10.3270078125 -0.08851179028174316 1.0507473644245184
10.32815625 -0.09271556554340138 1.051398086528635
10.3293046875 -0.09099532989798037 1.0502964147063012
10.330453125 -0.08718196469135561 1.0519567489636832
10.3316015625 -0.09008374575351971 1.051411237748358
10.33275 -0.08936248140636835 1.0508443999354453
10.3338984375 -0.08763505205114328 1.0512335872077725
10.335046875 -0.08658076686480312 1.0537781604113414
10.3361953125 -0.08460862859182844 1.0528192539550307
10.33734375 -0.0868115649119213 1.0516362330343845
10.3384921875 -0.08743873924861967 1.0555532465007769
10.339640625 -0.08571686598724113 1.05419202339752
10.3407890625 -0.08479888888422835 1.0562553187801154
10.3419375 -0.08693980438240176 1.057409128279239
10.3430859375 -0.0851378505959314 1.058363098668123
10.344234375 -0.08483117706247667 1.0611357523420628
10.3453828125 -0.08284973891902386 1.0656165148929924
10.34653125 -0.07839075342903157 1.070481334221208
10.3476796875 -0.0767661773861543 1.0681078392735674
10.348828125 -0.0730898083931695 1.0693200105162903
10.3499765625 -0.067810418714569 1.0656296005314618
10.351125 -0.06539029820544595 1.068433435112694
10.3522734375 -0.06666365097460575 1.0681012213592478
10.353421875 -0.06247063035681019 1.065848508577074
10.3545703125 -0.06114948099595138 1.0665800861069064
10.35571875 -0.060887324609360804 1.065150167742464
10.3568671875 -0.05971106541612012 1.0652334667359626
10.358015625 -0.05867902473394604 1.0636762570899019
10.3591640625 -0.052659050594076356 1.0646529697986642
10.3603125 -0.05269336546843159 1.0596538085684517
10.3614609375 -0.053798399534484176 1.0585032060969968
10.362609375 -0.051836246569621124 1.0602872132983543
10.3637578125 -0.05012163890093281 1.0600939830406368
10.36490625 -0.050380021452875845 1.0636341087279835
10.3660546875 -0.04933372460973434 1.0606819372906888
10.367203125 -0.04594099999703152 1.0582111065081117
10.3683515625 -0.04261581593150776 1.0614762171065772
10.3695 -0.041079917420014156 1.0646148129731539
10.3706484375 -0.044871861523004014 1.0614933568130716
10.371796875 -0.04135082857473177 1.0561153581012341
10.3729453125 -0.042118401845334386 1.056592994347748
10.37409375 -0.040710753664653876 1.0580030776082554
10.3752421875 -0.03914475610160481 1.0584473204018068
10.376390625 -0.03584804202355002 1.0616211545076415
10.3775390625 -0.03605511122893387 1.0595209455636638
10.3786875 -0.034932928524749635 1.0575613931819263
10.3798359375 -0.03330087272140231 1.0600268096534764
10.380984375 -0.033014949666726676 1.059846928778188
10.3821328125 -0.03471218222663559 1.0587108479462528
10.38328125 -0.03014383456459089 1.0603407138033882
10.3844296875 -0.02541531439421439 1.0626026784278277
10.385578125 -0.025621537292472796 1.061724091861395
10.3867265625 -0.02556422712934675 1.0611541242442537
10.387875 -0.021783022703150162 1.0635211142958492
10.3890234375 -0.019502942720747263 1.0590400222667933
10.390171875 -0.0180368280030226 1.0557401687856074
10.3913203125 -0.019292721168030644 1.0606021388586946
10.39246875 -0.01707632286359452 1.0593040222103447
10.3936171875 -0.017733266904183795 1.0584386383938065
10.394765625 -0.016088689250029625 1.0569976732562714
10.3959140625 -0.01441057587995502 1.0569519668803118
10.3970625 -0.01611219423270502 1.0591565534556016
10.3982109375 -0.016138700628664904 1.0583924441572412
10.399359375 -0.01573828344447052 1.0605941058452242
10.4005078125 -0.013086747129441106 1.0612329413720833
10.40165625 -0.01428994914737522 1.059553820977736
10.4028046875 -0.013488935261423342 1.061390637639197
10.403953125 -0.013541212098160518 1.063743659560258
10.4051015625 -0.011683061890737909 1.0642924061318682
10.40625 -0.006986775412915272 1.065119972341527
10.4073984375 -0.006512175720969793 1.0632360432527863
10.408546875 -0.004709005165628458 1.0655362065417264
10.4096953125 -0.0048986259923519265 1.064488749269962
10.41084375 -0.0033217504125580832 1.0656902007347175
10.4119921875 -0.0020972673474474457 1.068008020653921
10.413140625 0.0009894098805213886 1.0679460213269694
10.4142890625 0.0011095897782937292 1.0667756640791777
10.4154375 0.0017534509377696572 1.0691140861547381
10.4165859375 0.004116630887567918 1.0683581281112944
10.417734375 0.008470443373999798 1.0694272155778872
10.4188828125 0.008837405230030501 1.0690849718391453
10.42003125 0.012539103420722605 1.0683561951792615
10.4211796875 0.01407799143682012 1.066737424665037
10.422328125 0.013205244885698658 1.0678725840018375
10.4234765625 0.012326237776877427 1.0661821604561186
10.424625 0.0146186229831676 1.0658592521101908
10.4257734375 0.018943836789626495 1.0674301536988855
10.426921875 0.01824854399651704 1.0685087987412856
10.4280703125 0.018837964475913127 1.0687388531519342
10.42921875 0.018976883755828927 1.0708061910272375
10.4303671875 0.02093218642513206 1.0728464767929233
10.431515625 0.02681460799235713 1.068675003964821
10.4326640625 0.030586652224250804 1.0704814742836744
10.4338125 0.03511198092638626 1.0709691477103265
10.4349609375 0.036350976024924764 1.0689706680769269
10.436109375 0.040455425561052694 1.0684912294054625
10.4372578125 0.04223744966756157 1.0664502735571244
10.43840625 0.042625667310310034 1.0639695284952004
10.4395546875 0.04211476329040867 1.0641014644665239
10.440703125 0.04747664255376985 1.062752518005325
10.4418515625 0.04613266848486072 1.0656203377918345
10.443 0.04944909348279519 1.0659991779351765
10.4441484375 0.051687327146808515 1.0668706339669842
10.445296875 0.053631920573563 1.0649497353448703
10.4464453125 0.05905532108611228 1.0656160843208815
10.44759375 0.061873048698413896 1.0652437135854034
10.4487421875 0.061821727211961025 1.0668477789573338
10.449890625 0.06650040833697934 1.0659317184702188
10.4510390625 0.07041037986307838 1.0629971244352119
10.4521875 0.07149069613376985 1.0631979330433055
10.4533359375 0.07052242073662154 1.0633887952638224
10.454484375 0.07685999839318605 1.060630586698426
10.4556328125 0.08118768356506087 1.0597927315291618
10.45678125 0.08566717917946493 1.06087321821907
10.4579296875 0.0891358326536118 1.058509947205061
10.459078125 0.09548308606138806 1.0576415502077343
10.4602265625 0.09650711868765849 1.056053044690824
10.461375 0.10135199513313287 1.0520051919983253
10.4625234375 0.10998651178051327 1.0510942688393112
10.463671875 0.10999696519827484 1.047196785698858
10.4648203125 0.11118796678481424 1.044293100570762
10.46596875 0.11416711259975831 1.0425975797605178
10.4671171875 0.11897722608489641 1.043177652329813
10.468265625 0.12326451739531252 1.0401738076963905
10.4694140625 0.1300304381471158 1.0394287666499022
10.4705625 0.13385900797665817 1.0364694464692146
10.4717109375 0.14017921015576107 1.0308284037650395
10.472859375 0.14359874805481554 1.02407348000379
10.4740078125 0.14915248937135567 1.0166472807012823
10.47515625 0.15211727457478574 1.0143709255514124
10.4763046875 0.15240925098236896 1.0065546837818773
10.477453125 0.15329537988641362 0.9978655141224546
10.4786015625 0.15804757978775197 0.9921844017216382
10.47975 0.1591027432622399 0.9816643114744785
10.4808984375 0.160006948516912 0.9736604595344174
10.482046875 0.1579471097359365 0.964151590012915
10.4831953125 0.15527005953328227 0.9567553775830957
10.48434375 0.15752647250525034 0.950803516230556
10.4854921875 0.15778641450859726 0.9420113497227008
10.486640625 0.1570277994886067 0.9378128386067471
10.4877890625 0.16001687068749457 0.927070934488093
10.4889375 0.16131099503721483 0.9160118306639321
10.4900859375 0.1540412375535023 0.9040073470667133
10.491234375 0.15205631552935944 0.8880217213406626
10.4923828125 0.14032793272235 0.8757965905909578
10.49353125 0.12577124074274165 0.8658267754757445
10.4946796875 0.11247850770228013 0.8585133755482222
10.495828125 0.1000550835323944 0.8464453936873331
10.4969765625 0.08754646808120017 0.8424466097285227
10.498125 0.06906517694908909 0.8383818809731594
10.4992734375 0.05105899892999127 0.8322850169807015
10.500421875 0.03809444617364563 0.8383550758810796
10.5015703125 0.022643263624461257 0.8385895921053363
10.50271875 0.005499661588035637 0.8374027283207823
10.5038671875 -0.007514461753838103 0.8442880637476091
10.505015625 -0.020345784978304096 0.8526591607354863
10.5061640625 -0.038393952263840014 0.8563183757547207
10.5073125 -0.04648307233485438 0.8709184587305631
10.5084609375 -0.05777513284930608 0.8787691930785637
10.509609375 -0.06480464736285657 0.8888396814244213
10.5107578125 -0.07522432100407112 0.9027864173993267
10.51190625 -0.07834480801065753 0.9176757322534305
10.5130546875 -0.08915065320940577 0.9304830558338393
10.514203125 -0.0906892979030742 0.9410330306282684
10.5153515625 -0.08665670830447893 0.9576819454492957
10.5165 -0.08881086993988432 0.9729137944688792
10.5176484375 -0.0870837807573887 0.9867182738713863
10.518796875 -0.08269826732350441 0.9941005158427905
10.5199453125 -0.07352211296372249 1.0072849680715583
10.52109375 -0.0608365462652703 1.0108618150588793
10.5222421875 -0.05906462228207471 1.0157921158583045
10.523390625 -0.051967192975945126 1.0244568206235676
10.5245390625 -0.03896547248615517 1.0312532799954215
10.5256875 -0.029781853142879587 1.0306570066844523
10.5268359375 -0.018648977489428287 1.0376806646366306
10.527984375 -0.01854742357448627 1.0336675668282
10.5291328125 -0.015306057850899835 1.0340641049441668
10.53028125 -0.014025649683107405 1.0346964059838104
10.5314296875 -0.013682009893636271 1.039461433467912
10.532578125 -0.008520763626851391 1.0390561437544545
10.5337265625 -0.005253246386546007 1.0462137293595215
10.534875 -0.0017501583952575228 1.0498724303307672
10.5360234375 0.007697414843190788 1.0550927392864922
10.537171875 0.010098209714807668 1.0523419061552695
10.5383203125 0.014141210122958603 1.051929887380214
10.53946875 0.017388420453200604 1.0554376811217914
10.5406171875 0.020883065898461145 1.0570186211175236
10.541765625 0.024077546017635898 1.0566212293187793
10.5429140625 0.026433987813278242 1.0538608286970996
10.5440625 0.027155914446254953 1.054405562047522
10.5452109375 0.030984844863631886 1.0522662047096967
10.546359375 0.03188133113285073 1.0567862207321312
10.5475078125 0.033734108948364386 1.0577969489758308
10.54865625 0.03758478903051482 1.0587367774491963
10.5498046875 0.04409675637341379 1.060512069255813
10.550953125 0.04626747380784346 1.0627821390945287
10.5521015625 0.050550391490200935 1.063273872636504
10.55325 0.05350912372608041 1.0673632049531743
10.5543984375 0.056607481867674364 1.065878686689461
10.555546875 0.05708154171486156 1.063220911854421
10.5566953125 0.06329914555017718 1.0609583225717025
10.55784375 0.05948880866782719 1.0654381220580142
10.5589921875 0.06113497715234667 1.0652140512639088
10.560140625 0.06349313216470004 1.0647828325656836
10.5612890625 0.06618281049773653 1.0660062621278426
10.5624375 0.06603564136902237 1.0651339565599875
10.5635859375 0.0675630100915654 1.06464599846754
10.564734375 0.0653737619476526 1.069771837150743
10.5658828125 0.0686180256453314 1.0746993069518957
10.56703125 0.06856007825493886 1.0763553652274016
10.5681796875 0.07690632168693377 1.0766104155658287
10.569328125 0.07410343636662944 1.0842349963218556
10.5704765625 0.07375955985434154 1.085856885912237
10.571625 0.0865642411123208 1.0918172563409034
10.5727734375 0.09027282301806683 1.0926820545027125
10.573921875 0.09550903380233472 1.0898496188529996
10.5750703125 0.10056565511418698 1.0907402285415562
10.57621875 0.09989187127959412 1.0858145410886286
10.5773671875 0.1072099147809013 1.0827487256473247
10.578515625 0.109808663475337 1.0847690426369903
10.5796640625 0.11308238037008353 1.0841456382415662
10.5808125 0.11061891727532758 1.083778789299871
10.5819609375 0.11543926737118212 1.080406869491541
10.583109375 0.12139210985900575 1.0818538872221277
10.5842578125 0.11963193372272844 1.085195951583454
10.58540625 0.12351916759939814 1.0844632511605377
10.5865546875 0.1281281370761207 1.0815835012978154
10.587703125 0.12606191352027513 1.0741174760798695
10.5888515625 0.1265172029156892 1.0682161630621296
10.59 0.12680720173480464 1.073779360627298
10.5911484375 0.13328905572574826 1.0737961665484537
10.592296875 0.1403960399581731 1.0687928212514564
10.5934453125 0.1391132349081931 1.0689416887724135
10.59459375 0.13821590537977752 1.065946363959035
10.5957421875 0.13494950470221445 1.0646120560536019
10.596890625 0.13693192666787946 1.066495268097499
10.5980390625 0.1397117965723465 1.0664150521396634
10.5991875 0.14335606421655783 1.067536056283353
10.6003359375 0.1487666731113634 1.067980676132128
10.601484375 0.14900238816946004 1.0629075897255675
10.6026328125 0.1520218037890403 1.0615496287660409
10.60378125 0.15212984743776342 1.0612353054573889
10.6049296875 0.15284672314065334 1.0595606779317182
10.606078125 0.15839753762842088 1.0615959841399167
10.6072265625 0.15775744141125544 1.0635314181079643
10.608375 0.16269092712024696 1.0581136273753695
10.6095234375 0.16961001488738955 1.0585210904504705
10.610671875 0.17011745728406924 1.0497304375719154
10.6118203125 0.16936584905295218 1.0529256855077318
10.61296875 0.17211216473401034 1.0491562785844732
10.6141171875 0.1719628935772349 1.0494223008439127
10.615265625 0.1747516500037914 1.0506976153382492
10.6164140625 0.18210266844688677 1.0491160883639425
10.6175625 0.1868522425593455 1.0471279234251718
10.6187109375 0.1862236268522816 1.0460272880304606
10.619859375 0.19125894407069022 1.0453266054766632
10.6210078125 0.2002788346757981 1.041773929239781
10.62215625 0.20360690848413737 1.0383844208365944
10.6233046875 0.20443374235312595 1.0334063194895924
10.624453125 0.210099477786823 1.030917361132813
10.6256015625 0.21264380227616592 1.0273244135934703
10.62675 0.21353207456147705 1.0211654679033417
10.6278984375 0.21817651400286317 1.0171460738598161
10.629046875 0.21805358130905214 1.0162030075375568
10.6301953125 0.2174308102844411 1.0134692053704328
10.63134375 0.21862328221564067 1.0106158056041212
10.6324921875 0.22151921091909463 1.0079260663522938
10.633640625 0.2281989583559626 1.0035253899792673
10.6347890625 0.22864145977694827 1.0004182105338586
10.6359375 0.22878522475415258 0.9938912260567201
10.6370859375 0.23194310347290778 0.9921929601241606
10.638234375 0.23191527432666145 0.989517803377748
10.6393828125 0.23311542663021573 0.984188034975537
10.64053125 0.23287634547185648 0.9803266802911713
10.6416796875 0.23116805257129922 0.9756186283834487
10.642828125 0.2293320702955825 0.9739040511167698
10.6439765625 0.23743583374067476 0.9660971295556067
10.645125 0.2348743829088039 0.963989478438116
10.6462734375 0.23521941359765605 0.9582145644466101
10.647421875 0.2338615688745116 0.9552643693920329
10.6485703125 0.22941121164679815 0.946791806541476
10.64971875 0.2231469613664584 0.942416647333775
10.6508671875 0.22088298734918815 0.9366359096135626
10.652015625 0.22095572740037533 0.9385166682294602
10.6531640625 0.21423446749300973 0.9354891778551568
10.6543125 0.20882757525499712 0.9330888713201235
10.6554609375 0.20952124810016304 0.9326181084789618
10.656609375 0.20565177852994232 0.9317899626044853
10.6577578125 0.204636056429854 0.9276173750542914
10.65890625 0.20209049864655235 0.92430296480674
10.6600546875 0.19346942791980723 0.9229155840278471
10.661203125 0.1872207359849945 0.9201433216297584
10.6623515625 0.18616140454303404 0.9205028297685902
10.6635 0.17817538471081218 0.9172243340899157
10.6646484375 0.17556128286987838 0.9170691785444332
10.665796875 0.1665281310211349 0.9186662997217667
10.6669453125 0.15704032739474713 0.920928301223478
10.66809375 0.15550002109662403 0.9228923568221683
10.6692421875 0.14831963962375505 0.9235556697801865
10.670390625 0.14756892915615397 0.930418881019605
10.6715390625 0.1447485568040319 0.9315953379663169
10.6726875 0.13818442834256536 0.9341111171738519
10.6738359375 0.14278624966470138 0.9397755034354345
10.674984375 0.13420241360681406 0.936405788075433
10.6761328125 0.13263985490327124 0.9352805465677844
10.67728125 0.13000637836286652 0.9427144138623035
10.6784296875 0.12582070641374166 0.9470300391298307
10.679578125 0.1257506319585676 0.9508270192163606
10.6807265625 0.1278581611402865 0.9523366289828473
10.681875 0.12556003517467929 0.954259982684795
10.6830234375 0.12463983181045094 0.9545685498574042
10.684171875 0.12207845461124339 0.9602389073833943
10.6853203125 0.12057222936071466 0.9660187104172627
10.68646875 0.11360443064590547 0.9723245680516193
10.6876171875 0.11490978484074008 0.974499809342927
10.688765625 0.11604902554134816 0.9869139735107955
10.6899140625 0.11638602869559261 0.9935655109104944
10.6910625 0.11782244377144627 0.9921925499266562
10.6922109375 0.1224925813338576 1.0033445554561806
10.693359375 0.12775436255570408 0.9991771798671747
10.6945078125 0.13178185452369928 1.0017218615396928
10.69565625 0.1394122568909474 1.005128678549103
10.6968046875 0.14211329542462606 1.0080590075693947
10.697953125 0.1445360709428396 1.0089116053187102
10.6991015625 0.14975670110409556 1.0101050340531663
10.70025 0.14910489691116108 1.008549792721644
10.7013984375 0.14944111751948874 1.0116456529714064
10.702546875 0.14838494540173838 1.014599574474274
10.7036953125 0.15455529111457392 1.015082775838501
10.70484375 0.16137990373235334 1.0178834630733071
10.7059921875 0.16278536687782813 1.018101765962331
10.707140625 0.16457249476300767 1.0203499204836226
10.7082890625 0.16590000651249562 1.0203974843846784
10.7094375 0.1631414987744281 1.0235241439165519
10.7105859375 0.16575320244399544 1.0249268211367388
10.711734375 0.16660710703408638 1.0313123573899072
10.7128828125 0.17433850013591037 1.0339222306023963
10.71403125 0.174355131831469 1.0367678719311422
10.7151796875 0.1804482763563247 1.0419238924246734
10.716328125 0.19395611398704876 1.0426305438820327
10.7174765625 0.1934514673311026 1.0391129080267558
10.718625 0.19698643498245363 1.0426718893577847
10.7197734375 0.19997257423073356 1.0480348363119534
10.720921875 0.20616203462295413 1.0437881623013774
10.7220703125 0.21366560723541672 1.0455521077942485
10.72321875 0.22322216192287853 1.040879773315707
10.7243671875 0.22532199761916866 1.0367892964929175
10.725515625 0.22290496539590865 1.0332585571358297
10.7266640625 0.22392312945132511 1.0308365383780411
10.7278125 0.22716333200362337 1.0296084292059113
10.7289609375 0.23434320653147725 1.0250181716969902
10.730109375 0.23184116300804797 1.027809845938498
10.7312578125 0.237733380947815 1.0204928607983874
10.73240625 0.23768126497998254 1.0199057502354214
10.7335546875 0.23130466943181294 1.018208447120567
10.734703125 0.23392147126667423 1.0180747956442175
10.7358515625 0.23519014489275578 1.0110822976014897
10.737 0.2309900591576064 1.0115130076721086
10.7381484375 0.2315208946414687 1.0098767513994913
10.739296875 0.23132499787938124 1.0127455603878301
10.7404453125 0.23193404810716212 1.0103220617477449
10.74159375 0.23357915273867524 1.0152948273064477
10.7427421875 0.23539161980893364 1.0177569818646914
10.743890625 0.23256840229453313 1.0135014162484766
10.7450390625 0.23219416183249955 1.0154641262060542
10.7461875 0.23328485352104125 1.0097499602175932
10.7473359375 0.23875065071197485 1.0123687686594847
10.748484375 0.23541039587205748 1.012202399149816
10.7496328125 0.23253554982993452 1.013347469137492
10.75078125 0.23249089332716089 1.01281617277904
10.7519296875 0.23353918726613088 1.0120723546936998
10.753078125 0.23926873151405034 1.012597764409073
10.7542265625 0.23803043401488325 1.0116455414751193
10.755375 0.23891141370697963 1.0144340845999613
10.7565234375 0.2430077464296546 1.0110852120285903
10.757671875 0.23376987546563438 1.0112411114657447
10.7588203125 0.23784472810080226 1.01004313023188
10.75996875 0.24122709144210092 1.0135092674639359
10.7611171875 0.24059104675715504 1.0145891994055316
10.762265625 0.24634453979573073 1.0157752162681986
10.7634140625 0.2484550650338782 1.0078994887939485
10.7645625 0.24948692308316492 1.0094325618730853
10.7657109375 0.24981244857273893 1.007565980307156
10.766859375 0.25362524797970387 1.0046689881502786
10.7680078125 0.25352008380175833 1.0070481554531532
10.76915625 0.2545668171904299 1.0046464458445885
10.7703046875 0.25923374065135085 1.0025617488635559
10.771453125 0.26316035872925336 1.0064489518920492
10.7726015625 0.2672520219901097 1.0020706405979116
10.77375 0.26507062804884785 1.001096027793089
10.7748984375 0.2686710962001755 1.0031817091221762
10.776046875 0.2706524905990826 0.9976747329766305
10.7771953125 0.27280044762526867 0.996207018180093
10.77834375 0.27966323303475554 0.9955999896611468
10.7794921875 0.2742542422175914 0.9925775905259826
10.780640625 0.2788669090875777 0.9913643530385111
10.7817890625 0.2787120080876965 0.9923034974228373
10.7829375 0.2840895352283439 0.9918886437514685
10.7840859375 0.28602266806158794 0.9905072484388897
10.785234375 0.2900076770924265 0.9878580213609299
10.7863828125 0.2935634546115504 0.9859691490875733
10.78753125 0.2977599494779619 0.9830700648200557
10.7886796875 0.299109496340798 0.9747692743495164
10.789828125 0.30385106366604986 0.9747290863731854
10.7909765625 0.3034900145706358 0.9766531981482078
10.792125 0.3044260775305107 0.9767765547786333
10.7932734375 0.3046739783199232 0.9744764723834924
10.794421875 0.311605100751257 0.9734868231527736
10.7955703125 0.3093208593154648 0.967635419760301
10.79671875 0.3116435767297299 0.9667441876064562
10.7978671875 0.3100413649914313 0.9662195480337874
10.799015625 0.31333786499595434 0.9628082330203027
10.8001640625 0.3152271865173806 0.9583143948806948
10.8013125 0.3124252171898497 0.9596715480178675
10.8024609375 0.31372376942080615 0.9586638954162623
10.803609375 0.3077768130619837 0.9580901353543867
10.8047578125 0.3061010067779656 0.9559581231509706
10.80590625 0.3066486671286883 0.9519192197552018
10.8070546875 0.3079962369231784 0.9519416636616727
10.808203125 0.30763923798149995 0.9505535426093035
10.8093515625 0.30859611634627987 0.9544185631598725
10.8105 0.3059929304255813 0.9535967772778695
10.8116484375 0.310656099215859 0.9493722745734752
10.812796875 0.3145880359962816 0.9425197131963889
10.8139453125 0.3088570952583138 0.9489031640297843
10.81509375 0.30515217961560753 0.9478519384016619
10.8162421875 0.3078637406815369 0.9453786752789728
10.817390625 0.3030105425794084 0.9449124615151274
10.8185390625 0.30448279649988624 0.9465477203244296
10.8196875 0.29696949788877736 0.9418072327327527
10.8208359375 0.3029580287440794 0.9488959013030647
10.821984375 0.3001967530423523 0.9486362736417498
10.8231328125 0.29968876545372897 0.949513247233469
10.82428125 0.30051989299372095 0.9500443142478137
10.8254296875 0.29805927742162336 0.9513866825887077
10.826578125 0.2989904088939791 0.9553718533723626
10.8277265625 0.2987845020073884 0.9511372931849662
10.828875 0.29021132495831126 0.9524836231989858
10.8300234375 0.29773637261565084 0.9466462978667401
10.831171875 0.29074845793859283 0.9511830153322136
10.8323203125 0.29122797278162127 0.9522233257328511
10.83346875 0.2909547392110109 0.9501005586796806
10.8346171875 0.29000244077519044 0.9522205918734521
10.835765625 0.2910614510928083 0.9516816613328012
10.8369140625 0.2898615996526215 0.9581207752674363
10.8380625 0.28897675553334545 0.9586762209072766
10.8392109375 0.2879052970664152 0.9603421578067998
10.840359375 0.28988264600692554 0.9639704135803856
10.8415078125 0.29177510568383097 0.9627359187625456
10.84265625 0.2915177539238912 0.9637829574025192
10.8438046875 0.29121739924466433 0.9638844690938582
10.844953125 0.2925847542939757 0.9632679925231185
10.8461015625 0.29203447109466124 0.9586178649876154
10.84725 0.2916505597462292 0.9601097974654146
10.8483984375 0.29202847401860754 0.959968969085737
10.849546875 0.291772651041984 0.9627577630679992
10.8506953125 0.29478285734191473 0.9639106494913654
10.85184375 0.29153144259441055 0.960836349983991
10.8529921875 0.2950901185915147 0.9633875740466812
10.854140625 0.2993609785800042 0.9655067512953656
10.8552890625 0.301549862864942 0.9654026772613715
10.8564375 0.2999748415170035 0.968524806905299
10.8575859375 0.3036106689370578 0.967231902667651
10.858734375 0.3015298545118178 0.9694215292476122
10.8598828125 0.307439668658961 0.9682536131487155
10.86103125 0.3053028569046574 0.9650028408893279
10.8621796875 0.3073588271103755 0.969920757908282
10.863328125 0.3116050861203561 0.9705383165348989
10.8644765625 0.31230648624973123 0.9653828574181266
10.865625 0.3135786022523873 0.96184204273923
10.8667734375 0.31445515627105225 0.9601003717111055
10.867921875 0.3166756097261209 0.9624319996093547
10.8690703125 0.3179389669265461 0.9604470443614702
10.87021875 0.3201337627478573 0.9618856246723242
10.8713671875 0.32461532461459464 0.9539544816542158
10.872515625 0.32465123954169195 0.9589467080565711
10.8736640625 0.3255875573442043 0.9607161216222186
10.8748125 0.32577984816379757 0.960456291342092
10.8759609375 0.32197971056488056 0.9550599444476073
10.877109375 0.3210498174276494 0.9586091286040258
10.8782578125 0.32320763830504073 0.954390520477753
10.87940625 0.3275175842887178 0.9517340835795695
10.8805546875 0.32860173705254636 0.9552623041001376
10.881703125 0.3331164339515944 0.9565811763293173
10.8828515625 0.3313519849379656 0.9573338278049308
10.884 0.3352301324176035 0.9599304744167164
10.8851484375 0.3369220222387702 0.9604945474405076
10.886296875 0.33753459319588114 0.9532310275938897
10.8874453125 0.33783573719276644 0.9560056036814797
10.88859375 0.3417764297839583 0.9636383204300393
10.8897421875 0.33920061509804555 0.9564948367691912
10.890890625 0.3390804992681512 0.9596946817034008
10.8920390625 0.34014368969530095 0.9600621378378726
10.8931875 0.3472530874683612 0.9590622317428195
10.8943359375 0.34494648331314925 0.9585272160210574
10.895484375 0.3464751694149697 0.9537144323687972
10.8966328125 0.34340036965961845 0.9553120644290063
10.89778125 0.3543160073996739 0.9551708670080523
10.8989296875 0.3487811700705066 0.9548403656555107
10.900078125 0.35046853788483107 0.9590957959741799
10.9012265625 0.3519571027897815 0.9520040762404166
10.902375 0.3516959662484618 0.9532055895305133
10.9035234375 0.35117803838733663 0.9567785268946337
10.904671875 0.3517210133935884 0.9503135308440614
10.9058203125 0.3550374793666136 0.9506767047087382
10.90696875 0.35697506934926326 0.9480733369293307
10.9081171875 0.3536657362836573 0.94702720261338
10.909265625 0.35574431334174095 0.9509224054981199
10.9104140625 0.3559305293938396 0.953612535417871
10.9115625 0.35546955314843615 0.9546904925114972
10.9127109375 0.35104673357944005 0.950681373024663
10.913859375 0.3550283068900857 0.9486864105132358
10.9150078125 0.356687463711996 0.9530645741022599
10.91615625 0.3524807092191521 0.9519418676729778
10.9173046875 0.35180444533502875 0.9515263638381785
10.918453125 0.3562790427944723 0.9532046820800161
10.9196015625 0.35377929735493024 0.9507643821729448
10.92075 0.3591386315524882 0.9544866921267549
10.9218984375 0.36039761223998057 0.951158009649427
10.923046875 0.3574983663418878 0.9585456058475409
10.9241953125 0.36112572353034855 0.9508369569291246
10.92534375 0.3633020614272083 0.9484510780327886
10.9264921875 0.3625500075667337 0.9562831695979491
10.927640625 0.36633599895038194 0.9505819858219037
10.9287890625 0.3660973731125084 0.9514085303182571
10.9299375 0.37038464725682496 0.9501892939934917
10.9310859375 0.370245536043707 0.948842581908664
10.932234375 0.3702592873932188 0.9498647128643831
10.9333828125 0.3721413553368408 0.9461339575182542
10.93453125 0.3739766246584062 0.9468584095412509
10.9356796875 0.37247657942288404 0.9485078150006285
10.936828125 0.37680455085941544 0.9468870261244265
10.9379765625 0.38002216811798817 0.9414518644640407
10.939125 0.3787995067338891 0.9450432470318002
10.9402734375 0.3816264042342157 0.9410548728384502
10.941421875 0.3807162816518468 0.9435940498026069
10.9425703125 0.38250384437499707 0.937103311265353
10.94371875 0.38299285396839694 0.9379745043746311
10.9448671875 0.38722339048515186 0.9422909392070082
10.946015625 0.3851230974983037 0.9368366479197751
10.9471640625 0.3880120532791955 0.9373008073749939
10.9483125 0.38319061180113295 0.9400520715107777
10.9494609375 0.3887801257582011 0.9394218425163436
10.950609375 0.3891980157648055 0.9406226326153426
10.9517578125 0.38784920311025095 0.9405779224749611
10.95290625 0.3937735651987689 0.9473623027630511
10.9540546875 0.39035097900713134 0.9417642957513069
10.955203125 0.3974851032735153 0.9393988455127856
10.9563515625 0.3959257139596834 0.9379266867585476
10.9575 0.3996640855873689 0.9391417519198474
10.9586484375 0.39717748563822464 0.9388223008167949
10.959796875 0.39868794585655065 0.9405387544343536
10.9609453125 0.3968706390518957 0.9353531867465578
10.96209375 0.3987223325374197 0.9428303906597936
10.9632421875 0.400421571156347 0.9382640792651575
10.964390625 0.4029462676398926 0.9358768879970314
10.9655390625 0.3995525159014561 0.9477623557260273
10.9666875 0.4019242750397772 0.9428720251962232
10.9678359375 0.406856252178269 0.9391333468111286
10.968984375 0.4025597710813371 0.9428365151253656
10.9701328125 0.4035712204321994 0.9445576587312533
10.97128125 0.4126688505660307 0.9495223565683947
10.9724296875 0.4169969680483094 0.9397258412531699
10.973578125 0.41789952557357857 0.9479192490559226
10.9747265625 0.4161220167462516 0.9446660887980712
10.975875 0.416335133572713 0.9459522097638007
10.9770234375 0.41919270221419325 0.9440650566311944
10.978171875 0.41833731106189176 0.9475069135448615
10.9793203125 0.41922673435585167 0.9458471594598609
10.98046875 0.42135755091459465 0.9402649275991628
10.9816171875 0.42202599545857955 0.9424948099430825
10.982765625 0.4187730059765088 0.9449340281106992
10.9839140625 0.42231641180700646 0.946207941796605
10.9850625 0.42358693633984956 0.9396337675965651
10.9862109375 0.42950929218407513 0.9381317462480526
10.987359375 0.4292838083665958 0.9365685028787334
10.9885078125 0.43145284726515293 0.9423555030644566
10.98965625 0.43110055852735807 0.9427612584964713
10.9908046875 0.4328943915565501 0.9392339971364208
10.991953125 0.43249698551835847 0.9392376828230454
10.9931015625 0.43031915551662664 0.9429455933307588
10.99425 0.4299395065993533 0.9384242248602501
10.9953984375 0.4349772487460696 0.9381778643539003
10.996546875 0.43862854322806777 0.9374653289991735
10.9976953125 0.43751802197346784 0.9371026625059931
10.99884375 0.43361407986756073 0.9360889361091356
10.9999921875 0.43702482874685056 0.9314096990551894
11.001140625 0.43910688682096366 0.9300242413913706
11.0022890625 0.43700382524801973 0.9290744360673421
11.0034375 0.4364575025576573 0.9260473261808626
11.0045859375 0.43836537083191124 0.926897356304512
11.005734375 0.43669211372475103 0.9286399136448148
11.0068828125 0.4385233761027601 0.9284992858715977
11.00803125 0.4370711267684755 0.9251396745050029
11.0091796875 0.444142890824706 0.9283185355563457
11.010328125 0.4434173537303218 0.9285547725704075
11.0114765625 0.4463423880808567 0.9266330806861196
11.012625 0.4514029895382989 0.9275345219052965
11.0137734375 0.4523220817644147 0.9259473485141957
11.014921875 0.45135519229592025 0.9178804020478541
11.0160703125 0.4527105430013121 0.9205810376756346
11.01721875 0.4541126065272504 0.9225879730356836
11.0183671875 0.4554230105008413 0.9185968689405164
11.019515625 0.45285697092491584 0.9182695505270704
11.0206640625 0.45757611802887216 0.9133125249820697
11.0218125 0.4629239616441794 0.9136374523214027
11.0229609375 0.4625272311592217 0.9125855780321765
11.024109375 0.46276871857290713 0.9110617464724008
11.0252578125 0.4644774398782364 0.9101482925707463
11.02640625 0.4632754118674276 0.9011382532030542
11.0275546875 0.46691372968509054 0.9034833625204208
11.028703125 0.4717457597587978 0.901455448643198
11.0298515625 0.46901480437434717 0.894668794892286
11.031 0.4674112454438443 0.8970728036549567
11.0321484375 0.4662816445144386 0.8962328674831663
11.033296875 0.4640928246254502 0.8954048175743113
11.0344453125 0.4657648522750669 0.896387531922169
11.03559375 0.466654179410166 0.8926218225472434
11.0367421875 0.4669911652700007 0.8961731247185665
11.037890625 0.47178055075198455 0.8883273236600767
11.0390390625 0.4709949319629312 0.8908160121903731
11.0401875 0.47080646012564664 0.8910586055833584
11.0413359375 0.4688261599398019 0.8934031416703783
11.042484375 0.4732514655930906 0.8935822945792209
11.0436328125 0.4739733215185675 0.8904888896922012
11.04478125 0.48255953820249886 0.8951632299668916
11.0459296875 0.4848092209329642 0.8893345167369462
11.047078125 0.4856456201701167 0.8900639087487363
11.0482265625 0.4876490296371656 0.8907886628415501
11.049375 0.4891760436747689 0.8832165144843411
11.0505234375 0.49456866474986977 0.8778643801512517
11.051671875 0.48614758107802436 0.8792330725088114
11.0528203125 0.4932009239023614 0.8776590278884419
11.05396875 0.49547965720267634 0.8790698494133383
11.0551171875 0.4895503843609361 0.8751612613260344
11.056265625 0.4909535491894294 0.8735124019258373
11.0574140625 0.4933233965010906 0.8814908690511212
11.0585625 0.4896555406601907 0.8810291118632457
11.0597109375 0.4901974836860114 0.8811414545908359
11.060859375 0.49176299318205546 0.8818175379525564
11.0620078125 0.49609924292904867 0.8791491042997419
11.06315625 0.4951368934291183 0.8826070092475388
11.0643046875 0.5005535666678623 0.885807040781591
11.065453125 0.5013610035989242 0.8824826984529531
11.0666015625 0.5030649584037117 0.8762451426208986
11.06775 0.5021166496454217 0.8741834155459027
11.0688984375 0.502754804584665 0.8709702566559712
11.070046875 0.5041535056335016 0.868210811442679
11.0711953125 0.5033067075752155 0.8688206318260474
11.07234375 0.5053893987303537 0.8672385308589172
11.0734921875 0.5035387489133607 0.8641988949916485
11.074640625 0.4983157542097114 0.8648458133537432
11.0757890625 0.4985440832081798 0.8658209515992719
11.0769375 0.5000223189084954 0.8643090208461636
11.0780859375 0.49623228806472175 0.8660375286826405
11.079234375 0.49612725697777643 0.8608999637444246
11.0803828125 0.5001683584342026 0.8652959267922722
11.08153125 0.4997606546417521 0.8659305562149588
11.0826796875 0.49480184741551886 0.8682438063280793
11.083828125 0.496797332309634 0.8672830705272477
11.0849765625 0.50086195537459 0.8630661683561915
11.086125 0.4954532459368893 0.8629481457601875
11.0872734375 0.49812580939429063 0.8643624700173304
11.088421875 0.4998556987866599 0.8610720904970565
11.0895703125 0.4982744851930276 0.8618643957311565
11.09071875 0.49671735326052124 0.8611762372040526
11.0918671875 0.4977964753433251 0.8560441174631778
11.093015625 0.49626744256148647 0.8558575676838343
11.0941640625 0.49258028369845164 0.8570987961526179
11.0953125 0.49613325122524354 0.858590347812507
11.0964609375 0.49642782729091833 0.8606264536061798
11.097609375 0.5000267063401657 0.8585764496153381
11.0987578125 0.4986497656303156 0.860310046146485
11.09990625 0.49606797090700794 0.8598549863908783
11.1010546875 0.49747379686223114 0.8573264562239846
11.102203125 0.49563610012131215 0.8609609978364183
11.1033515625 0.498759295664711 0.8570831921382293
11.1045 0.5022350749916544 0.8566477876109871
11.1056484375 0.4987707952646413 0.857692392558223
11.106796875 0.5021711972739631 0.8561758750187027
11.1079453125 0.50174777667756 0.8563127276177676
11.10909375 0.49998178361263446 0.8525358334524412
11.1102421875 0.5017874115900489 0.8522597818821507
11.111390625 0.49953561121483786 0.8530898760902239
11.1125390625 0.4992509336989922 0.855692440258365
11.1136875 0.5041584978312221 0.8583235959456351
11.1148359375 0.5094243953974229 0.860389338949841
11.115984375 0.5121252823854539 0.8567997592783402
11.1171328125 0.5086037196921328 0.8514381717380293
11.11828125 0.5135757605431922 0.8496562825753935
11.1194296875 0.5151908476644191 0.8467869664306961
11.120578125 0.5151536245413619 0.8440437934367755
11.1217265625 0.5122724229461268 0.8457508669655174
11.122875 0.5144097783460874 0.8462731907977709
11.1240234375 0.5156798048359033 0.8456636742684867
11.125171875 0.5171035402264024 0.8438465486604777
11.1263203125 0.5172369433429393 0.8466708613142325
11.12746875 0.5205120059731517 0.8368542704789566
11.1286171875 0.5173088651721008 0.8376098276668003
11.129765625 0.5190592940737224 0.8420029980271029
11.1309140625 0.5155877698523584 0.8400307578812125
11.1320625 0.5146924914009579 0.8392703068669154
11.1332109375 0.5194948946407529 0.8360804486200165
11.134359375 0.5144657154622707 0.8337112177845682
11.1355078125 0.5164064493909568 0.8388035617567238
11.13665625 0.5165062105668828 0.8403333281496165
11.1378046875 0.5175921890185646 0.8409651314318676
11.138953125 0.5205408848539169 0.8385658445474585
11.1401015625 0.5233806902927951 0.8400826596198601
11.14125 0.5205279327929114 0.8379131547871018
11.1423984375 0.5213268826860468 0.8331181942159089
11.143546875 0.5173684745247042 0.833990932776421
11.1446953125 0.5142957426008726 0.8319773883864067
11.14584375 0.5151238872601884 0.8355102790255517
11.1469921875 0.5148734092025066 0.8369205092997274
11.148140625 0.5160497503249905 0.8345123373637142
11.1492890625 0.5147177626777841 0.838250163103847
11.1504375 0.5160388627505638 0.8364142500160586
11.1515859375 0.5176544489479794 0.8380386425024438
11.152734375 0.5173075077607996 0.8378901243339872
11.1538828125 0.5167786918952816 0.8336782485699294
11.15503125 0.5158799651237633 0.8390268679124331
11.1561796875 0.5180921118701126 0.8398210543073303
11.157328125 0.5122169504761726 0.8355689335999261
11.1584765625 0.51494964668462 0.8401210060346578
11.159625 0.5199441255349014 0.8405612886206486
11.1607734375 0.5189021220030514 0.8376719125330262
11.161921875 0.5176184437442721 0.8448502950954003
11.1630703125 0.522618795150853 0.8430328481648578
11.16421875 0.5218900999494676 0.8421546472500259
11.1653671875 0.5220180747365843 0.8453040912956888
11.166515625 0.5230927314870937 0.8417316090000727
11.1676640625 0.5252086473517779 0.8430575516100453
11.1688125 0.5257767654602996 0.8399936901295809
11.1699609375 0.5262315364581012 0.8445350742073494
11.171109375 0.5268425441382083 0.8418568302091172
11.1722578125 0.5268517054782601 0.8389839456373928
11.17340625 0.5288609037690166 0.8435855545908864
11.1745546875 0.5319557020224581 0.8403571562836296
11.175703125 0.532928927384215 0.8452273849231273
11.1768515625 0.535980531797166 0.8444390376832689
11.178 0.538038879710258 0.8442309970537076
11.1791484375 0.5416706050828842 0.8399995746275837
11.180296875 0.5432139270512804 0.8388479508503282
11.1814453125 0.5422924971941702 0.8402855907893769
11.18259375 0.541412466284877 0.8398146840585292
11.1837421875 0.5451997781207634 0.8384405952294983
11.184890625 0.5473907687071725 0.837184628570061
11.1860390625 0.5490070821721789 0.8377428448275299
11.1871875 0.5516670145277268 0.8367200124802844
11.1883359375 0.5501591654795623 0.8339292716465663
11.189484375 0.5520704856599278 0.8344486337586725
11.1906328125 0.5540476660397529 0.8331209393332066
11.19178125 0.5565976168573994 0.832846392448688
11.1929296875 0.5580988283510671 0.8291478144709736
11.194078125 0.5597148009744277 0.8272914699894052
11.1952265625 0.5582298346676409 0.8266414341588155
11.196375 0.557491516228957 0.8245240791901576
11.1975234375 0.5569820416053222 0.8260450122971188
11.198671875 0.559141698982003 0.8262439733924104
11.1998203125 0.5583560742970675 0.8248486445649559
11.20096875 0.5616582715423616 0.8273296611654749
11.2021171875 0.5597448389392744 0.8267170374268618
11.203265625 0.5636022509129542 0.8289833066284178
11.2044140625 0.5677890282652468 0.8256621590335533
11.2055625 0.567588873287723 0.8275083974148245
11.2067109375 0.5680185525191637 0.8264422724972882
11.207859375 0.5685328020880438 0.825743794107266
11.2090078125 0.5701110407434313 0.8248238932061098
11.21015625 0.5727425105580483 0.8227379270431273
11.2113046875 0.5733355753315289 0.8244359922118286
11.212453125 0.5736604995363008 0.8198306119209327
11.2136015625 0.5704346906045534 0.8206960990960271
11.21475 0.5727879846979884 0.8232967180160067
11.2158984375 0.5738662320850149 0.8234150985676771
11.217046875 0.5719675847101364 0.8249164978193325
11.2181953125 0.5745999858301711 0.8225248142195914
11.21934375 0.577369457168711 0.8249140471780396
11.2204921875 0.5779805801431314 0.8237411354985882
11.221640625 0.5782948064832645 0.8235893971141515
11.2227890625 0.5794374110562396 0.8186372041839388
11.2239375 0.5824586459627652 0.8227397958778144
11.2250859375 0.5786118834586411 0.820782545989193
11.226234375 0.583359513441383 0.8208228842768338
11.2273828125 0.5860795383137822 0.8196632370043306
11.22853125 0.5868429410807238 0.8179566241664453
11.2296796875 0.5844758136534194 0.8177636579318397
11.230828125 0.586859334304594 0.8141320248947259
11.2319765625 0.5896582923410039 0.8166804208556474
11.233125 0.5902667272076767 0.817071677306474
11.2342734375 0.5952560842215951 0.8128755645379
11.235421875 0.5941227720183838 0.8121304949342905
11.2365703125 0.5956978090014955 0.8120284164391426
11.23771875 0.5942885922085265 0.8098779950215442
11.2388671875 0.5918650488048854 0.811367069497126
11.240015625 0.5911096477331725 0.810067531962304
11.2411640625 0.5900935203533659 0.8103074913619881
11.2423125 0.5948768163616821 0.8104994180799354
11.2434609375 0.5932530035947581 0.8126604611158915
11.244609375 0.5958818808829842 0.8104840090746194
11.2457578125 0.5957899067180649 0.8047958490045902
11.24690625 0.5975842507303561 0.8071081274410445
11.2480546875 0.5969119621321008 0.805350954773523
11.249203125 0.5987280551580245 0.8058563992384743
11.2503515625 0.5984429990977744 0.8036398890797171
11.2515 0.5986496083528745 0.805199567293462
11.2526484375 0.6006487298587819 0.8003058449373157
11.253796875 0.5988056646458753 0.8032012657709298
11.2549453125 0.6026794996224778 0.8026199859206273
11.25609375 0.6023763675410461 0.8025273963567903
11.2572421875 0.6037269955951605 0.8010120174862708
11.258390625 0.6053919860024161 0.7940134150480691
11.2595390625 0.6028363339518441 0.7958400283736131
11.2606875 0.6045977680161736 0.794888590954163
11.2618359375 0.6029288008014342 0.7945629432747685
11.262984375 0.6026281778427022 0.7918919100591535
11.2641328125 0.6028796254883854 0.7900025652469345
11.26528125 0.6026458435114339 0.7939077107998797
11.2664296875 0.6028895460156924 0.792282957955005
11.267578125 0.6024468701122847 0.7917034721409083
11.2687265625 0.6034526293775342 0.7893805862578662
11.269875 0.6025869748694463 0.7887964071580775
11.2710234375 0.6047861418442648 0.7885380052686749
11.272171875 0.6034318551632909 0.7878043060654507
11.2733203125 0.6032243972394015 0.7863046141098644
11.27446875 0.6050126801764151 0.788822024833313
11.2756171875 0.6052189283871525 0.7888291478931131
11.276765625 0.6065289564801893 0.7897228823609933
11.2779140625 0.6090513398309207 0.7871432082173105
11.2790625 0.6096422549996088 0.7854030207368607
11.2802109375 0.6089680772218278 0.7845730298772966
11.281359375 0.6107887190694816 0.7843342027412564
11.2825078125 0.6117569193175855 0.7834961355251707
11.28365625 0.6142945064743833 0.7804088196911267
11.2848046875 0.6144155289599533 0.7829400399055472
11.285953125 0.614502503085563 0.7815713158901887
11.2871015625 0.61649699351244 0.7792253179717694
11.28825 0.6193027064327145 0.7794597306392144
11.2893984375 0.6176675440014577 0.7769478904366427
11.290546875 0.6174507364605835 0.7792136137771766
11.2916953125 0.6186542030055212 0.7770252797657433
11.29284375 0.6188937014852273 0.7781606897591926
11.2939921875 0.6201656648666809 0.775880062508495
11.295140625 0.6236531239104057 0.7772373107008037
11.2962890625 0.623003480641086 0.7734094323246221
11.2974375 0.6212272758854587 0.7730178642244905
11.2985859375 0.6266569463436491 0.77411368928244
11.299734375 0.6225865369020616 0.7726359295436401
11.3008828125 0.6247470891732083 0.7681306793729666
11.30203125 0.6215968233260039 0.7728476169572982
11.3031796875 0.6252048076367249 0.7727443998657513
11.304328125 0.6242040298838205 0.7723647292335616
11.3054765625 0.6273424178961069 0.7709130632163037
11.306625 0.6284847999387837 0.7732894579245763
11.3077734375 0.6298110683267928 0.7713027896660372
11.308921875 0.6290548193522689 0.7708892872165863
11.3100703125 0.6302247911789474 0.7709353340363058
11.31121875 0.6304679062172216 0.7709670321249064
11.3123671875 0.6302623392637945 0.7683762871653496
11.313515625 0.6338895599019911 0.7700620753801249
11.3146640625 0.6340911202995945 0.7700947277750246
11.3158125 0.6311865710414896 0.7702579624120605
11.3169609375 0.6358233671941709 0.7661054247410958
11.318109375 0.6343151553079847 0.765922272364152
11.3192578125 0.6329428246389621 0.7678629768806864
11.32040625 0.6324145591765145 0.7672335649823374
11.3215546875 0.6357858484482378 0.7689178205572805
11.322703125 0.6359468540570348 0.7680674309066537
11.3238515625 0.6349264828131584 0.7658028439606527
11.325 0.6380360883769927 0.7665068472588055
11.3261484375 0.6393697160535639 0.7691555299391669
11.327296875 0.6404859684037523 0.7671539925434772
11.3284453125 0.6429479547373912 0.7643104631677312
11.32959375 0.6440225805796144 0.7641808453490476
11.3307421875 0.6443159751427863 0.7626387674948066
11.331890625 0.6434066784792982 0.7617995714493847
11.3330390625 0.6431753706164143 0.7618083361334623
11.3341875 0.6453120549771024 0.7616934428640703
11.3353359375 0.643978004765291 0.7601947786444678
11.336484375 0.6455729000088923 0.7598658772736715
11.3376328125 0.6459667332054706 0.7618891481614167
11.33878125 0.6465939612404925 0.7595787293814201
11.3399296875 0.648482326634405 0.75974642430611
11.341078125 0.6497826784423837 0.7600224728788317
11.3422265625 0.6498942719789037 0.7571592564521333
11.343375 0.6515974263171866 0.7559109669379841
11.3445234375 0.6513904677042237 0.7569707807893432
11.345671875 0.6516722332965995 0.7551922236823736
11.3468203125 0.6520839810959592 0.7538158205141923
11.34796875 0.6524952122398977 0.7524330023371738
11.3491171875 0.6534425549885169 0.7534970930130801
11.350265625 0.6530956496396306 0.7522580127448786
11.3514140625 0.6527087701825898 0.7502597200250205
11.3525625 0.6527850677561653 0.7517958859757834
11.3537109375 0.654204894778254 0.7530546334000343
11.354859375 0.6559770917341823 0.7508983037481682
11.3560078125 0.6553587066502788 0.7510862720080799
11.35715625 0.6562141046652503 0.7517588781238206
11.3583046875 0.6536501405603761 0.7527791344351598
11.359453125 0.6567612431071843 0.750566257162202
11.3606015625 0.6578920783414 0.7500531964165553
11.36175 0.6586614117527883 0.7491963283485394
11.3628984375 0.6608413054454823 0.7482245439382151
11.364046875 0.660601135394606 0.7488747791005352
11.3651953125 0.6605300110925143 0.7474766896051901
11.36634375 0.6600749350638977 0.7483131617539267
11.3674921875 0.6604157845256537 0.7486317319031455
11.368640625 0.662208093531176 0.7504147010884723
11.3697890625 0.6659430544437047 0.7480414347664499
11.3709375 0.6664882816487451 0.7480942220918603
11.3720859375 0.6654900098174701 0.7479829588323361
11.373234375 0.6689025258444602 0.7483095885080719
11.3743828125 0.6682541354160536 0.7474249805165403
11.37553125 0.6709983742087031 0.7470926089813403
11.3766796875 0.6701368483750971 0.7461131185474329
11.377828125 0.6728385510064969 0.7450302933224804
11.3789765625 0.6715782637409219 0.7442388683685737
11.380125 0.6750167422527593 0.7455690299391161
11.3812734375 0.6751216063581503 0.7449347233767245
11.382421875 0.6758661978083852 0.7438053446153488
11.3835703125 0.6772128951303913 0.743030757943004
11.38471875 0.6798703686525314 0.7461329217051209
11.3858671875 0.6811086714746105 0.7434874878416617
11.387015625 0.6825518721467501 0.7429491158046766
11.3881640625 0.68218524041426 0.742410300954338
11.3893125 0.6864868527617423 0.7396587101911882
11.3904609375 0.6849363105510287 0.7397911236681349
11.391609375 0.6860839844308215 0.7376896006402933
11.3927578125 0.6853028108592729 0.7370988121188065
11.39390625 0.6888722768064692 0.7357157218770065
11.3950546875 0.6901744138404038 0.735884051073189
11.396203125 0.6888845424383245 0.7359660713834271
11.3973515625 0.6914494211579831 0.7344354743303114
11.3985 0.69227476783545 0.731627441573209
11.3996484375 0.6915679278171785 0.7311452035640248
11.400796875 0.6933127827005345 0.7292172923744304
11.4019453125 0.6930347953612541 0.7295313072238861
11.40309375 0.6963569896486921 0.7272876612386725
11.4042421875 0.695099119795179 0.728601085884752
11.405390625 0.6983844363662896 0.7272432437062624
11.4065390625 0.6970067791317585 0.7257943772707006
11.4076875 0.6978446443270667 0.7252897142652732
11.4088359375 0.6982472353688236 0.7219934869678325
11.409984375 0.6998343484877678 0.7206423420382214
11.4111328125 0.699093185942874 0.7206944154112821
11.41228125 0.7008632470289939 0.7187724611191796
11.4134296875 0.6982614294321524 0.7156216220696834
11.414578125 0.7004370811488486 0.7193402727027416
11.4157265625 0.7007178839893476 0.7172503521187203
11.416875 0.7034295373446336 0.7178642020280974
11.4180234375 0.7030657802373822 0.7146927192570447
11.419171875 0.703315230837149 0.7136978839068959
11.4203203125 0.7034541615828536 0.7119428562247534
11.42146875 0.7025079432892554 0.7103177291753742
11.4226171875 0.7047152543118307 0.7083513435339406
11.423765625 0.7027738222459532 0.7081804407220915
11.4249140625 0.7029167540503664 0.7070060502208526
11.4260625 0.7029936221799589 0.7083648610172328
11.4272109375 0.7036526481479688 0.7055813236254731
11.428359375 0.7033760174998047 0.7066023601984752
11.4295078125 0.7033178262285054 0.7048706594681102
11.43065625 0.7026291399460347 0.7053621769067759
11.4318046875 0.705145172651519 0.7058057737375304
11.432953125 0.7068000012945569 0.7059794120267002
11.4341015625 0.7085809634055998 0.7040369099177614
11.43525 0.7066483757199563 0.7037840957299609
11.4363984375 0.7088362084643838 0.7016509762010494
11.437546875 0.7115416729488584 0.6997628690395312
11.4386953125 0.7120237140945409 0.7011232057963465
11.43984375 0.7102233747007335 0.6996027606892739
11.4409921875 0.7112252060107898 0.6979401563025928
11.442140625 0.7122792937027914 0.696963338845349
11.4432890625 0.7109485648521308 0.6963571024152801
11.4444375 0.7110514568711331 0.6964949242816713
11.4455859375 0.7118678742562317 0.6955247683541818
11.446734375 0.7117947025348906 0.6952100828220492
11.4478828125 0.7123135276527163 0.6962428445918458
11.44903125 0.714136137963685 0.6948623118390104
11.4501796875 0.7144786412419051 0.6949912298519076
11.451328125 0.7133399555224706 0.6934691081224947
11.4524765625 0.7140048281466168 0.6941999725658485
11.453625 0.7152943094737678 0.692283891693703
11.4547734375 0.7145096873498764 0.6922847702014655
11.455921875 0.7157478787411139 0.6922308140248005
11.4570703125 0.7164048363349405 0.69268691418264
11.45821875 0.7167383271687233 0.6926999383002922
11.4593671875 0.7175180194022374 0.6928850373733708
11.460515625 0.7188307898252189 0.69117316496568
11.4616640625 0.718820216957728 0.6920372519992225
11.4628125 0.7187463114100762 0.6913643400233147
11.4639609375 0.7196773110404361 0.6899900664458118
11.465109375 0.7202791177764385 0.6912069602757844
11.4662578125 0.7218162968232158 0.6896086947791745
11.46740625 0.722227564200085 0.6885831951626451
11.4685546875 0.7239997136146642 0.687566718684803
11.469703125 0.7248988891468695 0.6887370340701446
11.4708515625 0.7247366654117067 0.6878978649699653
11.472 0.7257334148703009 0.6863169384346585
11.4731484375 0.7252967443347509 0.685688866060213
11.474296875 0.7263496316246055 0.6851505158860055
11.4754453125 0.7264067622846698 0.6847189683304052
11.47659375 0.7265667324356057 0.6850863639398108
11.4777421875 0.7268369382520525 0.6857817232868606
11.478890625 0.7276000787146469 0.6849861233426682
11.4800390625 0.7283415992202015 0.6845886954023315
11.4811875 0.7298895303677229 0.6846080976921856
11.4823359375 0.7321453420747065 0.6842007099945658
11.483484375 0.7325474517233965 0.6831301462609544
11.4846328125 0.733107628809147 0.683753789546474
11.48578125 0.7328538033617766 0.682764928174756
11.4869296875 0.7354232832998666 0.6816125903148305
11.488078125 0.735576432843038 0.6797023644514144
11.4892265625 0.7369059016619792 0.6788206615380421
11.490375 0.7384583867775896 0.6784729474467153
11.4915234375 0.7373503560689313 0.676907293304431
11.492671875 0.7378422412412318 0.6766483501668904
11.4938203125 0.7378730140892638 0.6758050121777454
11.49496875 0.7402329323662977 0.6747183319485743
11.4961171875 0.7401004138719007 0.6753957110203281
11.497265625 0.7402743269459344 0.6752736697499406
11.4984140625 0.7416819234733091 0.6740464638987477
11.4995625 0.7405210063960477 0.6727680391513393
11.5007109375 0.7420869373031014 0.6723973252661516
11.501859375 0.744447200155443 0.6723851058682502
11.5030078125 0.7434691714609206 0.6712961324106924
11.50415625 0.7432925832780531 0.6713993936916777
11.5053046875 0.7448329026871747 0.6712238513778346
11.506453125 0.7455795346156373 0.6710837730566864
11.5076015625 0.7466002552864834 0.6705841572143028
11.50875 0.7479412358535107 0.6698981841727969
11.5098984375 0.7489312711335843 0.6688646836948126
11.511046875 0.7495944968595116 0.6674511526963245
11.5121953125 0.7503670680041962 0.6670749826403789
11.51334375 0.7518384037612953 0.6654697102008038
11.5144921875 0.751429881004607 0.6658250910975321
11.515640625 0.7533016321597762 0.6639602060022827
11.5167890625 0.7540116871201163 0.6628061984409436
11.5179375 0.7549514880650849 0.6611360628967389
11.5190859375 0.7546868490300471 0.6610176039938751
11.520234375 0.7558496432111778 0.660592632658574
11.5213828125 0.7568533779063307 0.6598236857504576
11.52253125 0.7574557999861704 0.6592642047298081
11.5236796875 0.7577766499394434 0.6589841083965966
11.524828125 0.7596020556745875 0.6579201760030223
11.5259765625 0.7604011274241719 0.6570895824997466
11.527125 0.7607473366160256 0.6564958214932575
11.5282734375 0.7618250956939685 0.6539682954302157
11.529421875 0.7616073147779918 0.6536319465622756
11.5305703125 0.7616012156050543 0.6522980237454893
11.53171875 0.7628488145212124 0.6514797395306947
11.5328671875 0.7634844295293062 0.6506292148517523
11.534015625 0.7628129709277214 0.6497614799540332
11.5351640625 0.7634486886221954 0.6489239868500213
11.5363125 0.7644240936582865 0.6482628429070255
11.5374609375 0.764334431937844 0.649154565008142
11.538609375 0.7636144990784708 0.6480517352054185
11.5397578125 0.766169790659113 0.6457867316473529
11.54090625 0.7657831779485404 0.6464102680297252
11.5420546875 0.7660145178286699 0.6458725878786526
11.543203125 0.7668060724099125 0.6453744300950014
11.5443515625 0.7675714657355985 0.6446018514390353
11.5455 0.7681723812056691 0.6442842914786476
11.5466484375 0.7685567953081396 0.6425957048875455
11.547796875 0.7692789367950309 0.6425530984776738
11.5489453125 0.7706263659414011 0.6419176256221716
11.55009375 0.7701933680350681 0.6412805989180314
11.5512421875 0.7723223431293053 0.6400424343553849
11.552390625 0.7712604198993401 0.6387469260269327
11.5535390625 0.7719188978014138 0.6385082546196894
11.5546875 0.7722192444326526 0.6373268909746351
11.5558359375 0.7715457114814638 0.6381327904575504
11.556984375 0.7722395518668219 0.6384763283022362
11.5581328125 0.7724706222731758 0.6381685960442074
11.55928125 0.7746805062704839 0.6376178436364622
11.5604296875 0.7756186351801173 0.6370665538335056
11.561578125 0.7756815091778411 0.6368313657871832
11.5627265625 0.777696510602242 0.6357812404221144
11.563875 0.7782917145094048 0.635395499061515
11.5650234375 0.7782745459047241 0.6351125299563665
11.566171875 0.7804384801124512 0.634100430855562
11.5673203125 0.7805465325495219 0.6330181939552497
11.56846875 0.782319983957842 0.6329255445427497
11.5696171875 0.7836358419009721 0.6319688308395757
11.570765625 0.7839440496632041 0.6304960793770801
11.5719140625 0.7848790854039858 0.62967224522684
11.5730625 0.7843007714207405 0.6284307742640504
11.5742109375 0.7849926110289595 0.6270968055065728
11.575359375 0.7853689579175199 0.6265269851359141
11.5765078125 0.7859753968862426 0.6264187145003883
11.57765625 0.7871131428890327 0.6247230126646723
11.5788046875 0.7874598539813349 0.6243685579667123
11.579953125 0.7868975720137081 0.6233600751670307
11.5811015625 0.7887444535072687 0.6227801430013484
11.58225 0.7880056327462672 0.6213517029508562
11.5833984375 0.7887443562528116 0.6203244503144587
11.584546875 0.787729024118952 0.6185832486538514
11.5856953125 0.7873370435161889 0.6197466855995928
11.58684375 0.7877768148282264 0.6187144312370105
11.5879921875 0.7892477798792986 0.6184649873839125
11.589140625 0.7887875305359615 0.6182950433941938
11.5902890625 0.7888149865581369 0.6180989743281666
11.5914375 0.7900460034144334 0.6166445793232886
11.5925859375 0.7918751063148803 0.6170551389290085
11.593734375 0.7911503591779585 0.6169890830928388
11.5948828125 0.7914443204740536 0.6150349038861118
11.59603125 0.7927456826003989 0.6138519837906109
11.5971796875 0.7930233143353685 0.6140346084788597
11.598328125 0.793760667551937 0.6147014071517074
11.5994765625 0.7951126441876573 0.6136202805481097
11.600625 0.7958624093468881 0.6121425031860811
11.6017734375 0.7962083970936984 0.611411470338207
11.602921875 0.7950979547371063 0.6116933953540563
11.6040703125 0.7985475671263262 0.6096849623301965
11.60521875 0.7983350301089769 0.6081248862596109
11.6063671875 0.7986492063580002 0.6077353928161989
11.607515625 0.7996610203484849 0.6067339661517321
11.6086640625 0.7994495088770809 0.6048900186055985
11.6098125 0.8001306676746591 0.6068430345160832
11.6109609375 0.7982590512815501 0.6043228747875847
11.612109375 0.7996316732827975 0.6042484730213996
11.6132578125 0.7978439476248905 0.6041838489102392
11.61440625 0.7987867979146835 0.6037515174613937
11.6155546875 0.7990364699160705 0.6035108257075451
11.616703125 0.7991668923735366 0.6046916904712366
11.6178515625 0.7993685056676839 0.6035134638692887
11.619 0.8015814218757472 0.6033809702968832
11.6201484375 0.8009779953015069 0.6023525477537333
11.621296875 0.8018785862031028 0.6022691747249127
11.6224453125 0.8024906024054548 0.602442828542747
11.62359375 0.8020493040191633 0.6020835339040052
11.6247421875 0.802732743734662 0.6017693296853319
11.625890625 0.8037477272029764 0.6023260306984728
11.6270390625 0.8047640209781 0.6029269262032793
11.6281875 0.805436303745799 0.6028225349335492
11.6293359375 0.8063251466691952 0.6018433438782557
11.630484375 0.8078799230273701 0.6017348611143258
11.6316328125 0.809902352160906 0.6012407003537733
11.63278125 0.8100861256134408 0.6018699088425423
11.6339296875 0.8126568977922104 0.6004195753285684
11.635078125 0.8124249238535335 0.6006843677113276
11.6362265625 0.8146891553762168 0.6006958895416926
11.637375 0.8163739530246898 0.598542411416665
11.6385234375 0.8167649085534253 0.5967756878992163
11.639671875 0.817081541853397 0.5964475451725626
11.6408203125 0.8187045050058789 0.5944876901347891
11.64196875 0.8201803658049833 0.5935824761198422
11.6431171875 0.8198026912557601 0.5919979586726483
11.644265625 0.8199309709738337 0.5924584759849393
11.6454140625 0.8201443102819559 0.5901957404501381
11.6465625 0.8192410572594372 0.5904517772446132
11.6477109375 0.8198779413477659 0.5897474745987739
11.648859375 0.8221794038542697 0.5886781922924942
11.6500078125 0.8219708332022959 0.5902906750165829
11.65115625 0.8231137864198125 0.5890304420072083
11.6523046875 0.8235195094014691 0.5881281615161371
11.653453125 0.8243737734933572 0.5877280985086553
11.6546015625 0.8263670017726876 0.5866346036145444
11.65575 0.8269560017892703 0.5864368167070922
11.6568984375 0.8273575828640891 0.5843540701347097
11.658046875 0.8279440718802545 0.5849812057113783
11.6591953125 0.8286020238036556 0.5837698649125886
11.66034375 0.8291949845539643 0.5830372898014925
11.6614921875 0.831919554050973 0.5834043279613226
11.662640625 0.8321043864097473 0.5828821578073877
11.6637890625 0.8321021143450794 0.5811459231795304
11.6649375 0.833570301011351 0.5816413188723469
11.6660859375 0.8335973952801773 0.5800288112781494
11.667234375 0.8341441594405137 0.579972754062324
11.6683828125 0.8349568754555814 0.580416605832367
11.66953125 0.8363295779623884 0.5793647949095672
11.6706796875 0.8375550842258825 0.5776422225467059
11.671828125 0.837921897819156 0.5794802322554953
11.6729765625 0.8389487551173991 0.5770464847782144
11.674125 0.8390346572885592 0.5758645914965725
11.6752734375 0.842342152314148 0.5762319533120639
11.676421875 0.8415852172191558 0.5750813473812625
11.6775703125 0.8435038746751047 0.5740501729068285
11.67871875 0.844908041484969 0.5724539257568579
11.6798671875 0.8447157839321379 0.5725624345071909
11.681015625 0.8456294301631189 0.5725979491572042
11.6821640625 0.8460118504954139 0.572339891464938
11.6833125 0.8480739124628166 0.5711884862297723
11.6844609375 0.8469318839740813 0.5700735335597961
11.685609375 0.8480935595607956 0.5688717772383459
11.6867578125 0.8512115998553216 0.5687377686385406
11.68790625 0.849123719428085 0.5663580873591558
11.6890546875 0.8512189682762616 0.5665933235575953
11.690203125 0.8509311947947396 0.564881658454391
11.6913515625 0.8511535066503565 0.5637702342179168
11.6925 0.8521820171698773 0.5634543322640526
11.6936484375 0.8526024448829566 0.5638654754473578
11.694796875 0.8535258183766696 0.5622870077761244
11.6959453125 0.8545813594877707 0.5629870684232567
11.69709375 0.8553131555459393 0.5603347023841299
11.6982421875 0.8572108646655228 0.5608196864275451
11.699390625 0.8563481070241206 0.5605004115663794
11.7005390625 0.8574815435034026 0.5585175056388929
11.7016875 0.8585484053166332 0.5577091643819051
11.7028359375 0.8599708822120582 0.5560104207307548
11.703984375 0.8602028492234733 0.5549273249411701
11.7051328125 0.8618717234416786 0.5533338214909567
11.70628125 0.8612516942876508 0.5540432660965562
11.7074296875 0.8618017744041833 0.5527916229577702
11.708578125 0.8630935810707715 0.5519272173179609
11.7097265625 0.8643119098891052 0.5499331738267654
11.710875 0.8660382951585529 0.5509954776692411
11.7120234375 0.8685332026860404 0.5489529301392183
11.713171875 0.8696516382794302 0.5462603655184222
11.7143203125 0.8688740019134508 0.5438262028957574
11.71546875 0.8692749669431824 0.5441936735446057
11.7166171875 0.869896947264476 0.5418939468309618
11.717765625 0.8689672624865667 0.5403343096515969
11.7189140625 0.8707140413706204 0.5397422304933952
11.7200625 0.8713461653570085 0.5386333354845972
11.7212109375 0.8712663075908853 0.5381084627203758
11.722359375 0.8728930426415921 0.5364096681021873
11.7235078125 0.8738163332318569 0.5333180573737399
11.72465625 0.8726093534913315 0.5334348833940055
11.7258046875 0.8726414355103356 0.5337155870551265
11.726953125 0.8718314430814249 0.530432585445142
11.7281015625 0.872250825700406 0.5303540760513671
11.72925 0.8733772476407609 0.5283588776072609
11.7303984375 0.8732999462801742 0.5278803156685861
11.731546875 0.8725591205065248 0.5284444155999822
11.7326953125 0.8737608232988929 0.529311309239189
11.73384375 0.8750752877587042 0.5281289102875069
11.7349921875 0.8750070149363218 0.5263953432399529
11.736140625 0.8761902347591438 0.5264665492414782
11.7372890625 0.876262049448078 0.5248696276139468
11.7384375 0.878387861625129 0.5237900472213468
11.7395859375 0.8787140315651686 0.5228039362176985
11.740734375 0.8802719099263295 0.5213804631186487
11.7418828125 0.8801399546083069 0.5184907005950873
11.74303125 0.8794684567717066 0.5159039880816046
11.7441796875 0.8802847377205041 0.5176556073931304
11.745328125 0.879268194896684 0.5161302180101204
11.7464765625 0.8802343617379966 0.5147158253020724
11.747625 0.8817619408800617 0.5146216208322308
11.7487734375 0.8804396978598772 0.5131516874732115
11.749921875 0.880220583900052 0.5122032528352813
11.7510703125 0.8817137415231977 0.5117026260538243
11.75221875 0.8807205853666042 0.5096355309352298
11.7533671875 0.8809273377590513 0.5089555717948739
11.754515625 0.8825223232319775 0.5084614521014823
11.7556640625 0.8806475408139482 0.5061683951332777
11.7568125 0.8817654679317101 0.5061243452344761
11.7579609375 0.8824416466880957 0.5057624014708808
11.759109375 0.8825579196572313 0.5056041566752314
11.7602578125 0.8802987641630469 0.5046602898481793
11.76140625 0.8810680575506026 0.501655575322442
11.7625546875 0.8825536144724949 0.5011655706137497
11.763703125 0.8813444686753417 0.5016969499030096
11.7648515625 0.8822608133155697 0.5010168069836133
11.766 0.8824634618683345 0.5010098617014844
11.7671484375 0.8805519350576677 0.4985792655182279
11.768296875 0.8805286413552622 0.497643796204154
11.7694453125 0.8818934521466784 0.49701179284779173
11.77059375 0.8799809700530079 0.4970266727880269
11.7717421875 0.8809255795614336 0.4969838785489412
11.772890625 0.8803634933022819 0.4950808287123741
11.7740390625 0.8809479230251185 0.4969960608117927
11.7751875 0.8788256814613259 0.4972590029219761
11.7763359375 0.8797307591144394 0.4974181605072769
11.777484375 0.8821094644324523 0.4996915597376298
11.7786328125 0.8815928820672803 0.49829866871977946
11.77978125 0.8808323618280067 0.49840268451874015
11.7809296875 0.8847751424352214 0.4975607099855847
11.782078125 0.8850468930022242 0.497453712446513
11.7832265625 0.8847993124404621 0.4982314761847957
11.784375 0.888132577004363 0.4977402988689257
11.7855234375 0.88801563578604 0.4971280360991635
11.786671875 0.8884482589913727 0.4935300454479854
11.7878203125 0.8900293250593478 0.4945937445317344
11.78896875 0.8901576890821157 0.4937464998374801
11.7901171875 0.8892643666531804 0.49128304559646563
11.791265625 0.8895710656328979 0.4923181594596279
11.7924140625 0.8913347241011954 0.48964281081455946
11.7935625 0.893232221677861 0.49182461298453484
11.7947109375 0.8927414978125048 0.48875990119035895
11.795859375 0.892109051855049 0.48935200349184926
11.7970078125 0.892503476597694 0.4881180248819576
11.79815625 0.8935749074183209 0.48726102454909703
11.7993046875 0.8974086085594387 0.4862585108979448
11.800453125 0.8979634317484582 0.48521411247087914
11.8016015625 0.8958878634356557 0.4845476075088814
11.80275 0.8966005836921516 0.48285172223881506
11.8038984375 0.8983109356771825 0.48208362865848586
11.805046875 0.8959923353740368 0.4803673898913523
11.8061953125 0.8980107957218364 0.4807345554323127
11.80734375 0.8984094628577101 0.479906926618078
11.8084921875 0.8983425163054972 0.4794577403000101
11.809640625 0.8971873583080184 0.47859997986240715
11.8107890625 0.9002062931023818 0.47875366051730883
11.8119375 0.9017787957906103 0.47802862093410675
11.8130859375 0.9020405795440738 0.47574853739567574
11.814234375 0.9023112951016392 0.47478370204541664
11.8153828125 0.9028868968677486 0.47266161946212465
11.81653125 0.9037093511957935 0.4719330701169831
11.8176796875 0.9043520704517656 0.4703767535799447
11.818828125 0.9049655397590182 0.4689236617043187
11.8199765625 0.9017831021016482 0.46826492237561834
11.821125 0.9028482698311682 0.4654211824668224
11.8222734375 0.9042871080804799 0.46525258110174106
11.823421875 0.9028117401932344 0.4644104257067594
11.8245703125 0.9042173973813741 0.46452095910990293
11.82571875 0.9047819126710475 0.462639294369975
11.8268671875 0.9029584000645963 0.4614807823567543
11.828015625 0.9020006852287576 0.4620778111619157
11.8291640625 0.9038171422405836 0.4632325770108527
11.8303125 0.9046581451518098 0.4625482085128678
11.8314609375 0.9051263118391683 0.46252400705896285
11.832609375 0.9052704298599875 0.46096931636487726
11.8337578125 0.906350206038258 0.4608228737161008
11.83490625 0.9076255519253387 0.4617683302002439
11.8360546875 0.908058044499054 0.45899047255741254
11.837203125 0.9085950039747871 0.45821368975400845
11.8383515625 0.9085251988411129 0.4568800379365845
11.8395 0.9088399629081667 0.4570501647838805
11.8406484375 0.9107147417226978 0.4557110914952879
11.841796875 0.9115418847598701 0.45586312873594936
11.8429453125 0.9119067893424324 0.4547493214887782
11.84409375 0.91263792741509 0.4517538420001379
11.8452421875 0.9123621178798131 0.4505464135205744
11.846390625 0.9126438332379623 0.45047553138901275
11.8475390625 0.9131401740263108 0.4491788361931103
11.8486875 0.913786084237082 0.44854374549105797
11.8498359375 0.9145482089642067 0.4481220802055589
11.850984375 0.9166683288632631 0.4466402828032259
11.8521328125 0.9159102875344228 0.4440253253032213
11.85328125 0.9153917177902225 0.44310623448851266
11.8544296875 0.917016703991116 0.44206818635587986
11.855578125 0.9148252059395128 0.4403398299518354
11.8567265625 0.9157717589077142 0.4385521471584198
11.857875 0.914937141319001 0.4385937201190813
11.8590234375 0.9160740653055888 0.4369276658044406
11.860171875 0.9150017664111165 0.4360333266286311
11.8613203125 0.9146478109719028 0.4359723816840838
11.86246875 0.9149816088825382 0.4368995263017066
11.8636171875 0.9145049243041201 0.43719829472462646
11.864765625 0.9143649526923568 0.43512066216732814
11.8659140625 0.9168466953588319 0.43365055049881385
11.8670625 0.9167608430752081 0.43328360224692164
11.8682109375 0.9162705019828365 0.43253127087930676
11.869359375 0.9184882008246409 0.4323170705870241
11.8705078125 0.9176618174062997 0.4304059698355605
11.87165625 0.9177197373120936 0.42785099289943224
11.8728046875 0.9165340826106139 0.4282133988862618
11.873953125 0.9172796461227389 0.42780005202060545
11.8751015625 0.9183658904418566 0.4258289498472668
11.87625 0.9175260297321525 0.4250033614348572
11.8773984375 0.9171046251706408 0.42413101186222774
11.878546875 0.9168680940372747 0.4233495610018754
11.8796953125 0.9181921394777656 0.42315252447424156
11.88084375 0.9178844646925688 0.42367228104118926
11.8819921875 0.9188280751308116 0.4208171749934435
11.883140625 0.9189828271266843 0.42065457559093905
11.8842890625 0.9178672653027522 0.4184776961883505
11.8854375 0.9174727683022467 0.41737329387909217
11.8865859375 0.9175660977856596 0.416747817823889
11.887734375 0.9179529201714183 0.41728878494808264
11.8888828125 0.9188274159625114 0.41774148007441725
11.89003125 0.9195872547935193 0.41669880494097583
11.8911796875 0.919745187257659 0.41713443918078646
11.892328125 0.9210698036629809 0.416573796521174
11.8934765625 0.9207362471696465 0.41544503321590825
11.894625 0.9220765067770635 0.4142373054221893
11.8957734375 0.9219354718217879 0.41346510319629654
11.896921875 0.9217821901187025 0.4112634043371204
11.8980703125 0.9224716865647793 0.40924188010619833
11.89921875 0.9226744626252921 0.4085271253542273
11.9003671875 0.9229597425435 0.40691022275290606
11.901515625 0.9222025094500514 0.40478540258497575
11.9026640625 0.9217921893603069 0.40452119217686167
11.9038125 0.9198473274255509 0.40378633481481124
11.9049609375 0.9197293122812553 0.4020538599186518
11.906109375 0.9180395699167354 0.40228993251710676
11.9072578125 0.9181115886540756 0.40333152933221444
11.90840625 0.9178396073921823 0.4026907511801533
11.9095546875 0.9173859599622878 0.4034631745926543
11.910703125 0.9169965818965147 0.4042346554448648
11.9118515625 0.9163383228220257 0.40417934460301097
11.913 0.916846385616461 0.404204956940042
11.9141484375 0.9187730791842158 0.4044493656716243
11.915296875 0.9175438495915766 0.40419808897501686
11.9164453125 0.917773785136733 0.40458348198365934
11.91759375 0.9192679163920925 0.40586605365260175
11.9187421875 0.9203700001094333 0.404255661905085
11.919890625 0.9209660324515052 0.40644042964188554
11.9210390625 0.9235061235572208 0.4067272881108163
11.9221875 0.9247412605571312 0.40321766574461076
11.9233359375 0.9258941867274595 0.40315006978164747
11.924484375 0.9254797991544819 0.4012813169262459
11.9256328125 0.9260698609499337 0.3999247066101495
11.92678125 0.9259853684981781 0.3991669132629912
11.9279296875 0.9280067803066282 0.39657689235440835
11.929078125 0.9268309521484488 0.3960003804206391
11.9302265625 0.9248820378893352 0.3960303017174083
11.931375 0.9265754036836722 0.395017972758747
11.9325234375 0.9240198419643623 0.3956550780558685
11.933671875 0.924799247115495 0.39410331026029
11.9348203125 0.9256324455966618 0.3963165158255528
11.93596875 0.923318858435731 0.396181467475145
11.9371171875 0.9272167844979656 0.3964818358405887
11.938265625 0.9247556698128475 0.39613616073505864
11.9394140625 0.9291945991935382 0.3993089505953983
11.9405625 0.9298301414085421 0.3985935619728553
11.9417109375 0.9302328135399784 0.3976536581577831
11.942859375 0.9321488816168191 0.3980995885620468
11.9440078125 0.9316764078776747 0.3964301695097005
11.94515625 0.9320613743765487 0.3976715712672093
11.9463046875 0.9326823075093014 0.39823626077977736
11.947453125 0.9359708106299415 0.39924572959924176
11.9486015625 0.9377204239478198 0.4012543630926176
11.94975 0.9413477532355853 0.4007555340349409
11.9508984375 0.9422319169007184 0.39960696192975587
11.952046875 0.9442730624905058 0.39970064845626396
11.9531953125 0.9449102496229064 0.39883110554097945
11.95434375 0.9496651467931798 0.39917550563170606
11.9554921875 0.9544416822714932 0.39852386414697966
11.956640625 0.9575829190578549 0.3927956522596189
11.9577890625 0.9597927822643797 0.39195890323635035
11.9589375 0.961660217336283 0.3886636666817945
11.9600859375 0.9649991181691409 0.3847589086602053
11.961234375 0.9655173034973662 0.38239820126413393
11.9623828125 0.9661050123621672 0.3800022598356572
11.96353125 0.9671505131191164 0.3760763012810206
11.9646796875 0.9666712646920675 0.37330786853901166
11.965828125 0.9671204714318494 0.37035400700558385
11.9669765625 0.9671522756962976 0.3671331993506173
11.968125 0.9671939789162936 0.363782634409515
11.9692734375 0.9644294642602779 0.36184199056666766
11.970421875 0.9642589896556125 0.3622363934553001
11.9715703125 0.9642123243787184 0.35999946037287733
11.97271875 0.9641561539209567 0.3588781217200703
11.9738671875 0.9648832621522924 0.35771954386838084
11.975015625 0.9648461236183637 0.35572499810644304
11.9761640625 0.9645042292622746 0.35416931739674196
11.9773125 0.9658709498902793 0.3540207026320261
11.9784609375 0.9666225991350796 0.35327412185720286
11.979609375 0.9660146955554554 0.3496424330383011
11.9807578125 0.96809595705255 0.34862686019103295
11.98190625 0.9670049448937944 0.34501578161876634
11.9830546875 0.9650489033423113 0.3421979749082887
11.984203125 0.9665528087396371 0.3405893915255159
11.9853515625 0.9664255012556018 0.3396453966134261
11.9865 0.9656766864660409 0.3378293956031071
11.9876484375 0.9637832861097682 0.33519333929580997
11.988796875 0.9625242331043796 0.33309671997640206
11.9899453125 0.9603086159480189 0.33182730826071416
11.99109375 0.960362947273409 0.32920860989628
11.9922421875 0.9612060392828435 0.32897805807183733
11.993390625 0.9597257224074833 0.32866461607869807
11.9945390625 0.9587702448488101 0.327719443372801
11.9956875 0.9586043103580342 0.32679735538628674
11.9968359375 0.9584685249154408 0.3250397656224463
11.997984375 0.9574082311564932 0.32444158970864534
11.9991328125 0.9562602900012593 0.32162545897451716
12.00028125 0.9549237388602563 0.3208124307193633
12.0014296875 0.9541108372625372 0.32045195864477954
12.002578125 0.9511482670657364 0.3212124403227895
12.0037265625 0.9512907741992955 0.3201492616106237
12.004875 0.951884143857458 0.3202457193870969
12.0060234375 0.9514215791849259 0.32005140105046875
12.007171875 0.9511266428740682 0.31973376537141635
12.0083203125 0.9525173415644321 0.31928565447641893
12.00946875 0.9512768584911 0.3183404600524453
12.0106171875 0.9518587725343755 0.3165815554651825
12.011765625 0.9509851909099792 0.31650094901938425
12.0129140625 0.9507349178986578 0.31461115455944233
12.0140625 0.9495880357531572 0.31433851194318124
12.0152109375 0.9503780828653584 0.3141721435242073
12.016359375 0.9497868197462223 0.3130259770227426
12.0175078125 0.9499531225642321 0.31307025945634076
12.01865625 0.9505226446703692 0.3135136641435374
12.0198046875 0.9497875310590207 0.31159967374079645
12.020953125 0.9486524827427911 0.31209762285203946
12.0221015625 0.94885142377111 0.310537201040905
12.02325 0.9495417899538773 0.3105026249104631
12.0243984375 0.9477119678115618 0.30969760376866795
12.025546875 0.9477666576650656 0.31001640448701134
12.0266953125 0.9474023817677468 0.3091593816695487
12.02784375 0.9472737079616034 0.30820850435200936
12.0289921875 0.9458573471009547 0.3087948012310653
12.030140625 0.9463205294109226 0.3092029012141456
12.0312890625 0.9480787450298086 0.3070574614007812
12.0324375 0.947493576116057 0.30919117792828366
12.0335859375 0.9460811327530433 0.3084840226608969
12.034734375 0.9474916936184973 0.3062598566742095
12.0358828125 0.9469298647627249 0.3071041320556993
12.03703125 0.9465612547074236 0.30662478356412165
12.0381796875 0.9480129860477151 0.3069386228957402
12.039328125 0.9507962551064513 0.3051607943897694
12.0404765625 0.9497841863084339 0.30646365224902833
12.041625 0.9476519170985533 0.3052308212060654
12.0427734375 0.9483944727754972 0.30222623739157767
12.043921875 0.9482209554658445 0.3029261336226564
12.0450703125 0.9468904970338288 0.3052767011993469
12.04621875 0.9479296528905445 0.3044234996078417
12.0473671875 0.9459424250331644 0.3052275652982596
12.048515625 0.9469665859848433 0.30525255547375774
12.0496640625 0.9491377443534239 0.30489623093385104
12.0508125 0.949253248962658 0.3022258103453211
12.0519609375 0.9504878263504799 0.30438743903986093
12.053109375 0.952591340325128 0.3064531348935935
12.0542578125 0.9540398290495807 0.3044268816603434
12.05540625 0.9531847361057524 0.3039304883974795
12.0565546875 0.9566335344346865 0.2989264327366937
12.057703125 0.9580279217172512 0.30006856832008694
12.0588515625 0.9578603453421776 0.2980780192110016
12.06 0.9569455328956963 0.2966496992188698
12.0611484375 0.9561429196250167 0.2949339767466031
12.062296875 0.9553508363865797 0.2952176183745413
12.0634453125 0.9543048271095098 0.29324258070663944
12.06459375 0.9559412155507129 0.2916678294872129
12.0657421875 0.954882082715375 0.29139870088354936
12.066890625 0.9546081730580436 0.2930563864583012
12.0680390625 0.9546455345507757 0.2918005014589814
12.0691875 0.9549013318012445 0.29057020188578153
12.0703359375 0.9556054830000451 0.29247439044475054
12.071484375 0.9554656957878707 0.2896344136366801
12.0726328125 0.9576392048503255 0.29100250476031375
12.07378125 0.9562140575120357 0.2903743279116969
12.0749296875 0.9570716859935652 0.288733549629298
12.076078125 0.9584450344514526 0.2873091603327816
12.0772265625 0.9596447414915633 0.287428838215078
12.078375 0.9599992032365653 0.2859047713199673
12.0795234375 0.9593500495596097 0.2853546680218642
12.080671875 0.9595419702620663 0.28626214917826825
12.0818203125 0.9602229362650103 0.2839880691769782
12.08296875 0.960530169212924 0.2830849924794744
12.0841171875 0.9612019250904407 0.2811362306373949
12.085265625 0.961466303363731 0.2805322741184268
12.0864140625 0.9607543047444745 0.2795076862276293
12.0875625 0.9627169579611612 0.27870609252138967
12.0887109375 0.9629218871056753 0.2776415528212033
12.089859375 0.9641968609215996 0.27633836220259417
12.0910078125 0.9630012411361121 0.2746754508701392
12.09215625 0.9633407078348095 0.2744035002796809
12.0933046875 0.9620564610434643 0.27302934122494615
12.094453125 0.9647668424447664 0.2705356408641167
12.0956015625 0.9662338476632328 0.27092308782017427
12.09675 0.9635063036562007 0.26984541199301826
12.0978984375 0.9614192979026233 0.27129032895759103
12.099046875 0.9630676918035765 0.26896563722466116
12.1001953125 0.9630601292016567 0.2688285355286563
12.10134375 0.963247920974472 0.2681703777657234
12.1024921875 0.9626608208720759 0.26629918633049127
12.103640625 0.964049640050124 0.26817381047301725
12.1047890625 0.9652560255745817 0.2646328255296719
12.1059375 0.9626628632538803 0.2668788127999923
12.1070859375 0.9645858609912977 0.26652962935606045
12.108234375 0.9662331363425666 0.2656598960702297
12.1093828125 0.9674371994530739 0.2632009576612632
12.11053125 0.967879205381968 0.26076054000620774
12.1116796875 0.9667815795875307 0.2589487353870255
12.112828125 0.969494591427355 0.257599573897132
12.1139765625 0.9676822860136873 0.2599864681711789
12.115125 0.9688560989531596 0.26037416518961354
12.1162734375 0.9655246422566321 0.25587109465887165
12.117421875 0.9647235255385332 0.2572569422227353
12.1185703125 0.9713094973634203 0.2574914093766204
12.11971875 0.9692313562558679 0.2582256759703209
12.1208671875 0.9681701261022817 0.2535944688122389
12.122015625 0.9684658800588929 0.2537856222574497
12.1231640625 0.9715319684536639 0.25783381653973403
12.1243125 0.973513876891569 0.2557225006913625
12.1254609375 0.9722544248219267 0.2545725870466513
12.126609375 0.9720006491807345 0.2537958039576479
12.1277578125 0.9736480540529606 0.2493207496339977
12.12890625 0.9737065448319377 0.2499851488228913
12.1300546875 0.9735603417841585 0.24605277922315744
12.131203125 0.9753776138150809 0.2501127998360704
12.1323515625 0.9759107402314968 0.24662414115500003
12.1335 0.9726576810550154 0.245411265211218
12.1346484375 0.9745874778388581 0.24326381646785356
12.135796875 0.9725193503298089 0.2450845704692762
12.1369453125 0.9736038529815341 0.24464530262707546
12.13809375 0.9735568624963647 0.24167920422615746
12.1392421875 0.9738481308675747 0.24020378043759566
12.140390625 0.9703539500268688 0.2396238161815034
12.1415390625 0.971349358222561 0.24058290628550483
12.1426875 0.968475666279685 0.23974977340313086
12.1438359375 0.9712953759650782 0.23819129685568508
12.144984375 0.9705932362953111 0.2383779038835616
12.1461328125 0.9695931536529385 0.23577085887520932
12.14728125 0.9721528770898903 0.2369981910008911
12.1484296875 0.9714724397480969 0.23881435634129788
12.149578125 0.973863498222127 0.2360735034236302
12.1507265625 0.973483035739255 0.23513685066041162
12.151875 0.972165147135504 0.2330460453463107
12.1530234375 0.9735851986363303 0.2319173783477764
12.154171875 0.9739990561516851 0.23442905336194472
12.1553203125 0.9747121875219311 0.23258357185043646
12.15646875 0.9714001708418387 0.23052137271957837
12.1576171875 0.9744315925878543 0.23009112157742678
12.158765625 0.9732361150242519 0.22615471836063297
12.1599140625 0.975794254732036 0.22567457097359042
12.1610625 0.9750255490790569 0.2266580980554978
12.1622109375 0.975713027300885 0.2245632497806495
12.163359375 0.9744271669396645 0.22322549643327477
12.1645078125 0.9729124730039213 0.22087503130143524
12.16565625 0.9710828416320922 0.2201816689583361
12.1668046875 0.9728056163440575 0.22007851837438724
12.167953125 0.9711968514354916 0.22133561246185773
12.1691015625 0.9738850632501452 0.21971768110643097
12.17025 0.9753135276985594 0.2152172718981057
12.1713984375 0.9704262565535733 0.21630046390749857
12.172546875 0.975779524107462 0.2156382023483251
12.1736953125 0.9773054272279539 0.21342732465235464
12.17484375 0.9766069235285879 0.21506167810938223
12.1759921875 0.9755783543475096 0.21074351657568477
12.177140625 0.9768781633197035 0.20974194940900076
12.1782890625 0.9771546398706865 0.21219892898302245
12.1794375 0.9750853134101832 0.20982138174120146
12.1805859375 0.9744720919890619 0.20877799464214425
12.181734375 0.9722117623303959 0.20930270392660472
12.1828828125 0.9778823117964313 0.2047979656335645
12.18403125 0.974663204949295 0.20734907719419365
12.1851796875 0.9772971717980283 0.20578805294654262
12.186328125 0.9715015962632138 0.20454389831451728
12.1874765625 0.9769322269096852 0.20328155404319442
12.188625 0.972978613936193 0.20514050765488123
12.1897734375 0.9783685321575459 0.2025830637173362
12.190921875 0.9764101137242711 0.20037893239214244
12.1920703125 0.9777571237237161 0.19952094142938254
12.19321875 0.9773332622863973 0.20066411648118382
12.1943671875 0.9756531694293165 0.19967270510359533
12.195515625 0.9739393149326202 0.19792981376646496
12.1966640625 0.9785943724282713 0.2002405033531725
12.1978125 0.9777390489925075 0.19748417810679725
12.1989609375 0.9744428343892924 0.19641057758782826
12.200109375 0.9782592437335356 0.19677501947972093
12.2012578125 0.9830321927853812 0.19351448617178602
12.20240625 0.9795903687382304 0.19572263677103358
12.2035546875 0.9779615034043019 0.19107026112216724
12.204703125 0.9788757447281489 0.19070393210508846
12.2058515625 0.974231112564111 0.18694696289201224
12.207 0.9770946789703157 0.18761360830269797
12.2081484375 0.9810701533148575 0.1869234005176587
12.209296875 0.9771122116176005 0.18557561291520108
12.2104453125 0.9757788933454001 0.18506760517880583
12.21159375 0.9747160562290762 0.18383139257904402
12.2127421875 0.9773156911025629 0.18517598012466746
12.213890625 0.9738765757317378 0.18366834057218553
12.2150390625 0.9756635358332088 0.1814644803070397
12.2161875 0.9733051102184019 0.1835089755285189
12.2173359375 0.9715337415537453 0.18123722099539954
12.218484375 0.975089963335875 0.183960923597832
12.2196328125 0.9762353337527244 0.17968629961593705
12.22078125 0.9735634256346369 0.18275781101051974
12.2219296875 0.9729039886090205 0.17662364658539437
12.223078125 0.9770310892038128 0.17701610203838836
12.2242265625 0.9702830691178579 0.17612949099643585
12.225375 0.9702541894565149 0.1740519483785455
12.2265234375 0.9737683110577712 0.17504559270634806
12.227671875 0.9765253629040916 0.1773335262010556
12.2288203125 0.9734152201182686 0.17540462410319088
12.22996875 0.9695002092872346 0.171702298817879
12.2311171875 0.9724751049799314 0.16892282381710677
12.232265625 0.9642407667323482 0.17175363631099283
12.2334140625 0.9713548798910612 0.1718602969055206
12.2345625 0.9687677152250013 0.17746593852534578
12.2357109375 0.9654413021657663 0.16494532393924158
12.236859375 0.9628042707090019 0.17204196555301626
12.2380078125 0.967108840714646 0.165644965107882
12.23915625 0.9603230465602598 0.16868038828885087
12.2403046875 0.9642331945023376 0.16819675087710037
12.241453125 0.9703864491369132 0.16963325437573099
12.2426015625 0.9688071870744926 0.16801378104857517
12.24375 0.9676959664875933 0.173421182381125
12.2448984375 0.9659011922714956 0.16837920602418352
12.246046875 0.9659756601537707 0.1610227297599412
12.2471953125 0.9693825971490467 0.17241217418023724
12.24834375 0.9662596207375634 0.1649653596654038
12.2494921875 0.967820734195336 0.16852570833052422
12.250640625 0.9671157597600737 0.16965001545675906
12.2517890625 0.9667300532724076 0.16668242278556397
12.2529375 0.9600730149844956 0.16095213416272372
12.2540859375 0.9705991987403596 0.16828540511203888
12.255234375 0.9674922062177199 0.16524907473082154
12.2563828125 0.9655819700316496 0.15944230022774858
12.25753125 0.9754656066529114 0.16296557182274582
12.2586796875 0.9757747749995863 0.17544719408884996
12.259828125 0.9690703742830734 0.16991125231936155
12.2609765625 0.9725428930654106 0.15986314446750044
12.262125 0.9762247672016438 0.1612525444115529
12.2632734375 0.9763498240477678 0.16088047427525437
12.264421875 0.9707990982158843 0.16058555020629445
12.2655703125 0.9723630606217748 0.16554571732608783
12.26671875 0.970330872077604 0.16438697898175933
12.2678671875 0.9750250083348072 0.1566920628913611
12.269015625 0.9787363486027943 0.16721296092587795
12.2701640625 0.9814182992402875 0.16333739479613507
12.2713125 0.9761311465971143 0.16978970021542822
12.2724609375 0.9882745039484937 0.1622574528563112
12.273609375 0.9852126582440452 0.15762119477999104
12.2747578125 0.981128754809907 0.16036221276643214
12.27590625 0.9822025656479667 0.15795932252527406
12.2770546875 0.9804924231232194 0.15440248931086925
12.278203125 0.9838840263897923 0.1554596009507081
12.2793515625 0.9844923599182368 0.1514107545339749
12.2805 0.9861588061593713 0.15580288310700746
12.2816484375 0.9851265495987092 0.15511064095985877
12.282796875 0.9825183437697589 0.14791053227799322
12.2839453125 0.9873072111364415 0.14919292987027366
12.28509375 0.9871092579907456 0.1532525464327823
12.2862421875 0.982925777763129 0.1545249154544877
12.287390625 0.9849149433233392 0.1510500894075405
12.2885390625 0.9847461733274198 0.1473041935942041
12.2896875 0.9812836037390017 0.1495267688168135
12.2908359375 0.983748278075061 0.14777879993288706
12.291984375 0.9841303111413251 0.1520714103026901
12.2931328125 0.9873168304552826 0.15050383023529396
12.29428125 0.9875668546659707 0.15205031733838548
12.2954296875 0.9841014627449572 0.1521049631649104
12.296578125 0.9878628967169466 0.14871319848995593
12.2977265625 0.9861962001533695 0.14745153865828411
12.298875 0.9884041986714349 0.144608554996289
12.3000234375 0.9870797337723325 0.14394870673318133
12.301171875 0.9842641104533113 0.1478881979343873
12.3023203125 0.9886174019772316 0.14534299613322954
12.30346875 0.9877453030339293 0.1494980577541864
12.3046171875 0.9844073712765329 0.14549502575552692
12.305765625 0.9934351656188952 0.1443110760432073
12.3069140625 0.9856829328126282 0.14275637771566643
12.3080625 0.9869825318928853 0.14532907820185684
12.3092109375 0.9867731731904122 0.14264629729954298
12.310359375 0.9925355001399017 0.14490265558259252
12.3115078125 0.9902770945837134 0.14573542328080136
12.31265625 0.9819462422344492 0.13740638182536546
12.3138046875 0.990075362256942 0.13959794410420656
12.314953125 0.9956945047254813 0.14050232879848756
12.3161015625 0.9987680483812372 0.14155589512531752
12.31725 0.9974462063715263 0.13683838686615402
12.3183984375 1.002092598593868 0.13718569055228869
12.319546875 0.9928178713692084 0.13430399213231287
12.3206953125 0.9997178889714418 0.12196499173032238
12.32184375 0.9971041307352889 0.12396819186691638
12.3229921875 0.9986852213093944 0.13011434816419937
12.324140625 0.9911255594402595 0.12080600427768062
12.3252890625 1.0012830328269113 0.12413071192060132
12.3264375 0.9917583725783804 0.11796897071501067
12.3275859375 1.00161032852506 0.11839293853510374
12.328734375 1.0022002666901222 0.12803656185239815
12.3298828125 0.9978986468019833 0.11879518145484624
12.33103125 1.0004272861684695 0.11775983782606536
12.3321796875 0.9998857033101591 0.12461126942589767
12.333328125 0.9993089522663466 0.10826592576135413
12.3344765625 0.991939429992841 0.10635018304165061
12.335625 0.9968205459554186 0.11836659845889436
12.3367734375 0.9939668592008494 0.09792699884650008
12.337921875 0.9914209023677738 0.11023450442097527
12.3390703125 1.0035189681888208 0.11112315926182098
12.34021875 0.9960053000664167 0.11337512207600797
12.3413671875 0.9899110139833736 0.1011827470526967
12.342515625 0.9874482007499832 0.0998337717893813
12.3436640625 0.9835471778439581 0.09803860912458512
12.3448125 1.0039573154177235 0.10793427221341811
12.3459609375 0.9913563908269698 0.10593962187676698
12.347109375 0.9925664136518519 0.10066307086295001
12.3482578125 0.9958575612405561 0.10222655555588006
12.34940625 1.0086188832295235 0.1037373554509845
12.3505546875 1.0028654472962992 0.10280557687044733
12.351703125 0.9980604684480526 0.09874967247375227
12.3528515625 1.0011381621881494 0.0950229317951703
12.354 0.9873218505372063 0.09244347729374569
12.3551484375 0.9952776877279151 0.09575345478175185
12.356296875 0.9959138132623206 0.09164772051895465
12.3574453125 0.9995029369867331 0.08939070642939007
12.35859375 0.9963625753569197 0.0896423835164456
12.3597421875 0.9971018597795027 0.08880384869574626
12.360890625 0.9945489200139368 0.089636145401226
12.3620390625 0.9959991867911487 0.09141273733109467
12.3631875 1.0007198367681072 0.09554772085659619
12.3643359375 1.0001526801935405 0.09245511473905316
12.365484375 0.9997439914991584 0.08976470175580797
12.3666328125 0.9999167774357515 0.08759036183141361
12.36778125 1.0000527270718418 0.08935569774980201
12.3689296875 1.003985556419732 0.08733193897145422
12.370078125 1.0008944052928066 0.0856810759447662
12.3712265625 0.9988629940689041 0.08826690024481956
12.372375 0.9973456340520512 0.07945073822565474
12.3735234375 1.0004369276195844 0.08447701827726375
12.374671875 0.9972165055221258 0.08075554840804328
12.3758203125 0.9954348213357502 0.08411262108308007
12.37696875 0.9934593985848685 0.0879596620454959
12.3781171875 0.9998882309079699 0.0815196133589707
12.379265625 0.999720756826333 0.08777922915672837
12.3804140625 0.9990451204330764 0.08709913683684012
12.3815625 1.0009940321407544 0.08744058431249171
12.3827109375 1.0078966458951657 0.08777798492282862
12.383859375 1.0032734444313056 0.08567664826723823
12.3850078125 1.013507529254778 0.07922469046241348
12.38615625 1.0063531964300347 0.08298031019752103
12.3873046875 1.0096773070943355 0.07865778612299829
12.388453125 1.010311558494697 0.07719385831040912
12.3896015625 1.003536951551936 0.07264639664043163
12.39075 1.000035710621407 0.07406643665239376
12.3918984375 1.0046426136080853 0.0713489990945528
12.393046875 1.0051286434131566 0.077441575839132
12.3941953125 1.0076124967325595 0.07030797201008471
12.39534375 1.005476121444987 0.0704320284855538
12.3964921875 1.002951005661614 0.07069895743112295
12.397640625 1.0067620186134838 0.061353145536275244
12.3987890625 1.0070014715046223 0.06870128642518439
12.3999375 1.0085951703504197 0.05866001323858744
12.4010859375 1.0059039016059412 0.06490203172780859
12.402234375 1.0025562832125687 0.0613977120592053
12.4033828125 1.0028343625421026 0.06746775076334299
12.40453125 1.0084545986811553 0.05342314378346169
12.4056796875 1.0074629348357935 0.05711528356754486
12.406828125 1.005025538193587 0.058303009883207246
12.4079765625 1.005617113691037 0.05353498307633686
12.409125 1.001469349306072 0.05716761887283578
12.4102734375 1.0003097400902186 0.054795711323762736
12.411421875 1.0095637775184387 0.05589268371535522
12.4125703125 1.0026922283266684 0.05207753431402651
12.41371875 1.0015748978648635 0.05633873330330874
12.4148671875 1.0041120610719845 0.04700139624979027
12.416015625 1.0061094702091133 0.048247939808163776
12.4171640625 1.0073417545093788 0.0470037131616749
12.4183125 1.0074286937814843 0.03789488558919302
12.4194609375 1.0085532466425713 0.04075546462739299
12.420609375 1.0058740735652447 0.042098927851240364
12.4217578125 1.0074889442052664 0.03587742797156246
12.42290625 1.001904313922085 0.03430639979978012
12.4240546875 1.0086785538117753 0.03404941957765839
12.425203125 1.0051522246375073 0.03588476588744821
12.4263515625 1.0061732060193833 0.027953328768292707
12.4275 1.00111574256603 0.026376167686740948
12.4286484375 0.998329303144801 0.03391092409543078
12.429796875 1.0041356474880625 0.026333241575676403
12.4309453125 1.001083714168451 0.02628214755117997
12.43209375 0.9981067471962346 0.024389757778001564
12.4332421875 0.9925239429227842 0.0207916277772503
12.434390625 0.9961813595910012 0.023265001807045382
12.4355390625 1.0000715953366155 0.02471579354693587
12.4366875 0.9990778916563554 0.027138783595232918
12.4378359375 0.9993881344090542 0.022100380972037703
12.438984375 1.0014703819476711 0.022359706628039766
12.4401328125 1.0031295652005663 0.009690045331443242
12.44128125 0.9985657010812017 0.022949966165579205
12.4424296875 1.0024585260486114 0.023758486339952922
12.443578125 0.997417221193512 0.016451384810422964
12.4447265625 0.9990905577859696 0.01604566420282738
12.445875 0.9988734518077435 0.023818030173503035
12.4470234375 1.0088314101349718 0.021262954337313622
12.448171875 0.9970545365743965 0.01854263396207989
12.4493203125 1.0061157050460414 0.018364382417102476
12.45046875 1.0052798936658291 0.013710463067636569
12.4516171875 1.0041647737523034 0.006810799448721538
12.452765625 0.9960150778540373 0.009272295561308819
12.4539140625 1.0015111680304793 0.011319196250702435
12.4550625 0.9974360695193198 0.00903593850960338
12.4562109375 0.9924938786707875 0.010823388947952428
12.457359375 0.9982618648721212 0.007834269469460198
12.4585078125 0.9995274158736719 0.008808387326667888
12.45965625 0.9886258178619881 0.008815502060141811
12.4608046875 0.9833872552879024 0.011901989189093132
12.461953125 0.993602769556683 0.005130791707202764
12.4631015625 0.9909456076051354 0.001554305720977478
12.46425 0.9913438970819188 0.0029813814300381214
12.4653984375 0.9871175296394421 0.006415488541802961
12.466546875 0.9863182302065863 0.006850127117806637
12.4676953125 0.9827783611924809 0.003947485151565511
12.46884375 0.9916680493405247 0.009021750200992051
12.4699921875 0.9851886026986738 0.0037140158211979024
12.471140625 0.9868589889974382 0.010590237660753066
12.4722890625 0.9858628659876413 0.015502528713096542
12.4734375 0.983696813926701 0.005479935809833747
12.4745859375 0.9855703423856856 0.008134945649925673
12.475734375 0.9926110984550087 0.00883690635496226
12.4768828125 0.9881948268476957 0.005327046696478321
12.47803125 0.9908854585419804 0.008785994132527453
12.4791796875 0.9873413862313762 0.0024691610475117143
12.480328125 0.9860571676092211 0.0036997619143546157
12.4814765625 0.9867005646669449 0.0009050177531738646
12.482625 0.9880942895942211 0.0009741584142721749
12.4837734375 0.9891836667535558 0.0003575407227941474
12.484921875 0.981693665188934 0.002637052289930053
12.4860703125 0.984345652984395 0.0024132501425563335
12.48721875 0.9860969364504258 0.00031643421531113436
12.4883671875 0.9876664604120897 0.0007971688614777372
12.489515625 0.9880326496856686 0.0016230813880723227
12.4906640625 0.9886609228125478 -0.0016923681129413781
12.4918125 0.9859418530144956 -0.004891766992697777
12.4929609375 0.9820940109519516 -0.003170658467489762
12.494109375 0.98575487029203 -0.005674032562867248
12.4952578125 0.9864469490920524 -0.004209446701684549
12.49640625 0.984352558545816 -0.006648597569422265
12.4975546875 0.9832376531271659 -0.009628261960666018
12.498703125 0.985220964284365 -0.0075249637572893935
12.4998515625 0.9852917383217568 0.0007832526308108045
12.501 0.9871367123935841 -0.003553180392385724
12.5021484375 0.9940951980424138 -0.0089593602810627
12.503296875 0.9842419451070045 -0.006753672612089701
12.5044453125 0.987639350408741 -0.0076213606477962825
12.50559375 0.9962938976294194 -0.014881023184538655
12.5067421875 0.9970236650291938 -0.01469535386056009
12.507890625 0.9931162867005413 -0.012519744883704775
12.5090390625 0.9918153089961286 -0.01586249140221696
12.5101875 0.9920473355068842 -0.015885821731002503
12.5113359375 0.9920492439997253 -0.013503920784006196
12.512484375 0.9940328443926785 -0.01772626400869981
12.5136328125 1.0013678618073718 -0.012660256977337081
12.51478125 0.995301428931322 -0.02099192372868619
12.5159296875 1.0028860157254946 -0.019439799971368354
12.517078125 1.0080777570501431 -0.03035943943524011
12.5182265625 1.0039719050137375 -0.022690753610385528
12.519375 0.991124319545086 -0.026119575177074528
12.5205234375 1.00294944491977 -0.024830896598014407
12.521671875 1.0004658756552511 -0.0257486799572354
12.5228203125 0.9902737686909722 -0.030253094488182586
12.52396875 1.0023569330882292 -0.029714145729261232
12.5251171875 0.999111529937284 -0.03132183564599911
12.526265625 0.9900020540458663 -0.034570049695960225
12.5274140625 0.9944689681613181 -0.03688497988085404
12.5285625 0.997027192487635 -0.03857784263564468
12.5297109375 0.9974896350028359 -0.03295055759229715
12.530859375 1.0030115999736045 -0.027171856444455078
12.5320078125 1.0056698360019944 -0.03560019707196893
12.53315625 0.9986968394892971 -0.03637116201177837
12.5343046875 0.9941115249840441 -0.03589165344904155
12.535453125 0.9969497258411124 -0.04104622943302649
12.5366015625 1.0012064505753904 -0.04238628872144479
12.53775 1.0003224806126978 -0.03744761481814485
12.5388984375 0.9951219122979171 -0.04346663755413804
12.540046875 0.9976078935273108 -0.0456911625565487
12.5411953125 1.0042160493577328 -0.0449380746026532
12.54234375 1.00510895561965 -0.03766856333825125
12.5434921875 0.9953369149248208 -0.04507235584966135
12.544640625 0.9942051937500904 -0.049078264287290285
12.5457890625 0.9966646468412563 -0.04301874509532283
12.5469375 0.9932822888555312 -0.04902072238119254
12.5480859375 1.0008098288646625 -0.04509400860970514
12.549234375 0.9937514238254097 -0.04503301321342784
12.5503828125 0.9939126195889851 -0.04528453484030098
12.55153125 0.9960760375203226 -0.04646990122676553
12.5526796875 0.9957283025582229 -0.049072805719351686
12.553828125 0.9948329440224748 -0.0461567730686816
12.5549765625 0.9988556316559243 -0.04546259937839414
12.556125 0.9913968560968095 -0.048874102660536545
12.5572734375 0.9915331985839395 -0.048860451616286604
12.558421875 0.9940027045053186 -0.05215071716747238
12.5595703125 0.9889689045128296 -0.05261180657795883
12.56071875 0.9877796308834934 -0.051552398013468226
12.5618671875 0.992520118980605 -0.04955613035976836
12.563015625 0.9909936845813869 -0.04948921784623739
12.5641640625 0.9893077386298071 -0.04467238951430441
12.5653125 0.9921821726828266 -0.045459075806429494
12.5664609375 0.9906960350123489 -0.052939575290278706
12.567609375 0.9884305984947561 -0.05558050421637439
12.5687578125 0.991031332820707 -0.055200513594841794
12.56990625 0.991828537286995 -0.05198567384677211
12.5710546875 0.9898776593717987 -0.051943255948164846
12.572203125 0.992432685670919 -0.04992304898623656
12.5733515625 0.987488510430459 -0.05548823377981793
12.5745 0.991567000815144 -0.05756015965044192
12.5756484375 0.998100504090054 -0.05460133909579812
12.576796875 0.9957454402227581 -0.05732296408961657
12.5779453125 0.9957250934142654 -0.06442940302711075
12.57909375 0.9965282660229586 -0.05664745504052349
12.5802421875 0.9948836757582156 -0.062400723124545476
12.581390625 1.0013426623377795 -0.055762812570711584
12.5825390625 0.9970038729585644 -0.06100943578847884
12.5836875 1.001253454563662 -0.058244680817798766
12.5848359375 1.0001707706622862 -0.06694321963146688
12.585984375 1.0000760428033542 -0.07072302900056537
12.5871328125 1.00570811815256 -0.07210858489322869
12.58828125 1.0057922459038628 -0.07080088008638863
12.5894296875 1.00378664232898 -0.07882853505415899
12.590578125 1.0089399382088169 -0.07972748006067809
12.5917265625 1.0001246067412675 -0.08039275774337296
12.592875 0.993557615889699 -0.08719530662479902
12.5940234375 1.0082423046682534 -0.08715046558349249
12.595171875 1.004780751995453 -0.08473336260093356
12.5963203125 1.0034795641350165 -0.08885224374650247
12.59746875 1.0062297212033031 -0.09291552713259199
12.5986171875 1.0050755746673032 -0.08184832387160956
12.599765625 1.004589492196943 -0.09595392481234044
12.6009140625 1.0120283502679583 -0.09215435845653297
12.6020625 1.0113360345483333 -0.10149839986305531
12.6032109375 1.0080057142013263 -0.10020236079063316
12.604359375 1.0024076860582396 -0.08993128643383064
12.6055078125 1.0126998476070956 -0.09697610287284308
12.60665625 1.0109007248705015 -0.10296521613841036
12.6078046875 1.0137415458572259 -0.10030812066361305
12.608953125 1.0094202188448267 -0.10156048043098642
12.6101015625 1.0098910735317586 -0.10213529523225717
12.61125 1.0133046095845921 -0.09840748811073363
12.6123984375 1.0033301736844316 -0.10212906889166007
12.613546875 1.0050277117472706 -0.09493774186985537
12.6146953125 1.0105439100808769 -0.10707804359681172
12.61584375 1.0042203570970942 -0.11163989483538062
12.6169921875 1.0082423158578961 -0.10720225498512337
12.618140625 1.0088219636323355 -0.10514923386490249
12.6192890625 1.0033366350836266 -0.1089379946596224
12.6204375 1.0084571144302843 -0.11630044948631846
12.6215859375 1.0073464335870073 -0.11891047606929839
12.622734375 1.0009118152253191 -0.11241447944209093
12.6238828125 0.9962197309302232 -0.11650335576621207
12.62503125 0.9984293857713559 -0.11823544172556577
12.6261796875 1.0042567197325918 -0.11793399089107948
12.627328125 1.000928914518881 -0.11592790721986168
12.6284765625 0.9992592323136273 -0.11655595983667755
12.629625 0.9965160625800906 -0.1199892065162288
12.6307734375 0.9907162708382722 -0.11858521151600443
12.631921875 0.9934882292919172 -0.1229139947727339
12.6330703125 0.9930822461568173 -0.11712230906567334
12.63421875 0.991571365685149 -0.1250839296986408
12.6353671875 0.9921565908544838 -0.12294313650823474
12.636515625 0.9894196589517894 -0.1205336168624056
12.6376640625 0.9883922061175536 -0.12506439669268432
12.6388125 0.9876959458222119 -0.12250058831104682
12.6399609375 0.9872692358627286 -0.1282063737511666
12.641109375 0.998823410743507 -0.12998085810101023
12.6422578125 0.9923810668728257 -0.1264154073923024
12.64340625 0.9849298536403097 -0.12607460878946664
12.6445546875 0.9848956743351028 -0.1266765134165091
12.645703125 0.9828551440726462 -0.12225187871994847
12.6468515625 0.9798513989257207 -0.12322622328452892
12.648 0.9758328996178655 -0.1289050523364672
12.6491484375 0.9736492775427855 -0.12340305332739054
12.650296875 0.9790083855720362 -0.12684512775311885
12.6514453125 0.9870667105884825 -0.1168755709994973
12.65259375 0.9869385439110885 -0.12303243589390844
12.6537421875 0.9860160162071303 -0.1200170958549619
12.654890625 0.9879335071755135 -0.11886345444576885
12.6560390625 0.9945982890978495 -0.11546186314441842
12.6571875 0.9855623815043041 -0.12344764161423527
12.6583359375 0.9818556423982109 -0.13272864139883944
12.659484375 0.9881808389037214 -0.1341252499363932
12.6606328125 0.9914983634664343 -0.13266615262628556
12.66178125 0.9884143166032708 -0.12774020572868117
12.6629296875 0.986437937132715 -0.13342637387368395
12.664078125 0.9891994039405054 -0.14089549313572958
12.6652265625 0.9796405045555485 -0.14135807957905033
12.666375 0.9905667874047233 -0.1348836819178273
12.6675234375 0.9874093201232732 -0.147792433051112
12.668671875 0.9841805575905413 -0.1339676074619901
12.6698203125 0.9792163907470752 -0.1412504307790723
12.67096875 0.9944170834928701 -0.13656475284999436
12.6721171875 0.9794639008091124 -0.1446962639186894
12.673265625 0.982601199227458 -0.14875760255376702
12.6744140625 0.9822764612118975 -0.14585345171328823
12.6755625 0.9818763414096651 -0.14647612173854252
12.6767109375 0.9833467771050461 -0.15004852632430332
12.677859375 0.9784645716445075 -0.14750803878678487
12.6790078125 0.9856836435819825 -0.1530078668608318
12.68015625 0.9754681421727069 -0.1478948095850221
12.6813046875 0.9764039102314961 -0.15191968078315787
12.682453125 0.9898902828343212 -0.15792350323640214
12.6836015625 0.9878362372141715 -0.14992543456013008
12.68475 0.9823916323819732 -0.1534580792675012
12.6858984375 0.9897017008621246 -0.16162174300164744
12.687046875 0.9902100477038202 -0.15982951313284655
12.6881953125 0.9796627985646326 -0.16063975604031966
12.68934375 0.9744423549870282 -0.16182615628889574
12.6904921875 0.9791958049743414 -0.16170505467942564
12.691640625 0.9820173842474967 -0.16112858766008253
12.6927890625 0.981824728598661 -0.16140057621101278
12.6939375 0.985571805796187 -0.16446349850475916
12.6950859375 0.9792420470719483 -0.16618211279013262
12.696234375 0.9775792521055651 -0.169737510437594
12.6973828125 0.9801947160678331 -0.16798652943426728
12.69853125 0.9707477207641438 -0.16757598238743343
12.6996796875 0.9742032809156713 -0.17095224817777777
12.700828125 0.9671799515014547 -0.16999120132301537
12.7019765625 0.9674634862617343 -0.17018190050447513
12.703125 0.9637664084997878 -0.17082758949683485
12.7042734375 0.9648192942838546 -0.1705364300394795
12.705421875 0.9626513373884162 -0.16795793179003626
12.7065703125 0.964691413058222 -0.1684472338481784
12.70771875 0.9629216820469959 -0.16359644384733096
12.7088671875 0.9624510171196545 -0.16546269077656695
12.710015625 0.9605241703464462 -0.16267603715614976
12.7111640625 0.961634234061002 -0.16201055955239058
12.7123125 0.9625048187248466 -0.162839826930807
12.7134609375 0.9590086202775685 -0.15828636297309118
12.714609375 0.9589782955208679 -0.15795476077122095
12.7157578125 0.9578464671227205 -0.15616244136850593
12.71690625 0.9595804729662587 -0.16072856599694246
12.7180546875 0.9614261757844066 -0.1548136713555185
12.719203125 0.9635966056597001 -0.1559113073892081
12.7203515625 0.9602159615442154 -0.15467253482387555
12.7215 0.959111620963791 -0.15395380289106764
12.7226484375 0.956075308327788 -0.1565219590221874
12.723796875 0.9585522634500308 -0.158174521892386
12.7249453125 0.9664918311277718 -0.15489181496296656
12.72609375 0.9649499789325132 -0.14861551881165558
12.7272421875 0.9642088367830799 -0.15045965055605026
12.728390625 0.9573644567326459 -0.15660772374860688
12.7295390625 0.9582234747296954 -0.15896111285489356
12.7306875 0.9674671636688561 -0.1485861956039668
12.7318359375 0.9667214436201337 -0.15381671348588655
12.732984375 0.968135226543389 -0.15572666139516333
12.7341328125 0.9635787388870749 -0.1500271969592547
12.73528125 0.9695158223018884 -0.15393001408156204
12.7364296875 0.9669550725923534 -0.15848719480438034
12.737578125 0.9685389310314648 -0.15167938122535207
12.7387265625 0.9736121655186971 -0.15654562393154559
12.739875 0.970166837754374 -0.1546294459557298
12.7410234375 0.9724416849569546 -0.15298455544448197
12.742171875 0.9743744212481877 -0.15310847506069192
12.7433203125 0.9792933338264995 -0.1611293837728931
12.74446875 0.9682342868439575 -0.16394902759614616
12.7456171875 0.976422675344618 -0.16177912675288608
12.746765625 0.972531627452604 -0.1567018755087769
12.7479140625 0.973281654360664 -0.16392249158323724
12.7490625 0.975391583473759 -0.16763775630698796
12.7502109375 0.9833963796017524 -0.1645489642037059
12.751359375 0.9841627938808416 -0.16876455027940385
12.7525078125 0.9788933921935776 -0.1640792361813843
12.75365625 0.9777831425254956 -0.1712051568741031
12.7548046875 0.9791881714860762 -0.17212863294769098
12.755953125 0.9802548587971625 -0.16653684362059407
12.7571015625 0.9855011598685193 -0.1719762016748071
12.75825 0.9832561380301592 -0.1724429653848064
12.7593984375 0.9831300321710681 -0.172673343295364
12.760546875 0.9847341441764405 -0.17777228546465274
12.7616953125 0.9834888082015327 -0.17645890270679088
12.76284375 0.9861706060037279 -0.1777880197575309
12.7639921875 0.9872066327331155 -0.17678319531251274
12.765140625 0.9902546236432702 -0.17899766519373494
12.7662890625 0.9894359580487982 -0.17706165220605907
12.7674375 0.9866823470990524 -0.17782473966639623
12.7685859375 0.987833336139371 -0.18152647877679473
12.769734375 0.9933721475153274 -0.18052566053016672
12.7708828125 0.9931579365772353 -0.1864602635882855
12.77203125 0.9961695421299819 -0.1877457193506652
12.7731796875 0.9943513755095108 -0.18925629574104275
12.774328125 0.993198037109398 -0.19190078334342686
12.7754765625 0.9923956061614675 -0.19271042948385475
12.776625 0.9929457877654028 -0.19967507752029012
12.7777734375 0.9911168051625268 -0.1988485918001487
12.778921875 0.9923364721952272 -0.19998538031863056
12.7800703125 0.9902098224545626 -0.20225888138791892
12.78121875 0.9911782095493092 -0.20028793577138138
12.7823671875 0.9906337720786897 -0.20591899900389776
12.783515625 0.9930212441983329 -0.20659071568130483
12.7846640625 0.993972406413737 -0.20557984015363795
12.7858125 0.9905548682515657 -0.20688077034069718
12.7869609375 0.9883802841104687 -0.20710672574451083
12.788109375 0.9870013594943363 -0.2089628283207341
12.7892578125 0.9900994610214835 -0.2111826721434782
12.79040625 0.9883184794084794 -0.21110968096069882
12.7915546875 0.9890526445306389 -0.21250021051256518
12.792703125 0.9957098357388081 -0.20962724431863522
12.7938515625 0.9873937462085212 -0.21335535293338204
12.795 0.995255483762948 -0.2101927260849712
12.7961484375 0.9931188401787279 -0.21881731839942797
12.797296875 0.9962114655203421 -0.2190332977048648
12.7984453125 0.995016769175707 -0.2135866462776087
12.79959375 0.9909271665119255 -0.22340167859234272
12.8007421875 0.9912457977707214 -0.22815568844958356
12.801890625 0.9914013121103306 -0.21905588275266918
12.8030390625 0.9920056456273127 -0.22451464331222315
12.8041875 0.9870961064028049 -0.22219124086324926
12.8053359375 0.9855018529097904 -0.22435920736199022
12.806484375 0.9872466763278063 -0.22501009148974693
12.8076328125 0.98067448400567 -0.23090080730967322
12.80878125 0.9887369511797256 -0.2342719077865677
12.8099296875 0.9949030145694222 -0.23364549290676206
12.811078125 0.99478640543947 -0.23712608851039707
12.8122265625 0.989111241077698 -0.2365984652034423
12.813375 0.99137246575656 -0.23519850052750924
12.8145234375 0.9828291998376952 -0.23647423383237243
12.815671875 0.9858911246710423 -0.2465494714885047
12.8168203125 0.9830571746499079 -0.23438800111624503
12.81796875 0.976023405933132 -0.23787612629043886
12.8191171875 0.9849900570092247 -0.24663699841818232
12.820265625 0.9845302782056031 -0.2454591371046525
12.8214140625 0.9808375983785578 -0.24634807986796026
12.8225625 0.9886081759207195 -0.25141671746809335
12.8237109375 0.9806332360965035 -0.24710364811081154
12.824859375 0.9790277188497316 -0.25008304985848295
12.8260078125 0.9864696803195541 -0.25200467248026737
12.82715625 0.9773094013149936 -0.255069098977342
12.8283046875 0.976554468263573 -0.250489111430815
12.829453125 0.981187100674981 -0.25120805975382965
12.8306015625 0.9802542015262108 -0.2574241301459742
12.83175 0.9778379772171478 -0.25939125141730823
12.8328984375 0.9815050942484562 -0.2570470833412991
12.834046875 0.9797853481740473 -0.25427649214052783
12.8351953125 0.9789354678459119 -0.2612532337490402
12.83634375 0.9796151480597746 -0.26073966915351354
12.8374921875 0.9811393515715001 -0.26207892524280696
12.838640625 0.9849314454534174 -0.265974363301803
12.8397890625 0.9764325249720252 -0.2644743819809376
12.8409375 0.9790008316915205 -0.2634646334681048
12.8420859375 0.9762418039994871 -0.26868014465276246
12.843234375 0.9728535163651619 -0.27109006938329666
12.8443828125 0.9738832906728416 -0.2743525678108028
12.84553125 0.9791736630847823 -0.270042791007982
12.8466796875 0.9760219452691239 -0.27007197520966375
12.847828125 0.9736504100039131 -0.27561261376734614
12.8489765625 0.9731178027768507 -0.2713279507087723
12.850125 0.9746747650387755 -0.27453967353556674
12.8512734375 0.9718399206626048 -0.2728634411946548
12.852421875 0.9734814980799746 -0.2723008983594587
12.8535703125 0.9715629007558192 -0.2775556191646563
12.85471875 0.9693235895185892 -0.2754608301255609
12.8558671875 0.9718469876636305 -0.27611200209798364
12.857015625 0.9738441333769872 -0.2783172585507761
12.8581640625 0.9716655089864484 -0.2787074657096148
12.8593125 0.971661733071957 -0.28162076062893665
12.8604609375 0.9700418946709248 -0.2831772087462925
12.861609375 0.9688569195414709 -0.2823878837052693
12.8627578125 0.9684855126387024 -0.28202335604383805
12.86390625 0.9699228230928798 -0.2820961347160311
12.8650546875 0.9707181563049634 -0.28451232478752
12.866203125 0.968079957748999 -0.28408127138927225
12.8673515625 0.9702709607137784 -0.2869491924776796
12.8685 0.9667250887714917 -0.2863413248299025
12.8696484375 0.9695879459641844 -0.28868685239532915
12.870796875 0.9685641537723749 -0.2874116369746822
12.8719453125 0.9673659680826463 -0.2897452676261353
12.87309375 0.9671475872794382 -0.2898947413189556
12.8742421875 0.9694117291734732 -0.29099814087010145
12.875390625 0.9699451263976363 -0.2918041723498267
12.8765390625 0.9703623273688013 -0.2944495415337531
12.8776875 0.9697562482857467 -0.2982116021858804
12.8788359375 0.9666097862812403 -0.29683991672123905
12.879984375 0.9659910557250088 -0.3000918975848797
12.8811328125 0.9646164711397931 -0.3008669134671993
12.88228125 0.9624169970615836 -0.29976053508764766
12.8834296875 0.9576158537438033 -0.3003906913125153
12.884578125 0.9601111751993214 -0.3004488639916101
12.8857265625 0.9573446986289016 -0.2965571274748882
12.886875 0.9556616621868661 -0.2987150547815406
12.8880234375 0.9573655041020366 -0.2983407331877527
12.889171875 0.9558782278804612 -0.30047115912600364
12.8903203125 0.9571082770579808 -0.2978081124128219
12.89146875 0.958568306404072 -0.29979969981359667
12.8926171875 0.9602552113803462 -0.29886505240893396
12.893765625 0.9607023706356612 -0.29999401037123763
12.8949140625 0.9622266131019448 -0.3013933090562866
12.8960625 0.9613445435556756 -0.3046601839600842
12.8972109375 0.9611765638739873 -0.30503737981429846
12.898359375 0.9596849620414072 -0.30551141512280466
12.8995078125 0.9594208966464908 -0.30738606254040596
12.90065625 0.9588239123732598 -0.3085600921256684
12.9018046875 0.9578892474392473 -0.31039572369084745
12.902953125 0.9559054264572622 -0.31211291602234514
12.9041015625 0.9558113381465096 -0.31108316951211346
12.90525 0.9563208771874622 -0.3121630836026863
12.9063984375 0.9558530286820073 -0.3143812018477849
12.907546875 0.9531931682164716 -0.3144301826498383
12.9086953125 0.9535866385485856 -0.3131399993984257
12.90984375 0.9519517517737102 -0.31527484641429465
12.9109921875 0.9529942224759369 -0.3151956345023066
12.912140625 0.9550755615811055 -0.3169463740260771
12.9132890625 0.9513249601021976 -0.31751563395088406
12.9144375 0.9521648195171726 -0.3176223044142798
12.9155859375 0.952761605870198 -0.31835869032059905
12.916734375 0.9557093571595862 -0.31678808955148874
12.9178828125 0.9551987540844409 -0.3211214814717158
12.91903125 0.9542999353822227 -0.3210748907278598
12.9201796875 0.9528986410034169 -0.32260689481815025
12.921328125 0.9546262734329124 -0.3237024885306326
12.9224765625 0.9543416957413245 -0.32463640217860135
12.923625 0.9548183771052465 -0.32574983268399815
12.9247734375 0.9543529175799089 -0.32894052429124115
12.925921875 0.9538102156131438 -0.330406119283988
12.9270703125 0.9529382480579696 -0.33076010481686674
12.92821875 0.9517611529026699 -0.3332288843888344
12.9293671875 0.9501023852454558 -0.3334218837729177
12.930515625 0.9496848859275411 -0.3337856864470923
12.9316640625 0.9478621278556283 -0.3330893689845642
12.9328125 0.9487017677431719 -0.33528604114945953
12.9339609375 0.9480632613500869 -0.3336863116877583
12.935109375 0.9477186798220512 -0.3332799007537843
12.9362578125 0.9464658234180646 -0.3334694617712162
12.93740625 0.9459533530277124 -0.3329656225753109
12.9385546875 0.9458171903493258 -0.33206164435279995
12.939703125 0.9478547425199192 -0.33217864146849707
12.9408515625 0.9468879084991502 -0.33310939473913315
12.942 0.950532936855361 -0.3340862413654039
12.9431484375 0.9487212119959392 -0.3353078156145195
12.944296875 0.9493158982140106 -0.3347056040192312
12.9454453125 0.9479540212211074 -0.33471957527579577
12.94659375 0.9489627209045196 -0.3334904890201413
12.9477421875 0.9512972097422286 -0.3340231921099167
12.948890625 0.953383689147956 -0.3357663178556566
12.9500390625 0.956972594240944 -0.33754696107078747
12.9511875 0.9579396343614206 -0.34235344515022115
12.9523359375 0.9597304294178979 -0.34573931846770634
12.953484375 0.9567569741909889 -0.3472880526524334
12.9546328125 0.9561854834642237 -0.351307419059413
12.95578125 0.9530656340540693 -0.35228831130990823
12.9569296875 0.9516990764359952 -0.35233554736065276
12.958078125 0.951445419943452 -0.35527467837406157
12.9592265625 0.9503095938900141 -0.35563516411525703
12.960375 0.9505644824941273 -0.3548691213377491
12.9615234375 0.9497834700037127 -0.3566737940604613
12.962671875 0.9496866933197118 -0.35787138662151585
12.9638203125 0.9480930279888726 -0.35798022217729486
12.96496875 0.9462064575516083 -0.3605301690962064
12.9661171875 0.9432682531431286 -0.3627586758433562
12.967265625 0.9420417703211008 -0.3611101785582507
12.9684140625 0.9406547973847239 -0.36056850663039597
12.9695625 0.940907933145708 -0.359309240612643
12.9707109375 0.9400206643098828 -0.36026107434778665
12.971859375 0.9401456950686998 -0.3590261912133649
12.9730078125 0.9406166326620187 -0.3582916298762351
12.97415625 0.9447639793059074 -0.3569184471057153
12.9753046875 0.9459591422799987 -0.3579845192818733
12.976453125 0.9494584696766154 -0.3602113205821761
12.9776015625 0.9500994279257164 -0.36167171889450306
12.97875 0.9502101183920837 -0.3659461579256966
12.9798984375 0.9526789339203061 -0.3686405889790072
12.981046875 0.9500186269913339 -0.3712101832577045
12.9821953125 0.9505123559839659 -0.373693486917983
12.98334375 0.9492188276891547 -0.3754988279605406
12.9844921875 0.9461223906704996 -0.37909115708928454
12.985640625 0.9470103026922649 -0.3791757993315933
12.9867890625 0.9440888751636772 -0.37964406103322634
12.9879375 0.9459303161674495 -0.38071072676558554
12.9890859375 0.9451647599596424 -0.3817969036563777
12.990234375 0.9446950575399077 -0.3854108012302895
12.9913828125 0.9462911498605181 -0.3869022053110155
12.99253125 0.9440708261912644 -0.39005720206896294
12.9936796875 0.9436063333719162 -0.3940952533301776
12.994828125 0.9408481677265552 -0.3960017021934058
12.9959765625 0.9381834631631821 -0.39911737938123343
12.997125 0.9339148377339387 -0.3998012342541024
12.9982734375 0.9292019326373994 -0.3995065053605251
12.999421875 0.9294238926953029 -0.3960965092108133
13.0005703125 0.9271020260865315 -0.39543733552603083
13.00171875 0.9284091374020245 -0.39667091732952864
13.0028671875 0.9288262384880785 -0.39593417427862077
13.004015625 0.9290595377849814 -0.3970741995972405
13.0051640625 0.9293078983545082 -0.39797192853948915
13.0063125 0.9283871288653717 -0.3996961526808829
13.0074609375 0.9275764977198623 -0.4024260799176601
13.008609375 0.92550453444461 -0.4021761727500808
13.0097578125 0.924830003901135 -0.40134836863916545
13.01090625 0.9232152716281168 -0.40094163011106915
13.0120546875 0.924100835054915 -0.4009352569260304
13.013203125 0.9237415988591579 -0.40226023019586954
13.0143515625 0.9238465042327755 -0.40328802037790945
13.0155 0.9219920301679948 -0.4028756571691698
13.0166484375 0.9219667490568413 -0.40311973096233306
13.017796875 0.9227431018167265 -0.40126782365795893
13.0189453125 0.92091260875482 -0.40272488497610975
13.02009375 0.9230938612750753 -0.4030231634225312
13.0212421875 0.9231432719783255 -0.4050585274939711
13.022390625 0.9230926018019705 -0.4062629115038602
13.0235390625 0.921142692101639 -0.4061266354109023
13.0246875 0.9197206792470085 -0.40851367444654363
13.0258359375 0.9188914606518066 -0.4079800952092925
13.026984375 0.9186334939659563 -0.40795410629816997
13.0281328125 0.9202536430669668 -0.40599076904611986
13.02928125 0.9205018417837596 -0.4044894148776789
13.0304296875 0.9222125602275498 -0.4057728534576745
13.031578125 0.9245678969326656 -0.4091399880385778
13.0327265625 0.9268544631062458 -0.4127053510404663
13.033875 0.9266642909541503 -0.41526701672818106
13.0350234375 0.9253440161764733 -0.41844681957498814
13.036171875 0.9221747940140828 -0.42086494846722877
13.0373203125 0.9211218426687527 -0.42332855452749646
13.03846875 0.9172895819603449 -0.42463651602555524
13.0396171875 0.9153442559672693 -0.42200568681245837
13.040765625 0.914284021922538 -0.41960113171273816
13.0419140625 0.9163188423404973 -0.4195262448582345
13.0430625 0.9182828330677197 -0.42208931697383856
13.0442109375 0.918818326924492 -0.42524559579013366
13.045359375 0.9189444608350441 -0.4281159449052519
13.0465078125 0.9194924201477254 -0.4301361366272337
13.04765625 0.9171520534530052 -0.4325265220166444
13.0488046875 0.9149972016063842 -0.4329810773930329
13.049953125 0.9128439363967236 -0.43578688135253146
13.0511015625 0.9092759757019793 -0.43624207436346407
13.05225 0.9087805987748387 -0.4372960127628096
13.0533984375 0.9075850153745647 -0.4381583461632985
13.054546875 0.9068429947803 -0.43765921365406046
13.0556953125 0.9057343051974461 -0.43883278268753717
13.05684375 0.9044550585061863 -0.44102462058179936
13.0579921875 0.9028768897971033 -0.44199243547786016
13.059140625 0.901883825218794 -0.44219662666572557
13.0602890625 0.9015132654041648 -0.44204078858533946
13.0614375 0.9002944436254092 -0.44304445246023383
13.0625859375 0.899316682507882 -0.4436210619194482
13.063734375 0.8972883439217225 -0.4449836490428273
13.0648828125 0.8960022523872245 -0.4454650015125957
13.06603125 0.8952165966633313 -0.444408131961599
13.0671796875 0.893974217022554 -0.44416651493927234
13.068328125 0.8930642269659684 -0.44666411815130885
13.0694765625 0.8919714703936602 -0.44575252173555185
13.070625 0.8911477848808385 -0.4455136146849716
13.0717734375 0.8900847858715669 -0.44489364885632465
13.072921875 0.8893557274544409 -0.4446077836581388
13.0740703125 0.890415560900926 -0.44575612380717405
13.07521875 0.889365099884279 -0.445833185103695
13.0763671875 0.888024027289104 -0.4478420023996751
13.077515625 0.8864752286391433 -0.44690591350900727
13.0786640625 0.8851862855716087 -0.4462816971256293
13.0798125 0.884636393459616 -0.4473728877186319
13.0809609375 0.8875582863187085 -0.44694689945013905
13.082109375 0.8861499073506554 -0.446480763470131
13.0832578125 0.883329365621264 -0.4495680842289241
13.08440625 0.8847213551615981 -0.45022112610810616
13.0855546875 0.883636831326637 -0.45395346388367047
13.086703125 0.881760350804541 -0.4548176936847066
13.0878515625 0.8790530734273622 -0.453648099579782
13.089 0.8755739317351527 -0.4540544940560642
13.0901484375 0.8732056641140163 -0.45276550889525413
13.091296875 0.8727243776083311 -0.4521025013886661
13.0924453125 0.8709979937784071 -0.4483196026160877
13.09359375 0.8731127761290305 -0.44684708053866984
13.0947421875 0.8706142903123559 -0.4460982957599525
13.095890625 0.8717844699194043 -0.44617600625136067
13.0970390625 0.8743792659064786 -0.44542891879406227
13.0981875 0.870332269508397 -0.44501278170104897
13.0993359375 0.872905590589023 -0.4425977645136633
13.100484375 0.8740422943510368 -0.44429313422951544
13.1016328125 0.8749436017287979 -0.4434574048980802
13.10278125 0.8730408903995922 -0.44416548464652295
13.1039296875 0.8730423794160984 -0.44324888496791087
13.105078125 0.8708593979186936 -0.4406645569058595
13.1062265625 0.8719414239642534 -0.4406041236672119
13.107375 0.873671536509079 -0.43719348185079443
13.1085234375 0.8757285744965726 -0.43581408083020323
13.109671875 0.8776260394269246 -0.4352784107015785
13.1108203125 0.8814385631869177 -0.4351239705228648
13.11196875 0.8838380936437555 -0.4359762511318018
13.1131171875 0.8850122254201778 -0.4388271181301821
13.114265625 0.8876402416761184 -0.4393101690571257
13.1154140625 0.8882239694171641 -0.4408672855761463
13.1165625 0.8904826995034834 -0.44194744428132615
13.1177109375 0.8906294140108375 -0.44340335649044005
13.118859375 0.891277548705758 -0.44407650790239495
13.1200078125 0.8916910383562007 -0.4457445845131215
13.12115625 0.8930609429307806 -0.45021702595810437
13.1223046875 0.8934784123085266 -0.44949230750884867
13.123453125 0.8940980392336337 -0.4505995462931699
13.1246015625 0.8942059730580365 -0.4531639332107517
13.12575 0.8946593670408034 -0.4546973641495348
13.1268984375 0.8945803103434589 -0.45672356922455515
13.128046875 0.8946746423430525 -0.4575758519577598
13.1291953125 0.8950186844354567 -0.4605818825974042
13.13034375 0.8961230245414494 -0.4625851680421137
13.1314921875 0.896113323329352 -0.46427061745676557
13.132640625 0.8956199310582995 -0.4677038643683966
13.1337890625 0.8948905205498628 -0.46821507016896
13.1349375 0.8934639792824601 -0.4706422062020566
13.1360859375 0.8925978314018989 -0.474115344799473
13.137234375 0.8901374870965664 -0.4744253802578485
13.1383828125 0.8871815084255796 -0.47496096222517725
13.13953125 0.8861419059903023 -0.47498376538617015
13.1406796875 0.8858340549410033 -0.47443510613187473
13.141828125 0.886400511122002 -0.4739232905763019
13.1429765625 0.88700260054169 -0.4751442377221303
13.144125 0.88704721040833 -0.4772957592316488
13.1452734375 0.8870452820346257 -0.4779418390059331
13.146421875 0.8872284112981577 -0.479115017664125
13.1475703125 0.8862810559684607 -0.48023061654063653
13.14871875 0.8860980643012139 -0.4805997087022733
13.1498671875 0.8854540265862145 -0.48101519066670745
13.151015625 0.8862841364361185 -0.4824763498669902
13.1521640625 0.8876865443204361 -0.48320319724468097
13.1533125 0.8879452069092755 -0.48323834545543365
13.1544609375 0.8885685014466748 -0.4851202437447797
13.155609375 0.8885107177551127 -0.4877033769161062
13.1567578125 0.889250327691976 -0.48958008068284586
13.15790625 0.8878305323783338 -0.4906554280905162
13.1590546875 0.8874385851517131 -0.49191549471935
13.160203125 0.8873635825415072 -0.4927370884400959
13.1613515625 0.8859111919335387 -0.49465121955803304
13.1625 0.8853759690782438 -0.496191972765474
13.1636484375 0.8860502856192488 -0.49707877886609586
13.164796875 0.8857317564052569 -0.4982230115170409
13.1659453125 0.8848818885420091 -0.5003332664554739
13.16709375 0.8843981083510547 -0.5005810136595203
13.1682421875 0.8856209455456112 -0.5018768856029527
13.169390625 0.8855100775964494 -0.5056613646157628
13.1705390625 0.8856802534399255 -0.5068007132150143
13.1716875 0.8866583566080426 -0.5069775021055615
13.1728359375 0.8844281139075097 -0.510364501489728
13.173984375 0.881865676982329 -0.511857090719375
13.1751328125 0.8831045047289429 -0.5132637510328052
13.17628125 0.8799819179527725 -0.5138127726459938
13.1774296875 0.8807155328893745 -0.5132554339673358
13.178578125 0.8808757450372485 -0.5149416424775912
13.1797265625 0.8817882057349874 -0.5141666059958523
13.180875 0.8813454964377215 -0.5185625804143394
13.1820234375 0.8792775137140799 -0.5192320026654695
13.183171875 0.8802086935323937 -0.5201957637942399
13.1843203125 0.879878165876579 -0.5227823780380385
13.18546875 0.8775144004048925 -0.5239798533054871
13.1866171875 0.877641049482512 -0.5258520252894688
13.187765625 0.8748460297413964 -0.5271570263675693
13.1889140625 0.8740022960762066 -0.5299629460146
13.1900625 0.8730509289166786 -0.5293827603848396
13.1912109375 0.8731634534262265 -0.5298044698579605
13.192359375 0.8733070861792525 -0.5310037749712113
13.1935078125 0.8741607848588886 -0.5328722235040416
13.19465625 0.8722193838020725 -0.5341046634411419
13.1958046875 0.8714131494645608 -0.5377001947979986
13.196953125 0.8684708931057713 -0.5385632732712952
13.1981015625 0.8662955299488311 -0.5405707560414237
13.19925 0.8650575351508074 -0.5392419786682394
13.2003984375 0.8612746085048224 -0.5413028232397128
13.201546875 0.8607790917264455 -0.5398048345662451
13.2026953125 0.8590140521958286 -0.5389662985255155
13.20384375 0.8581794880195861 -0.5387220370387671
13.2049921875 0.8576627634632963 -0.5360966776166975
13.206140625 0.8580289268537532 -0.5385597051608998
13.2072890625 0.8571081760999932 -0.5386768548755039
13.2084375 0.8576464240137269 -0.5385669091291905
13.2095859375 0.8582507898460707 -0.5400162802853927
13.210734375 0.8591557037564878 -0.5403292987674078
13.2118828125 0.8597394211027445 -0.541148609636932
13.21303125 0.8614566607432075 -0.5430537650297718
13.2141796875 0.8602826911287967 -0.5444729939985757
13.215328125 0.85770852142313 -0.5457738239457655
13.2164765625 0.8569947552786855 -0.5466293080007182
13.217625 0.8590170046271856 -0.5453591551096242
13.2187734375 0.8545166754453704 -0.5458119567715094
13.219921875 0.8535803025499941 -0.54978292048623
13.2210703125 0.8551735552728195 -0.5502325655023641
13.22221875 0.8536422323601698 -0.5464550197233604
13.2233671875 0.854711308186469 -0.5506323848560598
13.224515625 0.8585181477651779 -0.5480602646441871
13.2256640625 0.8556320083999002 -0.5483938565066341
13.2268125 0.8575000095632017 -0.555657835737557
13.2279609375 0.8525418059507845 -0.5573683242619341
13.229109375 0.8513872102714682 -0.5563665407669288
13.2302578125 0.8497508719689315 -0.5567741192363808
13.23140625 0.8492211899266779 -0.558408312633679
13.2325546875 0.8506085448746985 -0.5595739239583306
13.233703125 0.8465434749487336 -0.5567094662174019
13.2348515625 0.8474397670603919 -0.5556206185448452
13.236 0.8463227034985856 -0.5618974402124717
13.2371484375 0.8486934633031242 -0.56285526903444
13.238296875 0.8504467890743103 -0.5612866771930228
13.2394453125 0.85045721049761 -0.5667348825638197
13.24059375 0.8496125186156015 -0.564722838925678
13.2417421875 0.842468377420876 -0.5658929643476344
13.242890625 0.8445862850123584 -0.5589823013839585
13.2440390625 0.8448695656061517 -0.5619508734403107
13.2451875 0.8464769860339636 -0.5603346059876997
13.2463359375 0.8468896506463273 -0.5613533850994685
13.247484375 0.8400543011394221 -0.5605895361634678
13.2486328125 0.8446090824966783 -0.5619581350586444
13.24978125 0.8422884170301087 -0.5684260432947602
13.2509296875 0.8409874874172549 -0.5637446348513221
13.252078125 0.845240213042438 -0.5634797269128571
13.2532265625 0.8441163711092534 -0.5678187463827525
13.254375 0.8460192451696533 -0.56651119682612
13.2555234375 0.8436295374782354 -0.565206598047336
13.256671875 0.8453421544014512 -0.5683690739635733
13.2578203125 0.8476723593619124 -0.5680126349175195
13.25896875 0.849807048550147 -0.5686306539535582
13.2601171875 0.8453267088678926 -0.5704852314062746
13.261265625 0.8415964295556553 -0.574073891025834
13.2624140625 0.84781707358844 -0.5730104768942595
13.2635625 0.8453529424770423 -0.573194938502339
13.2647109375 0.8442065608269405 -0.5779198624044979
13.265859375 0.8456606441432138 -0.5793397899657863
13.2670078125 0.8470041603848355 -0.5776436381882888
13.26815625 0.8467922655145542 -0.5822801630180556
13.2693046875 0.8442444326167153 -0.5798639494734821
13.270453125 0.8454451009621167 -0.5827289226390517
13.2716015625 0.841179563382961 -0.5844592289999133
13.27275 0.8418400029095524 -0.5863990210132627
13.2738984375 0.8435034648692872 -0.5874173360289153
13.275046875 0.840144607872093 -0.5879971636873865
13.2761953125 0.8362355086546557 -0.5868777219662673
13.27734375 0.8389723487671586 -0.5863005013814899
13.2784921875 0.8378809325711742 -0.5892727537615282
13.279640625 0.8399147508084321 -0.5914632383020082
13.2807890625 0.8392502213162769 -0.5910778966482675
13.2819375 0.8387185027533091 -0.5927419612946889
13.2830859375 0.8362843972163488 -0.5956324283107489
13.284234375 0.8338563632344052 -0.5946218208058209
13.2853828125 0.8324224671511811 -0.5948046920792935
13.28653125 0.834874741380661 -0.5985133014108621
13.2876796875 0.8338620673415584 -0.6008632308475472
13.288828125 0.8321095011370521 -0.600232344365808
13.2899765625 0.8283244620922843 -0.5999263594523947
13.291125 0.8273042237563302 -0.6022025078697114
13.2922734375 0.8272435784439325 -0.603536428365395
13.293421875 0.8274297367637551 -0.6044583481596293
13.2945703125 0.8220152581311642 -0.6058712007245519
13.29571875 0.8227520392716986 -0.6058854029441043
13.2968671875 0.8227352267790251 -0.6047881349167697
13.298015625 0.8218204187800398 -0.6056679827602477
13.2991640625 0.8216030539931893 -0.6071203537400729
13.3003125 0.8191067473361371 -0.6084636973890776
13.3014609375 0.8201626094533437 -0.6076053188311602
13.302609375 0.8176035363893128 -0.6076405489178814
13.3037578125 0.8152078356533339 -0.6067852433372578
13.30490625 0.8157558802529004 -0.6074428053945466
13.3060546875 0.8168270017774031 -0.6101059666899638
13.307203125 0.8180905257175383 -0.6104772630576518
13.3083515625 0.8181400002260741 -0.6113994726809379
13.3095 0.8165752787627459 -0.6140628671416437
13.3106484375 0.8161189251141243 -0.6133688887846955
13.311796875 0.8173168308518072 -0.6137473481537951
13.3129453125 0.8139571107397966 -0.6152339785042382
13.31409375 0.8126611500003299 -0.6203401964376852
13.3152421875 0.8119899040000532 -0.6211809499826701
13.316390625 0.8107271423936819 -0.6216641611566559
13.3175390625 0.81011036830156 -0.6224827059913554
13.3186875 0.8078119699786263 -0.6250410382904794
13.3198359375 0.8065532845890707 -0.6258541500439462
13.320984375 0.8052905734855393 -0.6275124823785403
13.3221328125 0.8041409299740767 -0.6282283382409387
13.32328125 0.8014357097592297 -0.6262638145458046
13.3244296875 0.8004878284243633 -0.6273003195254434
13.325578125 0.7983817490005554 -0.6279520329049827
13.3267265625 0.7987915662052274 -0.6299377527446587
13.327875 0.7960003766715427 -0.6297820241217065
13.3290234375 0.7936706555172964 -0.6290136374193012
13.330171875 0.792755896956708 -0.6269088764028512
13.3313203125 0.7937158349460112 -0.6265036138274542
13.33246875 0.7930889076790775 -0.6256467232725218
13.3336171875 0.7947522042562152 -0.6261816533013635
13.334765625 0.795013631691081 -0.6278975587314426
13.3359140625 0.7945702520469121 -0.6307725578273604
13.3370625 0.7933713569025338 -0.6309749688971705
13.3382109375 0.7929546978935315 -0.6303572423629314
13.339359375 0.7907096351462144 -0.634713774146873
13.3405078125 0.7896474523818643 -0.6344014380790461
13.34165625 0.7880878182091392 -0.6352858073776972
13.3428046875 0.7880791653309199 -0.6341525854371497
13.343953125 0.7856497927060067 -0.6349624775370232
13.3451015625 0.7852874165875288 -0.6344978043225078
13.34625 0.7822775319365092 -0.6348977373350305
13.3473984375 0.7834431430072454 -0.6357515766475594
13.348546875 0.7833623852225178 -0.6352112954367303
13.3496953125 0.7823205886737141 -0.6359398070792416
13.35084375 0.7816936138685276 -0.6365936015655336
13.3519921875 0.7810296685409683 -0.6357126431040949
13.353140625 0.782787638209047 -0.6361553463328291
13.3542890625 0.7819223546221566 -0.636860571226997
13.3554375 0.7776199149672642 -0.6371920577052588
13.3565859375 0.7760854793145195 -0.6382796798208019
13.357734375 0.7754778081489115 -0.6357606654183077
13.3588828125 0.7742307477167107 -0.635360793723595
13.36003125 0.7733605047218474 -0.6357005433327573
13.3611796875 0.7744433666174355 -0.6342479710761483
13.362328125 0.7734552062982425 -0.6335620911630001
13.3634765625 0.7738946873042962 -0.6340234110488627
13.364625 0.7784811375467952 -0.6324468238229257
13.3657734375 0.7751662721917565 -0.6334193824561605
13.366921875 0.7746881095351256 -0.636757784667326
13.3680703125 0.7731184366757394 -0.6386060678963492
13.36921875 0.7713583012159637 -0.6369554046380124
13.3703671875 0.7708526156838033 -0.6361686240234778
13.371515625 0.7708389644824786 -0.6368153797351237
13.3726640625 0.7666586388806411 -0.6345624231095943
13.3738125 0.7705658862881475 -0.6357853279638915
13.3749609375 0.7697123595693528 -0.6306196184448198
13.376109375 0.7716518426686167 -0.6300536552527369
13.3772578125 0.7724508483128498 -0.6347430087599615
13.37840625 0.77410336460184 -0.6330779888871162
13.3795546875 0.7740102582499675 -0.6350081144048576
13.380703125 0.7707699333204655 -0.6354669776922449
13.3818515625 0.7760895011557682 -0.6372677419526727
13.383 0.7742758981937317 -0.6384079221920929
13.3841484375 0.7713335384775222 -0.6377288051137938
13.385296875 0.7712927550325304 -0.637910465467924
13.3864453125 0.7668850255033283 -0.638788906864727
13.38759375 0.7660841577527523 -0.6346220929598517
13.3887421875 0.7706961312574339 -0.6320937278097264
13.389890625 0.7733409682312977 -0.6302115773947342
13.3910390625 0.7726537137798349 -0.6300869333837902
13.3921875 0.7738502130796558 -0.6295550615368616
13.3933359375 0.7770896895876673 -0.6320819000439157
13.394484375 0.7789344038337593 -0.6276481391150187
13.3956328125 0.7845414037918176 -0.6285623390634932
13.39678125 0.7863168403406073 -0.6328364864182952
13.3979296875 0.7893669102074452 -0.631935892671161
13.399078125 0.7907453496757333 -0.636409467276247
13.4002265625 0.7894566014905975 -0.64101970631094
13.401375 0.7931013233058765 -0.640590608747533
13.4025234375 0.7930723267467155 -0.6422679106385736
13.403671875 0.7890976994361896 -0.6488609848591311
13.4048203125 0.7900329253222671 -0.6523981359557559
13.40596875 0.7901858137073561 -0.6518914504291866
13.4071171875 0.7909800142777529 -0.6526892133679101
13.408265625 0.79409015154317 -0.6549217353180835
13.4094140625 0.7945771213563617 -0.6546608686337362
13.4105625 0.7920843842785235 -0.6563013414945221
13.4117109375 0.7936700058595383 -0.6625842800310079
13.412859375 0.7918395363414892 -0.666598104705508
13.4140078125 0.7920459774807665 -0.6671315586653205
13.41515625 0.7890990092048469 -0.670476462921809
13.4163046875 0.7908078364893936 -0.6719769108059119
13.417453125 0.7885849794644872 -0.6710862251272809
13.4186015625 0.7862580624130203 -0.6745632869536514
13.41975 0.7861816607652812 -0.6770522660023776
13.4208984375 0.7854634912231974 -0.6726827585861201
13.422046875 0.7870814798999388 -0.6789599914105012
13.4231953125 0.7880594997251829 -0.6832347591065373
13.42434375 0.7854655192078169 -0.6805631789272792
13.4254921875 0.7828365639064601 -0.6876202121603684
13.426640625 0.7817217209859104 -0.6938379688101513
13.4277890625 0.77982733086621 -0.6913824475874931
13.4289375 0.7799823891196493 -0.6933310072954088
13.4300859375 0.7745305525105565 -0.696120069400527
13.431234375 0.7718442066142446 -0.69599441659785
13.4323828125 0.7644479656036574 -0.690640977738935
13.43353125 0.7642637488144046 -0.6953594914890129
13.4346796875 0.7644563808461023 -0.689190448178713
13.435828125 0.7680538783744141 -0.6904030890152096
13.4369765625 0.7651110487270684 -0.6887350418368143
13.438125 0.765096731250736 -0.6938444543353595
13.4392734375 0.7610389422375625 -0.6914508436921623
13.440421875 0.7616889685633794 -0.6933503011096207
13.4415703125 0.760740924673174 -0.6988313989875962
13.44271875 0.7572454850100176 -0.6963064971688361
13.4438671875 0.7574477168307834 -0.6959019195295407
13.445015625 0.7536116202743117 -0.6971178017446689
13.4461640625 0.7545436827957795 -0.6976226061889936
13.4473125 0.7559980930680971 -0.6956655047124787
13.4484609375 0.7551618681282168 -0.6986372756208706
13.449609375 0.754547970669625 -0.6996269932410416
13.4507578125 0.7522894485132688 -0.7013170263381192
13.45190625 0.7535896741239625 -0.6992329628424099
13.4530546875 0.7505785459863433 -0.7017602162284103
13.454203125 0.7472000944381886 -0.7009579300038393
13.4553515625 0.7485671393717325 -0.7037298151216647
13.4565 0.7487273401372739 -0.7049569155077702
13.4576484375 0.749543880327063 -0.7033228764139945
13.458796875 0.7479693223068964 -0.7046962339667631
13.4599453125 0.7467778028580558 -0.7052712702238566
13.46109375 0.7437543694001143 -0.7044107167404279
13.4622421875 0.7406406961343094 -0.7050574864875868
13.463390625 0.7402719760439281 -0.7070928274289697
13.4645390625 0.7441991694568795 -0.7071805355355594
13.4656875 0.7421013731805116 -0.705783185800214
13.4668359375 0.7401168631900896 -0.7063840447507718
13.467984375 0.7409703510140295 -0.7088476996809143
13.4691328125 0.7369563034139965 -0.7069891972452561
13.47028125 0.7388897975856145 -0.7084052089631349
13.4714296875 0.7364307764220761 -0.7078052721335963
13.472578125 0.73364766292882 -0.7071448326368319
13.4737265625 0.7364142697426409 -0.7060462527331096
13.474875 0.7346138020644569 -0.7044015373309322
13.4760234375 0.7341459670884604 -0.7093616216419059
13.477171875 0.7329697849575179 -0.7086527135103499
13.4783203125 0.7345035027377679 -0.7113368539780806
13.47946875 0.7316256599030688 -0.7120014009336799
13.4806171875 0.7325234442200967 -0.7086016649100704
13.481765625 0.7333420156098849 -0.7097148626227345
13.4829140625 0.7328783308152006 -0.7131118142003727
13.4840625 0.7339230539169022 -0.7134358126422812
13.4852109375 0.7331165104633176 -0.7127450828348396
13.486359375 0.7342145255442167 -0.716100934402724
13.4875078125 0.7359009289575217 -0.7161085520120839
13.48865625 0.7333030493637042 -0.7158258541638814
13.4898046875 0.7306651544303621 -0.718989892658366
13.490953125 0.7314374491817248 -0.7219375808131021
13.4921015625 0.7283702695617148 -0.7202054599725518
13.49325 0.727996102200925 -0.7195621158741375
13.4943984375 0.7266629227745862 -0.7218661715235959
13.495546875 0.7241581303101693 -0.7226829254089366
13.4966953125 0.7231497841505059 -0.7230808537513622
13.49784375 0.7253175421403837 -0.7249391430572059
13.4989921875 0.7250182202161072 -0.7244091134060826
13.500140625 0.7262351077673099 -0.7248460297087173
13.5012890625 0.7200347488480145 -0.7265142222111611
13.5024375 0.7193101647318301 -0.7285980710530324
13.5035859375 0.721489953374242 -0.7298117511626147
13.504734375 0.7185752075324982 -0.7327379216802746
13.5058828125 0.7157786386690768 -0.7316366034973969
13.50703125 0.7141265868038023 -0.7325747895841441
13.5081796875 0.7118012864836235 -0.7318991362012943
13.509328125 0.7092162755653592 -0.7357197894903309
13.5104765625 0.706185605202529 -0.7337399793508667
13.511625 0.7062472389240824 -0.7322395731320857
13.5127734375 0.7057771740096435 -0.7351884443412718
13.513921875 0.7045257099565398 -0.7301994642146633
13.5150703125 0.7026822193161009 -0.7273830281618618
13.51621875 0.7039958802434454 -0.7274138206556133
13.5173671875 0.7038125207060495 -0.7295136367431304
13.518515625 0.7052347990649079 -0.7305112000386025
13.5196640625 0.7061248744763025 -0.7291906912344732
13.5208125 0.7075393895438588 -0.7311629844068519
13.5219609375 0.7056020771617417 -0.735782328236805
13.523109375 0.705907076745716 -0.7337135105384319
13.5242578125 0.7010929160935656 -0.7362679161272105
13.52540625 0.6996796211352891 -0.7323259136063127
13.5265546875 0.7016044549223568 -0.7313210972265095
13.527703125 0.6995476227560398 -0.7340482120123302
13.5288515625 0.6996241147397122 -0.7337266203476178
13.53 0.6972959860004706 -0.7341764894879532
13.5311484375 0.6976012217630562 -0.7360483155294486
13.532296875 0.6971635968329732 -0.7359127906365531
13.5334453125 0.6976550746382417 -0.7346814606682504
13.53459375 0.6964592527645418 -0.7362462274294919
13.5357421875 0.6964536934565061 -0.7389950900305275
13.536890625 0.6961349076983303 -0.7376631399722273
13.5380390625 0.6952390186755715 -0.7391099278912411
13.5391875 0.6926314188475344 -0.739364783389931
13.5403359375 0.6930779822704913 -0.7407143232685258
13.541484375 0.6914179379555458 -0.7400797344834337
13.5426328125 0.6899934820183564 -0.7418857521928073
13.54378125 0.6917625726961883 -0.7427353334714374
13.5449296875 0.6902268690663101 -0.7401935033773973
13.546078125 0.6892338804689928 -0.735518883748687
13.5472265625 0.6876251037384176 -0.7382750281370134
13.548375 0.6882354689484165 -0.7382991869208797
13.5495234375 0.6884111849561876 -0.7386714517968361
13.550671875 0.6881795131355062 -0.7440886753500765
13.5518203125 0.6860061425327442 -0.7408965156806797
13.55296875 0.6895266146466151 -0.742375760933606
13.5541171875 0.685199188966224 -0.7401658953074077
13.555265625 0.6834607118721565 -0.7427724601101675
13.5564140625 0.6838964659123019 -0.7417599167578128
13.5575625 0.6838509861541562 -0.7420777410656558
13.5587109375 0.6859365517673375 -0.7438406634156267
13.559859375 0.6855316052693252 -0.7374571746971178
13.5610078125 0.6824496874133356 -0.7403910753212072
13.56215625 0.6788933094603605 -0.7456779895579159
13.5633046875 0.6832197180434249 -0.7442246553760802
13.564453125 0.6844699431090732 -0.7402912860952063
13.5656015625 0.6807750930620635 -0.7460502289121935
13.56675 0.6817771268119069 -0.7412731179490814
13.5678984375 0.6858054105753646 -0.7451394359015804
13.569046875 0.6778605980718728 -0.7449675476247861
13.5701953125 0.6809744889647429 -0.7456126349274048
13.57134375 0.6786253831639695 -0.7463575966147437
13.5724921875 0.6810230907302659 -0.7411286298309182
13.573640625 0.6817076955810549 -0.7454725805635911
13.5747890625 0.6770232848289639 -0.7519114795380082
13.5759375 0.6767360615581437 -0.7481931820562946
13.5770859375 0.6760642118741769 -0.750740210369961
13.578234375 0.6769727456674595 -0.7526720125180542
13.5793828125 0.6750452839127347 -0.7498644401447396
13.58053125 0.6747405006063524 -0.7489567775665357
13.5816796875 0.6718184012062776 -0.7506533243341922
13.582828125 0.6726116154071705 -0.7513525618286844
13.5839765625 0.6720105305414285 -0.7494181233263116
13.585125 0.6715786000712606 -0.7508244669398535
13.5862734375 0.6748233479425112 -0.7521731235927384
13.587421875 0.6756704795208686 -0.7501793662229165
13.5885703125 0.6743010200654653 -0.752241635368744
13.58971875 0.6761379141347695 -0.7529284258713618
13.5908671875 0.6721691160495534 -0.7534672108548042
13.592015625 0.6692983387312058 -0.7545959525797354
13.5931640625 0.6714164064891711 -0.7548378556415123
13.5943125 0.6704892122285359 -0.7558834907346833
13.5954609375 0.6676351315020479 -0.7554810320353451
13.596609375 0.6662933831634352 -0.7556111072515003
13.5977578125 0.6688976298555362 -0.7552471082604203
13.59890625 0.6703054261558531 -0.7564170300673728
13.6000546875 0.6698237271369462 -0.7594238954446548
13.601203125 0.6678338383687186 -0.7611906808119475
13.6023515625 0.6646228205154348 -0.7599176661064464
13.6035 0.6645029033209223 -0.7610914661343033
13.6046484375 0.6671163654115273 -0.7612104881601423
13.605796875 0.6639789954904967 -0.7616111709985661
13.6069453125 0.6651868994181784 -0.7639143721218304
13.60809375 0.664638082263955 -0.7628097410335553
13.6092421875 0.6625258518960706 -0.7622277974322724
13.610390625 0.6656038405043003 -0.7645426573595964
13.6115390625 0.6665648331900638 -0.7649025861955967
13.6126875 0.6658620521423843 -0.7635996926039718
13.6138359375 0.6632847610870652 -0.7629290160804804
13.614984375 0.6595325784988106 -0.7627934324556925
13.6161328125 0.6630408078439858 -0.765325052380719
13.61728125 0.6647953649781659 -0.7671080719433221
13.6184296875 0.6654217366414827 -0.7671597670768289
13.619578125 0.6667809417800622 -0.7704099106087683
13.6207265625 0.659933076704267 -0.7661571278348446
13.621875 0.6571344806542936 -0.7695282565329333
13.6230234375 0.6636942640852808 -0.7720663237618305
13.624171875 0.659440992538692 -0.7740348156256127
13.6253203125 0.6610651750515126 -0.7719595392200366
13.62646875 0.6575042528349723 -0.7739039853348711
13.6276171875 0.6576009309000322 -0.7678013565979875
13.628765625 0.6523275427199109 -0.7721209935005356
13.6299140625 0.6621646924231543 -0.7810859049825162
13.6310625 0.6578463579241687 -0.7721180141049897
13.6322109375 0.6607406960390358 -0.7743881250087845
13.633359375 0.6587318154633495 -0.774532914325073
13.6345078125 0.6504196340186321 -0.77719926813634
13.63565625 0.6519584058007224 -0.7817828711405614
13.6368046875 0.6514324103440694 -0.7761146228306853
13.637953125 0.6571017649405189 -0.7801175650720524
13.6391015625 0.6515912308638592 -0.7878071099283096
13.64025 0.6486240638801433 -0.7757853702383365
13.6413984375 0.6417324664127388 -0.7772663921788371
13.642546875 0.6439543940502133 -0.7739243205843919
13.6436953125 0.6468818835023333 -0.7865801627126603
13.64484375 0.6424146261527592 -0.7791712997756499
13.6459921875 0.6497499941813623 -0.7743736559072052
13.647140625 0.6484147625905322 -0.7802492588472777
13.6482890625 0.6432776327312334 -0.7792845381125294
13.6494375 0.6371708777644305 -0.7875740929391195
13.6505859375 0.641654619828233 -0.7831194307815839
13.651734375 0.6432366594605753 -0.7764889949483953
13.6528828125 0.6448475046979311 -0.774672173858928
13.65403125 0.6456454730156491 -0.7855959248216862
13.6551796875 0.6358946998816746 -0.78698924162003
13.656328125 0.6411123564088822 -0.7858085892800171
13.6574765625 0.6332646310377288 -0.7876105613934404
13.658625 0.6450481252677615 -0.7823121532751568
13.6597734375 0.6378150772711586 -0.7815303333578283
13.660921875 0.637294254852869 -0.7802734942726657
13.6620703125 0.6365083889735254 -0.7907815365680448
13.66321875 0.6391917197950752 -0.786864840367333
13.6643671875 0.6282057764391462 -0.7884593201555358
13.665515625 0.6242346515642038 -0.7886520381584754
13.6666640625 0.6321640198199321 -0.7891461958945116
13.6678125 0.6256509030446953 -0.7931044722595708
13.6689609375 0.6250427612980303 -0.7855714398014867
13.670109375 0.6267933349550616 -0.7932753168879689
13.6712578125 0.6170569531982866 -0.790527135584076
13.67240625 0.6302511078335139 -0.794468581039907
13.6735546875 0.6304851000513971 -0.7871986309220104
13.674703125 0.6212599435149295 -0.7897712486556043
13.6758515625 0.6294478753603194 -0.7942628037274619
13.677 0.6305562303428068 -0.7932370583946755
13.6781484375 0.6229315399662476 -0.7974448918323305
13.679296875 0.6225460738687401 -0.7958539615320765
13.6804453125 0.6161408836317026 -0.7910975476132944
13.68159375 0.617902393472564 -0.7970804155231513
13.6827421875 0.6142939915552391 -0.8007256043678912
13.683890625 0.6165997049336899 -0.7973230780565235
13.6850390625 0.6165740762594356 -0.7938945935286089
13.6861875 0.6161551795133076 -0.7971683316167195
13.6873359375 0.6163164688121158 -0.7953369298995703
13.688484375 0.6153059803691504 -0.7979446002222437
13.6896328125 0.6165308238677423 -0.7984299514014926
13.69078125 0.6158315211882822 -0.794774199893169
13.6919296875 0.6144722521109938 -0.7957665103385869
13.693078125 0.6131925669711995 -0.7973749504342164
13.6942265625 0.6126170031668017 -0.7999148457205911
13.695375 0.6122289565209992 -0.7950667296072301
13.6965234375 0.6119879187822231 -0.7972529193526178
13.697671875 0.6087370818907459 -0.7970860289665604
13.6988203125 0.609635614877482 -0.796484342886415
13.69996875 0.6119855156611607 -0.8013780362437322
13.7011171875 0.6107557742843567 -0.797089477215554
13.702265625 0.6113646091392605 -0.7961144320064544
13.7034140625 0.6102925997160675 -0.7967969255307791
13.7045625 0.6093947825027062 -0.7948345055601054
13.7057109375 0.6106080607912485 -0.7972870710527886
13.706859375 0.6096060651046751 -0.7974374310805665
13.7080078125 0.609363685801773 -0.7989984883932965
13.70915625 0.6075336720431104 -0.7998909226135167
13.7103046875 0.6071809858701822 -0.7967078858960963
13.711453125 0.6125724915278707 -0.8002620250685646
13.7126015625 0.6115536686029277 -0.8028742590851119
13.71375 0.6058247734535259 -0.8002226665176464
13.7148984375 0.6063432016436617 -0.7998080269326133
13.716046875 0.6045567873696518 -0.8007971555607373
13.7171953125 0.601775419129013 -0.8029204396047817
13.71834375 0.6007127011052631 -0.8044813928526033
13.7194921875 0.6026471456164513 -0.8010169377093785
13.720640625 0.5975217844314585 -0.8051748463554376
13.7217890625 0.6007476098621023 -0.8057464989549801
13.7229375 0.5993998034401093 -0.805366868963156
13.7240859375 0.5948698348275565 -0.8024654456164975
13.725234375 0.5982898919908884 -0.8003054801805717
13.7263828125 0.5990862152065932 -0.8044563549772161
13.72753125 0.5944956155361181 -0.8036575636399276
13.7286796875 0.5915982321247808 -0.8055176608885254
13.729828125 0.5927639090710486 -0.805596995302146
13.7309765625 0.5902359127649849 -0.8033112603602359
13.732125 0.5913647316667369 -0.8038886088044063
13.7332734375 0.5902570571025203 -0.8024718997288001
13.734421875 0.5909015970496203 -0.8009507825767349
13.7355703125 0.5905621698560117 -0.7991502951094971
13.73671875 0.5901909629767919 -0.7994659091918954
13.7378671875 0.591933924438961 -0.8014222586497546
13.739015625 0.5930952327742388 -0.8041301939142096
13.7401640625 0.5853192953482553 -0.8054643925444464
13.7413125 0.5926811180018834 -0.8039458210181869
13.7424609375 0.5920249247610198 -0.8068066828915391
13.743609375 0.5902797609101372 -0.804345149309704
13.7447578125 0.5910818138407685 -0.8065348096778473
13.74590625 0.5898581792758788 -0.8092164272869706
13.7470546875 0.5885697002437961 -0.8120325150806343
13.748203125 0.5879107733816539 -0.8140011098797237
13.7493515625 0.5894345729230224 -0.8118075315673352
13.7505 0.5850058153117982 -0.8092319810885388
13.7516484375 0.585279587147024 -0.810210998490112
13.752796875 0.5829097523198504 -0.8102865169405502
13.7539453125 0.5821968268633596 -0.8112676231243532
13.75509375 0.5815107906625836 -0.8128401488275103
13.7562421875 0.5815357764593008 -0.810289968782246
13.757390625 0.5787665493700035 -0.8104202029358201
13.7585390625 0.5796695039591575 -0.8112186709816944
13.7596875 0.5779791548565246 -0.8092450157534601
13.7608359375 0.5754053254703055 -0.810330170341585
13.761984375 0.5744121638382848 -0.816959817011427
13.7631328125 0.5742805485716809 -0.8134466440559842
13.76428125 0.5733038266657944 -0.809482652704836
13.7654296875 0.5730055790685556 -0.8140699245670087
13.766578125 0.5727846587016057 -0.8151885705439925
13.7677265625 0.5723035324383541 -0.8129706387203744
13.768875 0.5689550930015436 -0.8089395879065041
13.7700234375 0.5714165917449417 -0.8115015774754626
13.771171875 0.5709377700890713 -0.8139265202688888
13.7723203125 0.5673114641617646 -0.8108230690024576
13.77346875 0.5725276238360484 -0.8115705246727589
13.7746171875 0.5674561864767215 -0.8131723017917111
13.775765625 0.5720809792976493 -0.8076669929099706
13.7769140625 0.5661581492028128 -0.8103746068185526
13.7780625 0.5676003558346172 -0.8107507958234633
13.7792109375 0.5699862564454792 -0.8109300150009362
13.780359375 0.5758646550006513 -0.8169549268151427
13.7815078125 0.5607092458481238 -0.812046470262659
13.78265625 0.5667939813102632 -0.8059150300528386
13.7838046875 0.569236037201305 -0.8121331516742336
13.784953125 0.5678000360654387 -0.8076921830092806
13.7861015625 0.5676881224140619 -0.8069526019979862
13.78725 0.5672839923600732 -0.8079692843125292
13.7883984375 0.5688014872976589 -0.8114062480127419
13.789546875 0.5668030841225258 -0.8044899600395911
13.7906953125 0.5677229945856381 -0.8116554342321273
13.79184375 0.5676830983724271 -0.8058866205182432
13.7929921875 0.5687710552881986 -0.8081648554605286
13.794140625 0.5656015493490687 -0.8051861080609282
13.7952890625 0.5713218643705006 -0.807118632616438
13.7964375 0.5691091094566157 -0.8092686781721177
13.7975859375 0.5742832738869078 -0.8128749381607214
13.798734375 0.5655654517613753 -0.8115007240713847
13.7998828125 0.5682276720540043 -0.8073169005328185
13.80103125 0.5716168211737199 -0.8105278404676025
13.8021796875 0.5722591153981812 -0.809505728689548
13.803328125 0.5645768274470854 -0.8109474157324253
13.8044765625 0.563694458719108 -0.8074874646433639
13.805625 0.5633613774805404 -0.8080478321476308
13.8067734375 0.5674746872718808 -0.8124487935265889
13.807921875 0.5674010502237706 -0.8092730988233039
13.8090703125 0.5643598304824956 -0.8040042351921166
13.81021875 0.5694832411982949 -0.8073418215812819
13.8113671875 0.5607505785382855 -0.8034622699537531
13.812515625 0.5637670125831703 -0.8048795499013794
13.8136640625 0.5618593220720514 -0.8088884960835495
13.8148125 0.5617832379432807 -0.8096686085714719
13.8159609375 0.5667405635897451 -0.805860203031153
13.817109375 0.5609924007241678 -0.8038693786607956
13.8182578125 0.5631201976916335 -0.8055736420574373
13.81940625 0.5679329427080538 -0.8098626326547103
13.8205546875 0.5612965551393981 -0.812777349944011
13.821703125 0.5621292842816324 -0.8074645681857513
13.8228515625 0.5564594714122131 -0.8016033973713235
13.824 0.5630280265679146 -0.8001322167892163
13.8251484375 0.5619883300439397 -0.7977377208944659
13.826296875 0.5609836272265805 -0.8048604758917987
13.8274453125 0.563511373361135 -0.8035139672011641
13.82859375 0.5637784462252868 -0.8031905568248003
13.8297421875 0.5674409048149569 -0.8004898478389623
13.830890625 0.5679845154566608 -0.8028792080399522
13.8320390625 0.566314610676528 -0.8021959463043542
13.8331875 0.5684777363722153 -0.8089171568685958
13.8343359375 0.565957195050713 -0.8083842415928302
13.835484375 0.5646435511504531 -0.8076969788652766
13.8366328125 0.5676686703110289 -0.8101797820246149
13.83778125 0.563165667404689 -0.8077113929642429
13.8389296875 0.5629184207920842 -0.8040762801208041
13.840078125 0.5629675379815466 -0.8021737749238812
13.8412265625 0.562268774745593 -0.801965622951202
13.842375 0.5691532957857403 -0.801394473956937
13.8435234375 0.5765004527527934 -0.8020365125105898
13.844671875 0.576288036294065 -0.8043230715167802
13.8458203125 0.5757778800364326 -0.8042251626117286
13.84696875 0.5782776098013964 -0.8022283136422557
13.8481171875 0.581680665835392 -0.8057777714746482
13.849265625 0.5846706485959993 -0.8058293994925249
13.8504140625 0.5866455225774374 -0.8094499293810681
13.8515625 0.5869658493910851 -0.8177111317106519
13.8527109375 0.5842124772392191 -0.8137427901956391
13.853859375 0.5897779098069129 -0.8154001457476391
13.8550078125 0.5903737491200227 -0.8171546253740976
13.85615625 0.5909850559550283 -0.8175554100800253
13.8573046875 0.5936586886834269 -0.818845420815032
13.858453125 0.5915487075914142 -0.8236737775418168
13.8596015625 0.5891756581100964 -0.8193093912810276
13.86075 0.5950138156375081 -0.8224658221561563
13.8618984375 0.5996920551547021 -0.8212342552382935
13.863046875 0.6004285762181494 -0.8246007297693381
13.8641953125 0.6011537383414911 -0.827411776829404
13.86534375 0.603359641600338 -0.8318217742582136
13.8664921875 0.6086873736194525 -0.834701734150106
13.867640625 0.6120071858669879 -0.8369143999304758
13.8687890625 0.6129360650464877 -0.8387000827554176
13.8699375 0.6138569143184961 -0.8482451445488757
13.8710859375 0.6088096769934191 -0.8549641693652346
13.872234375 0.6103686026151786 -0.8567254109841571
13.8733828125 0.6069045939123745 -0.8612441352096276
13.87453125 0.610905411331862 -0.8665524713426871
13.8756796875 0.6059239580156648 -0.8709162658537485
13.876828125 0.6037901598365883 -0.878649364824483
13.8779765625 0.600499412098618 -0.8819671921379054
13.879125 0.6026084815878812 -0.8882580445490663
13.8802734375 0.6020217230420339 -0.8905817239805898
13.881421875 0.6012688419947068 -0.890417735813709
13.8825703125 0.5881197721984315 -0.8944742155873018
13.88371875 0.5870096874051707 -0.9014538236662224
13.8848671875 0.5872215777487076 -0.9003132953818538
13.886015625 0.5799408193225729 -0.9068381471905512
13.8871640625 0.5823209797247229 -0.9086442947827531
13.8883125 0.5721934768387029 -0.9092993299776675
13.8894609375 0.5686247138311006 -0.9114743554626032
13.890609375 0.5653624248385387 -0.9167495645721169
13.8917578125 0.5606871037494336 -0.9149162472090289
13.89290625 0.5567811060979799 -0.9151521552402098
13.8940546875 0.5475023884834057 -0.9166616775315681
13.895203125 0.5452102505150842 -0.9171403195911808
13.8963515625 0.5479058639296093 -0.9150919718051154
13.8975 0.5387310109258269 -0.9181842152748366
13.8986484375 0.5328340554066751 -0.9171110323010979
13.899796875 0.5308755737985584 -0.9170710628041974
13.9009453125 0.5254650704641552 -0.9151952455714251
13.90209375 0.5215309615435509 -0.9123442508880257
13.9032421875 0.5201309841662781 -0.9143799406243043
13.904390625 0.5132417503172494 -0.9149954987930922
13.9055390625 0.5126807232016104 -0.9083457777856561
13.9066875 0.512483007934513 -0.9074086894964554
13.9078359375 0.5163391771669933 -0.9022750897873044
13.908984375 0.5115993121272653 -0.9008032691990242
13.9101328125 0.5126626303864367 -0.9049558545788798
13.91128125 0.5103942990132516 -0.904769366780324
13.9124296875 0.5055080961388759 -0.8988549245688562
13.913578125 0.508440061649823 -0.9022127667652933
13.9147265625 0.5090827918338939 -0.8969881578181618
13.915875 0.510450776179242 -0.8945189362117765
13.9170234375 0.5032070399785677 -0.8983421964274089
13.918171875 0.5045431280366645 -0.8967126426845314
13.9193203125 0.508417741859069 -0.8953926267310324
13.92046875 0.5073910261505015 -0.8951735076327926
13.9216171875 0.5044757004293439 -0.8984319466553303
13.922765625 0.5062576634470592 -0.8998295566665468
13.9239140625 0.5067602520283621 -0.8986557004308516
13.9250625 0.5027947009664678 -0.8961611734689415
13.9262109375 0.5042688526851034 -0.9003082086654846
13.927359375 0.5028172450928069 -0.9031364583112869
13.9285078125 0.4972233085378657 -0.904772506980543
13.92965625 0.4966022613699199 -0.9018072753667473
13.9308046875 0.49555149623572836 -0.8989187278606674
13.931953125 0.49635076356956326 -0.9001331346642316
13.9331015625 0.4919501685698633 -0.9004291486726883
13.93425 0.4950352183978064 -0.9011767526405723
13.9353984375 0.4918702961951415 -0.9043294587328793
13.936546875 0.4890461411339292 -0.8909902402640908
13.9376953125 0.49162180252181165 -0.8957619723089988
13.93884375 0.4917715729969985 -0.8960577291387344
13.9399921875 0.49491712398615545 -0.8971453940440124
13.941140625 0.4893170133745893 -0.9013702891302772
13.9422890625 0.4809105183173056 -0.8953925597754117
13.9434375 0.49015956426042906 -0.8996057805214521
13.9445859375 0.4851473666555113 -0.897623078784016
13.945734375 0.4843573996903292 -0.8935550524618247
13.9468828125 0.4903419179580307 -0.8929387170758076
13.94803125 0.4809032712309145 -0.8917471461725135
13.9491796875 0.49316198248404475 -0.8989669155297825
13.950328125 0.4849076829765535 -0.894694382835383
13.9514765625 0.4869594087042304 -0.8952249592724374
13.952625 0.4858207123558126 -0.8973987795449555
13.9537734375 0.48123124620291 -0.8949348527969467
13.954921875 0.48192897314269323 -0.8920352485879139
13.9560703125 0.4799970515678189 -0.8881888462267473
13.95721875 0.4801608117416277 -0.8938722184673876
13.9583671875 0.4828867093888416 -0.8930625002966174
13.959515625 0.4764166037572449 -0.8903523334645547
13.9606640625 0.4775602834104278 -0.8930105855310506
13.9618125 0.48359462985986124 -0.887451834883459
13.9629609375 0.482836149458601 -0.8887959851779461
13.964109375 0.4841569335313922 -0.8899787544365394
13.9652578125 0.4872632068672553 -0.8901334811591819
13.96640625 0.48321688247068784 -0.8927815462157699
13.9675546875 0.4827812543574381 -0.8922232563252879
13.968703125 0.4795161926777507 -0.8923017630798744
13.9698515625 0.48058689015103173 -0.8945542082018824
13.971 0.4799857219185997 -0.8884844187353161
13.9721484375 0.47621710106549175 -0.8951180517696917
13.973296875 0.469990529955579 -0.8974706102755949
13.9744453125 0.47695752619858955 -0.8980092570787339
13.97559375 0.47832590747656867 -0.8958656484648391
13.9767421875 0.47535749780374603 -0.8928336275651758
13.977890625 0.47056225053113043 -0.8906153153223015
13.9790390625 0.47664037864410624 -0.8918160344833816
13.9801875 0.47068151788641166 -0.8983975364335421
13.9813359375 0.47212927800476745 -0.897326751385807
13.982484375 0.4736344034261524 -0.8950477325339682
13.9836328125 0.47032806158067875 -0.8930170908184552
13.98478125 0.4669172546153757 -0.9031529806315688
13.9859296875 0.4699443966038126 -0.8927229232159651
13.987078125 0.46184308679005703 -0.8978628978405081
13.9882265625 0.46259435519913294 -0.897225250989697
13.989375 0.46793063275904245 -0.8961905044113653
13.9905234375 0.46230588048810606 -0.8964977137181044
13.991671875 0.46941878164388773 -0.8963352643964937
13.9928203125 0.46296828330497086 -0.8958227575260443
13.99396875 0.45564717985570324 -0.8938864855200834
13.9951171875 0.457212760248792 -0.9021048696779437
13.996265625 0.4585571167216037 -0.8941591148713961
13.9974140625 0.4573117721279245 -0.8975406195629367
13.9985625 0.45885064814552734 -0.8908293830927052
13.9997109375 0.46226630704837374 -0.8960217809585818
14.000859375 0.4579253430123704 -0.8984458268591543
14.0020078125 0.4596311116389025 -0.8965904543663819
14.00315625 0.4555839954792372 -0.9030150585132601
14.0043046875 0.45851734063746125 -0.9009732089279534
14.005453125 0.4529561562857263 -0.8972139895659532
14.0066015625 0.45281447471721276 -0.8946230583761925
14.00775 0.45172816130757343 -0.8935527220296722
14.0088984375 0.45601317632213884 -0.8951060253965852
14.010046875 0.4563151985095395 -0.897244251808185
14.0111953125 0.4588319648238709 -0.8940771092925255
14.01234375 0.45933447942193323 -0.8933166204078176
14.0134921875 0.45918077614547637 -0.8942945495407459
14.014640625 0.463116669377743 -0.8988405155246022
14.0157890625 0.4605738923816113 -0.898517226471508
14.0169375 0.45588804131903465 -0.9049604817698522
14.0180859375 0.4526022517740904 -0.9016946982964098
14.019234375 0.45253086051504704 -0.8996811640661512
14.0203828125 0.45598080493299403 -0.9009713377470392
14.02153125 0.45680806843646415 -0.9009969888598572
14.0226796875 0.460052288429548 -0.9035484510991606
14.023828125 0.4548947734910189 -0.906658897550841
14.0249765625 0.4543245236896216 -0.9018028791167094
14.026125 0.4544289924962278 -0.9013292980715052
14.0272734375 0.4576930216888057 -0.9023915553567734
14.028421875 0.45709562548679805 -0.8989513140106373
14.0295703125 0.46207754403152174 -0.9034349498695755
14.03071875 0.45821819950705933 -0.9019367409671915
14.0318671875 0.4581136110518326 -0.9029596462151895
14.033015625 0.46412700669168716 -0.9132582389313904
14.0341640625 0.4605424515279031 -0.9123802464741247
14.0353125 0.45794095134655094 -0.9122415082581823
14.0364609375 0.45408979918907866 -0.9097090217426751
14.037609375 0.45524708560263133 -0.9064265004149508
14.0387578125 0.45737336286137725 -0.907671668418123
14.03990625 0.444454205220812 -0.9205109022464334
14.0410546875 0.4535392513451068 -0.9167383664802287
14.042203125 0.45319010654012615 -0.9191476831426759
14.0433515625 0.44941003127026896 -0.9155747443316183
14.0445 0.44431977984636367 -0.9250309658785462
14.0456484375 0.4470354818909744 -0.9199702416281114
14.046796875 0.4386928040394731 -0.9175346175023527
14.0479453125 0.4428215581102037 -0.9125656537138861
14.04909375 0.435416560565425 -0.8965335631519595
14.0502421875 0.4459446847502306 -0.9242181801423269
14.051390625 0.44970047646668027 -0.9131288116242858
14.0525390625 0.4351976260688931 -0.9178299303598755
14.0536875 0.4365508889181852 -0.9180507430580946
14.0548359375 0.4300286532763099 -0.9199675929147595
14.055984375 0.432938297697558 -0.9111164700805102
14.0571328125 0.43796885910817573 -0.9245177511427793
14.05828125 0.4396173270968118 -0.9204109753509856
14.0594296875 0.4363514670063062 -0.9250887046909154
14.060578125 0.42645919599213067 -0.9190784688390834
14.0617265625 0.43680605394308586 -0.922527591320838
14.062875 0.4298071600769841 -0.9206216098233264
14.0640234375 0.42824215689793255 -0.9244269846808195
14.065171875 0.4282144377927077 -0.9276931473386452
14.0663203125 0.426165893800455 -0.9188555134695973
14.06746875 0.4321785966522875 -0.9180110289766854
14.0686171875 0.428498339933133 -0.9190433716205025
14.069765625 0.428256366007254 -0.9207130647485937
14.0709140625 0.42825244197377976 -0.9168515217780909
14.0720625 0.43519569432985916 -0.921743856853863
14.0732109375 0.4383644224859077 -0.9173540713447189
14.074359375 0.43451568673271374 -0.9270562259319014
14.0755078125 0.43489017707955835 -0.9235936050238345
14.07665625 0.4346456115769697 -0.9180408027994994
14.0778046875 0.433512367698761 -0.928409541056541
14.078953125 0.42422780744866195 -0.9277291515136474
14.0801015625 0.4327175789138767 -0.9263115529636934
14.08125 0.42905315841033975 -0.9295566825492911
14.0823984375 0.42935158249175404 -0.931027638493069
14.083546875 0.4276302698406358 -0.9310831789746711
14.0846953125 0.42702800570306143 -0.929057314823074
14.08584375 0.4354416907755381 -0.9320381729059557
14.0869921875 0.43215231004698 -0.9314864177649482
14.088140625 0.4277640832788323 -0.9321582704282969
14.0892890625 0.4276282285626951 -0.932998642105165
14.0904375 0.433868342628441 -0.9359134883625212
14.0915859375 0.4315773887359663 -0.9408242621410019
14.092734375 0.4330893765680479 -0.9479771928651219
14.0938828125 0.43017726932051614 -0.9488132492921283
14.09503125 0.4287521319266852 -0.9481542705236083
14.0961796875 0.4248176111818326 -0.9507607193322702
14.097328125 0.4277837370752392 -0.9540543046258293
14.0984765625 0.42662112115510203 -0.9566197379989769
14.099625 0.4255951230475987 -0.9580486800092872
14.1007734375 0.4223463006250153 -0.9627778682358238
14.101921875 0.41742521252995246 -0.9536362596362995
14.1030703125 0.41870739105422283 -0.955998856955343
14.10421875 0.4207311764726024 -0.9600450516994304
14.1053671875 0.41977226850763266 -0.9661355930709159
14.106515625 0.41759651660799196 -0.9718501877198265
14.1076640625 0.41378306654836816 -0.9730482676405018
14.1088125 0.41412158958468137 -0.9739599679075092
14.1099609375 0.41330842058375733 -0.9752476166722562
14.111109375 0.4105380026002452 -0.9778119227320435
14.1122578125 0.4064037113740129 -0.9775974934080237
14.11340625 0.40249637786380305 -0.9802118972366843
14.1145546875 0.3991295526736434 -0.9795350319475876
14.115703125 0.39813704253518595 -0.9819254986408747
14.1168515625 0.39587177793142353 -0.9733812619128376
14.118 0.3970568384777986 -0.9692751554453525
14.1191484375 0.3975372332156333 -0.9703671445046007
14.120296875 0.3935738782992657 -0.9744753799190896
14.1214453125 0.3878014342490168 -0.9770815503940364
14.12259375 0.38469711971355613 -0.9814384826852051
14.1237421875 0.3808452953835887 -0.9830190109205377
14.124890625 0.38302218447418174 -0.9771221243771551
14.1260390625 0.3837242180154574 -0.9758448835986275
14.1271875 0.37538018340330354 -0.9807102345171982
14.1283359375 0.3863683001841427 -0.9781583249351764
14.129484375 0.3800743018175151 -0.9778166350541042
14.1306328125 0.369276301249695 -0.9819550029790073
14.13178125 0.37011398623189157 -0.9900008788548913
14.1329296875 0.360572780459826 -0.9795010207999156
14.134078125 0.36322782143855586 -0.9833783968289809
14.1352265625 0.3640544893936996 -0.9886829788723968
14.136375 0.35295921577642175 -0.9736301724572335
14.1375234375 0.3557598314523095 -0.9756480415164978
14.138671875 0.3471308146931889 -0.9691166608505725
14.1398203125 0.35117532534403784 -0.9674679733811358
14.14096875 0.3492991661357164 -0.9653145543359096
14.1421171875 0.3560748321020346 -0.9663855753750379
14.143265625 0.35478136247706715 -0.961227907445066
14.1444140625 0.3452583776602085 -0.9565222860474099
14.1455625 0.3424272108130848 -0.9637713047611643
14.1467109375 0.34599686068834856 -0.9611209293689424
14.147859375 0.3448604698962 -0.9597733408005735
14.1490078125 0.34559224256583254 -0.9585892670801196
14.15015625 0.3411908495262457 -0.9585526018344823
14.1513046875 0.34253444058457183 -0.9635488016066232
14.152453125 0.34482041318083057 -0.9639183000638927
14.1536015625 0.3424880892891654 -0.9637426868030952
14.15475 0.3388409605474571 -0.9617310484298296
14.1558984375 0.33601729519690016 -0.9528114578410867
14.157046875 0.34034196835221076 -0.9606087085736094
14.1581953125 0.33068586764453256 -0.957752494894452
14.15934375 0.3311289432067536 -0.9513857979061394
14.1604921875 0.3311748531620541 -0.9508885304892809
14.161640625 0.32971327270605466 -0.9477378275896913
14.1627890625 0.33274227494473707 -0.9482963665299418
14.1639375 0.33429906282857635 -0.9453422507366389
14.1650859375 0.33008492663876876 -0.9499354524522903
14.166234375 0.3308522344064353 -0.9474564165624759
14.1673828125 0.3334773127148378 -0.9498115774131595
14.16853125 0.33019553636049614 -0.9482365037437789
14.1696796875 0.33066371036503506 -0.9490187549058513
14.170828125 0.3304386118887047 -0.9558889974487963
14.1719765625 0.32239095852707367 -0.9523244256527125
14.173125 0.325296475838023 -0.9508409322614412
14.1742734375 0.32537642329369554 -0.9468336623610983
14.175421875 0.3255062119681397 -0.9498950910074722
14.1765703125 0.3221172387743605 -0.9498568484567715
14.17771875 0.318651912839507 -0.9476858362342332
14.1788671875 0.3213745206738603 -0.9458537032225641
14.180015625 0.32411848834562584 -0.9432125254084005
14.1811640625 0.3262903823528095 -0.9395759845475881
14.1823125 0.3287278848723868 -0.9430898344871268
14.1834609375 0.3272708061568975 -0.9469402021418019
14.184609375 0.3286660529435783 -0.9468505106496351
14.1857578125 0.3258832515093514 -0.946868305007353
14.18690625 0.3227384533859153 -0.9491563475860691
14.1880546875 0.32605193317932435 -0.9496959924368116
14.189203125 0.3231834548876047 -0.9491992950341089
14.1903515625 0.31917079930179615 -0.9493643058590957
14.1915 0.31869613057174306 -0.9504067181772216
14.1926484375 0.3231050392329845 -0.946821180628997
14.193796875 0.3275950174601952 -0.9488334996136571
14.1949453125 0.32451002076210944 -0.9521526563893705
14.19609375 0.32599632515103355 -0.9512747411980212
14.1972421875 0.3181649457334492 -0.9540719378289402
14.198390625 0.32028134753217097 -0.9524096738300981
14.1995390625 0.32311582676871253 -0.9543683972375028
14.2006875 0.32065490579931033 -0.9525630176518782
14.2018359375 0.3191708082880873 -0.950786780959629
14.202984375 0.3172424145186266 -0.9545446019135515
14.2041328125 0.3171976247699605 -0.9516616212536964
14.20528125 0.31731035251877 -0.9508123988499197
14.2064296875 0.3187198743390031 -0.9573021065682309
14.207578125 0.31224300026687757 -0.9522017907353401
14.2087265625 0.3090475380549209 -0.9564812306213678
14.209875 0.3072549688242776 -0.9562461963602474
14.2110234375 0.30680999295595135 -0.9570045490717848
14.212171875 0.3089231550043242 -0.9550150171437872
14.2133203125 0.31266477073755194 -0.9580272190485064
14.21446875 0.30475074915378875 -0.957913527452639
14.2156171875 0.29997629569592704 -0.9548538824540388
14.216765625 0.29847315271673686 -0.9552230919151422
14.2179140625 0.30286697038350874 -0.9497622229027725
14.2190625 0.2986961692644997 -0.9561480502121857
14.2202109375 0.2988774699328276 -0.950347277889121
14.221359375 0.30269679714197134 -0.9503823626501109
14.2225078125 0.295390140392168 -0.9493915683964742
14.22365625 0.2973167678686833 -0.950650580121143
14.2248046875 0.3017498955357828 -0.948010715802241
14.225953125 0.29797231615099845 -0.9468061275493718
14.2271015625 0.2962204417388257 -0.9480271707192175
14.22825 0.2938906206286539 -0.9499914580057198
14.2293984375 0.2880956278126735 -0.9465106636073244
14.230546875 0.2919131583966288 -0.9496083099831986
14.2316953125 0.2922939709450843 -0.9493105713535067
14.23284375 0.292325214618868 -0.9422000208830879
14.2339921875 0.2937387463803882 -0.9494147338884058
14.235140625 0.290873179558602 -0.9461066948607028
14.2362890625 0.291447368205498 -0.9450058424574166
14.2374375 0.29671130279887337 -0.9459600886449121
14.2385859375 0.2935154268036949 -0.9539710524721461
14.239734375 0.2876868224654677 -0.9450872822000204
14.2408828125 0.29353621084671105 -0.9506571709485313
14.24203125 0.2926657516371668 -0.9560410105898949
14.2431796875 0.2885293853629825 -0.940507289704932
14.244328125 0.2910874764505372 -0.9437611182157075
14.2454765625 0.2916532281382368 -0.9491757048412508
14.246625 0.29030900993170744 -0.9524230984606759
14.2477734375 0.28943155519738806 -0.9510346156521625
14.248921875 0.2914652660464103 -0.9504583118075325
14.2500703125 0.2948072501324614 -0.9526942388412963
14.25121875 0.2912027323026205 -0.9507475030379012
14.2523671875 0.28895756384905846 -0.9492848302852592
14.253515625 0.29916384189616907 -0.9498041492542311
14.2546640625 0.28672024608006436 -0.9484541198896558
14.2558125 0.28799825993430567 -0.9548945711691551
14.2569609375 0.29562635206944987 -0.9436049872350347
14.258109375 0.2967258412465266 -0.9486857372364184
14.2592578125 0.29927427464220524 -0.9550869123992056
14.26040625 0.2992337583234187 -0.9598642307857003
14.2615546875 0.2976301424980944 -0.952945690187023
14.262703125 0.2999398614179994 -0.9577848031638396
14.2638515625 0.2997310782320226 -0.9624602493372788
14.265 0.302073318852369 -0.9543828176846705
14.2661484375 0.2988941769755358 -0.9551129707453492
14.267296875 0.3006360250846361 -0.9538349141740047
14.2684453125 0.29989407586723976 -0.9560429153527167
14.26959375 0.29832555267471306 -0.9605053346419486
14.2707421875 0.30055787025403435 -0.9661627759766251
14.271890625 0.3032570297712452 -0.9679320994759162
14.2730390625 0.30400049511917016 -0.9718205031238375
14.2741875 0.3008037300585965 -0.9754832350836803
14.2753359375 0.2962301500945333 -0.9807083603114358
14.276484375 0.29366847167480675 -0.97798641806751
14.2776328125 0.297286174025705 -0.9809628848276019
14.27878125 0.29735519359803847 -0.9837614676386724
14.2799296875 0.2955515204660474 -0.9819289854929909
14.281078125 0.2881407533660938 -0.985415437718785
14.2822265625 0.2910983054307006 -0.9888355368413975
14.283375 0.28946662525663414 -0.9888704378757879
14.2845234375 0.28169585333792757 -0.9924041433850753
14.285671875 0.2818741446836983 -0.9926762045789527
14.2868203125 0.27811992827579524 -0.994999516870563
14.28796875 0.27150366724005165 -0.9970117040872792
14.2891171875 0.27050426538258465 -0.9937862574544888
14.290265625 0.26895075526153656 -0.9960350538771371
14.2914140625 0.2670077603222455 -0.9951977406333103
14.2925625 0.26349171698099544 -0.9905595851897012
14.2937109375 0.2620274923131045 -0.9907018962390615
14.294859375 0.2611600900177762 -0.9899435114679517
14.2960078125 0.26343155650678246 -0.9947922741207531
14.29715625 0.2618335335694993 -0.9958855670078955
14.2983046875 0.25949057597823627 -0.9928090768059703
14.299453125 0.2540377397593865 -0.9930034176371072
14.3006015625 0.2511758766970275 -0.9955607703912073
14.30175 0.2512305033789006 -0.9886462907866983
14.3028984375 0.2488172511453996 -0.9882842143796781
14.304046875 0.24588088613763642 -0.9865684233776452
14.3051953125 0.2468729786741855 -0.9841024020731226
14.30634375 0.2534318716943883 -0.9799706455575115
14.3074921875 0.2500028906809566 -0.9823514681036747
14.308640625 0.2514651125860777 -0.9817625778301251
14.3097890625 0.2548492062089884 -0.9829288245695487
14.3109375 0.2510635355475759 -0.9859041150981844
14.3120859375 0.25170250055410004 -0.988154259522142
14.313234375 0.2519836034298389 -0.9916515788118722
14.3143828125 0.24680624344002566 -0.9874800882936516
14.31553125 0.2405829849107829 -0.9905818950318652
14.3166796875 0.2426906686305027 -0.9921837199601038
14.317828125 0.24201652398296153 -0.9870287323253417
14.3189765625 0.24162110021902922 -0.9870910711743165
14.320125 0.23804428446405712 -0.9850564404479649
14.3212734375 0.2368896211557957 -0.9840940089658374
14.322421875 0.23725818861066028 -0.9878021568760516
14.3235703125 0.23656925542950297 -0.9830352405864238
14.32471875 0.2431354652255755 -0.9797318926775083
14.3258671875 0.24231213882960873 -0.9831299944267468
14.327015625 0.24209745595587118 -0.9845812204921431
14.3281640625 0.24091470976264567 -0.9842444603627748
14.3293125 0.24435546845585476 -0.9848878457743315
14.3304609375 0.24475091798719373 -0.9924875111419833
14.331609375 0.2455789615871556 -0.9921576093511992
14.3327578125 0.24530769220439785 -0.9967159883931382
14.33390625 0.24267616922618052 -0.9987949523605746
14.3350546875 0.23928846515985897 -1.0009470502446352
14.336203125 0.2379256468029169 -1.0074921968759059
14.3373515625 0.2354911401394475 -1.0078377811160502
14.3385 0.23165143701432 -1.006682900860009
14.3396484375 0.23727404801225693 -1.0127985584132484
14.340796875 0.23539500430547422 -1.0176074988877262
14.3419453125 0.23616147633792534 -1.021911264816084
14.34309375 0.22867644372475443 -1.026924082384092
14.3442421875 0.22676656036345155 -1.0308173893509767
14.345390625 0.2197109221139159 -1.0321005246166604
14.3465390625 0.21713498479271348 -1.0324370391734368
14.3476875 0.21240745119978346 -1.0350707040739209
14.3488359375 0.20901860994146199 -1.0353974891743323
14.349984375 0.20288314420629328 -1.0368174460524877
14.3511328125 0.19999580450840806 -1.0362521091101704
14.35228125 0.19826131296599228 -1.0332104387639243
14.3534296875 0.1936696796423671 -1.03352283087297
14.354578125 0.19111854936249734 -1.034230314544252
14.3557265625 0.19019529113459852 -1.034124498808615
14.356875 0.1851158374976539 -1.032893834408775
14.3580234375 0.18152541926417598 -1.0328944309290544
14.359171875 0.17777081912335785 -1.0305233361579296
14.3603203125 0.1747078649331941 -1.0257763080987008
14.36146875 0.17580247630081922 -1.021990610129619
14.3626171875 0.17370957826794656 -1.020588628524932
14.363765625 0.17715954223602665 -1.0171064261596112
14.3649140625 0.17626928392033112 -1.0171563450947274
14.3660625 0.17727170840502487 -1.008872074950119
14.3672109375 0.17771224928945975 -1.0068270727411033
14.368359375 0.1817671730689877 -1.0090033599479455
14.3695078125 0.1826350902322167 -1.0189506720393995
14.37065625 0.1836666748461817 -1.024611795832708
14.3718046875 0.17802176325935498 -1.0308836212551753
14.372953125 0.17488029438080874 -1.0313500884857507
14.3741015625 0.16656585190387824 -1.0298270677584953
14.37525 0.16302499064010614 -1.0310785508400022
14.3763984375 0.16162560392799036 -1.0283695101714216
14.377546875 0.16219888658067852 -1.0234601937667103
14.3786953125 0.15905684598971048 -1.020763543238656
14.37984375 0.15932845905077553 -1.0203490049825628
14.3809921875 0.15742395827190972 -1.0199638984876946
14.382140625 0.15686208654732348 -1.0193387690628222
14.3832890625 0.1589511129035313 -1.0167220279490339
14.3844375 0.1582022302796302 -1.0221985415622643
14.3855859375 0.15460007708053908 -1.023547359883465
14.386734375 0.15396187073622586 -1.027091222528972
14.3878828125 0.14890771775352246 -1.0292859346826675
14.38903125 0.14864967924883976 -1.0294476796265422
14.3901796875 0.1460209563549968 -1.0297959808544859
14.391328125 0.1445477242353681 -1.0280152648362577
14.3924765625 0.1381925314647976 -1.0257319888605418
14.393625 0.13177493110245447 -1.0271239095540454
14.3947734375 0.1296917648469888 -1.0272184184446391
14.395921875 0.12731072168571855 -1.024695933595707
14.3970703125 0.12397458405735218 -1.0205946441054825
14.39821875 0.12136888348945557 -1.0215066160531654
14.3993671875 0.11782909455880203 -1.0131406664869087
14.400515625 0.11726087195778301 -1.006870307616323
14.4016640625 0.11604058734741951 -1.0104869605924636
14.4028125 0.11682605103492605 -1.0066962783375017
14.4039609375 0.11632891147822644 -1.0058416343760217
14.405109375 0.11531640707444402 -1.0029746566147648
14.4062578125 0.11154065665057855 -1.001585407334671
14.40740625 0.1159564765351313 -1.0016227569426042
14.4085546875 0.11401388079075625 -1.0008897360124887
14.409703125 0.11016290800635486 -0.9954024168323405
14.4108515625 0.11411178348152429 -0.9939569587278174
14.412 0.11593583485917613 -0.994453849133369
14.4131484375 0.11630465604199136 -0.9929388563358583
14.414296875 0.1150064439504187 -0.9925793208670173
14.4154453125 0.11787995642884253 -0.9945577908189973
14.41659375 0.11737536539044457 -0.9916987231936161
14.4177421875 0.11736187450127111 -0.9919140513192787
14.418890625 0.11431404443338311 -0.9894324028195569
14.4200390625 0.11536813130566781 -0.9913088684092011
14.4211875 0.11944333344465341 -0.9908370171598277
14.4223359375 0.11941725028139683 -0.9918413225382376
14.423484375 0.12209840508601533 -0.9911910017271132
14.4246328125 0.11742618673972016 -0.992679011741633
14.42578125 0.1184149717863886 -0.991606035909046
14.4269296875 0.11838839162348314 -0.9931387432060876
14.428078125 0.1187880042476035 -0.9910168642694637
14.4292265625 0.11799499493067844 -0.9912238687622507
14.430375 0.11728852623817565 -0.9893968626623155
14.4315234375 0.12165263218543843 -0.9875145559502919
14.432671875 0.11963853957128068 -0.990335302911182
14.4338203125 0.12057500303221957 -0.9897962618171708
14.43496875 0.12139471128310486 -0.9944598481501122
14.4361171875 0.12313505553271431 -0.9912338284517646
14.437265625 0.12185353155809531 -0.9926133871541497
14.4384140625 0.1201660198604424 -0.990523171674584
14.4395625 0.1253844694021129 -0.9928854850034063
14.4407109375 0.1250386090124206 -0.9938094990509511
14.441859375 0.12710120787912638 -0.9965758717576544
14.4430078125 0.12902134612834404 -1.0012778149702022
14.44415625 0.13050121884893207 -1.0068459839108574
14.4453046875 0.12404369777263913 -1.0081585083891462
14.446453125 0.11807187338071445 -1.0099722246077683
14.4476015625 0.11750173892029292 -1.01142716765599
14.44875 0.11952155051201707 -1.0129004705720555
14.4498984375 0.11923072468665574 -1.009141201827238
14.451046875 0.1183041837199511 -1.0139693917704085
14.4521953125 0.11781418295248358 -1.0137164616164491
14.45334375 0.11807918412523144 -1.0151662633706806
14.4544921875 0.11689065808711296 -1.0218117239478843
14.455640625 0.11434843108261183 -1.0278768086942691
14.4567890625 0.11602794635359837 -1.0317713439275997
14.4579375 0.10626560437756227 -1.0292793851085196
14.4590859375 0.10907415694591949 -1.0314300449497384
14.460234375 0.10265519132587686 -1.0266385578765425
14.4613828125 0.09968638943169317 -1.0256200221930987
14.46253125 0.09655734848968567 -1.036258064819636
14.4636796875 0.10025422086665692 -1.034491310367244
14.464828125 0.09219245076203497 -1.0347215389290727
14.4659765625 0.0906268201443915 -1.037177119099516
14.467125 0.09102442419659107 -1.0348495692951645
14.4682734375 0.0870032489361624 -1.0422022791743577
14.469421875 0.08105347426780118 -1.0368702142651933
14.4705703125 0.08024454218450017 -1.042285493201153
14.47171875 0.07469660102114217 -1.0426331382226244
14.4728671875 0.07616292492977716 -1.0409895823034345
14.474015625 0.07569240110602693 -1.0470569142718595
14.4751640625 0.06711094747738144 -1.0432541373658504
14.4763125 0.06738191154091466 -1.0429054652640548
14.4774609375 0.06262107108149406 -1.0414312113963806
14.478609375 0.05725539548086245 -1.0427686063652193
14.4797578125 0.05619005237112895 -1.042707263359674
14.48090625 0.055077440263088806 -1.0393513590061767
14.4820546875 0.05518962917019499 -1.041318545940256
14.483203125 0.052982211576983684 -1.0419866720213349
14.4843515625 0.04426515776778761 -1.0387854722738652
14.4855 0.043951820031348676 -1.036721554775596
14.4866484375 0.04531485999778995 -1.0400412780212702
14.487796875 0.03879955207835628 -1.04171972955359
14.4889453125 0.0371453880242667 -1.0416884007476785
14.49009375 0.034955079759091845 -1.038971704848008
14.4912421875 0.033994817329889626 -1.0380874216002178
14.492390625 0.03181119428296486 -1.0435792053124928
14.4935390625 0.03146005292502452 -1.0404172592766485
14.4946875 0.025998287506209028 -1.0396720661848
14.4958359375 0.024823077568047136 -1.0386557922690254
14.496984375 0.025287871129473616 -1.036469625605283
14.4981328125 0.021692130172697888 -1.038231481829189
14.49928125 0.02192944582953338 -1.0407896634735847
14.5004296875 0.020328071324502095 -1.0392885348129752
14.501578125 0.016486837931813936 -1.0374258387513322
14.5027265625 0.016864746745848036 -1.0369130735575132
14.503875 0.013270514585692172 -1.0332516316058056
14.5050234375 0.010764947945238634 -1.0328401292184604
14.506171875 0.010867077230119704 -1.0342186524031962
14.5073203125 0.010151003775526912 -1.0337631581633506
14.50846875 0.005628264207909073 -1.0354914732878884
14.5096171875 0.0026071733513065576 -1.0309185531251883
14.510765625 0.0021404584961227657 -1.0258338941498237
14.5119140625 0.003469458396211822 -1.0264095389419299
14.5130625 0.003462262097944757 -1.0283195527340143
14.5142109375 0.0007465075539371258 -1.0269925118131868
14.515359375 0.004204709900148429 -1.0277711011517847
14.5165078125 0.0033197414115737622 -1.024569674302502
14.51765625 -0.0020629866901160643 -1.028405884521258
14.5188046875 -0.0024310976128576467 -1.0294936971491433
14.519953125 -0.0023271038477091777 -1.026832563200459
14.5211015625 -0.0012452601662245044 -1.0268284146659248
14.52225 -0.005598810459571335 -1.0252856775858437
14.5233984375 -0.00462318123126737 -1.0264100187920713
14.524546875 -0.00619658516909305 -1.0229945448190567
14.5256953125 -0.007555317939280992 -1.0305245137740373
14.52684375 -0.013552567475339616 -1.0319716389459888
14.5279921875 -0.015279784062431023 -1.036232773524685
14.529140625 -0.015076515820127923 -1.0305801394735792
14.5302890625 -0.021080125977664843 -1.0363100848176605
14.5314375 -0.02185274037818674 -1.0278265846910644
14.5325859375 -0.02197221707736574 -1.0276625277611124
14.533734375 -0.015932586597947496 -1.034095217298981
14.5348828125 -0.022534314737133854 -1.0334544248991697
14.53603125 -0.019788421861926975 -1.031248012958456
14.5371796875 -0.024604627212472252 -1.0352864259282195
14.538328125 -0.02681967468052937 -1.0311262533209538
14.5394765625 -0.03080710898758965 -1.0331184661509156
14.540625 -0.03244176635078344 -1.032113143413514
14.5417734375 -0.0340694747631165 -1.0308450495122083
14.542921875 -0.03459358419279457 -1.0260217212826508
14.5440703125 -0.03798675688476416 -1.0224577838508644
14.54521875 -0.03987389891725468 -1.0190444627221114
14.5463671875 -0.04081215448732778 -1.0159759631481453
14.547515625 -0.03875110506575696 -1.016577169266925
14.5486640625 -0.03708213875783717 -1.013542320172279
14.5498125 -0.041149601808687764 -1.0128995522983233
14.5509609375 -0.03941752560473821 -1.0184024169562185
14.552109375 -0.039245039893823774 -1.0187648572520558
14.5532578125 -0.04201810422108798 -1.0222616799091266
14.55440625 -0.039330626093486365 -1.0172494258416092
14.5555546875 -0.04142581538504786 -1.0170006720454234
14.556703125 -0.04315215277488593 -1.0214418886727383
14.5578515625 -0.039657433416324106 -1.015953622957476
14.559 -0.03901215779646072 -1.017064041823334
14.5601484375 -0.04409347377238482 -1.017486755503056
14.561296875 -0.037357997216098116 -1.0205548241950917
14.5624453125 -0.04305980990623537 -1.0239828000062923
14.56359375 -0.040001569381124646 -1.0264288547751064
14.5647421875 -0.03997785268344589 -1.0272381827581731
14.565890625 -0.04224820462370393 -1.0290664765152164
14.5670390625 -0.046947566167395705 -1.0338823459706288
14.5681875 -0.05882628615016161 -1.042657498937972
14.5693359375 -0.06358075452119805 -1.0385832181753778
14.570484375 -0.06828493801455626 -1.0334704423865608
14.5716328125 -0.06802150848544664 -1.0285891657010688
14.57278125 -0.06751706068895291 -1.0289953989744212
14.5739296875 -0.07100477777153325 -1.0282841143079535
14.575078125 -0.07349459551190796 -1.0260555311252633
14.5762265625 -0.07770739856535502 -1.020671650879394
14.577375 -0.07384995608487932 -1.0197985572209802
14.5785234375 -0.07631839351728598 -1.0197689934566139
14.579671875 -0.07925510891678456 -1.0187917991350919
14.5808203125 -0.08095812416487214 -1.0160815553477431
14.58196875 -0.08362000008579173 -1.0181706434938818
14.5831171875 -0.08053022643480912 -1.0086182448516816
14.584265625 -0.07800363895839713 -1.0058476090406725
14.5854140625 -0.07777942705359187 -1.0074878138892727
14.5865625 -0.07462080977948671 -1.00841186661947
14.5877109375 -0.07256724634454714 -1.0096439717266643
14.588859375 -0.07486291735415951 -1.0108395410529678
14.5900078125 -0.07703126243226022 -1.0137764497480477
14.59115625 -0.07664363194072132 -1.017207261708313
14.5923046875 -0.0801122416245793 -1.0153170681978678
14.593453125 -0.07838305591147743 -1.0110592568308396
14.5946015625 -0.08079202921295003 -1.0090721847078266
14.59575 -0.08139544276765842 -1.0105717986404859
14.5968984375 -0.0818572299350564 -1.0101101541711779
14.598046875 -0.08825127061859861 -1.0118093758000803
14.5991953125 -0.08659792948290768 -1.00489228066793
14.60034375 -0.08693312420265331 -1.0014892281871903
14.6014921875 -0.08219057137723507 -0.9967903470797803
14.602640625 -0.07141556794210302 -0.9926143863273484
14.6037890625 -0.06524747336099779 -0.9955515898382004
14.6049375 -0.06114219549762745 -1.000460101077191
14.6060859375 -0.057797594233380045 -1.0115945435963472
14.607234375 -0.060466946647361075 -1.01919417759941
14.6083828125 -0.058939321509019926 -1.025442598606019
14.60953125 -0.06206402364317898 -1.0306709175747615
14.6106796875 -0.06697356892017525 -1.033494387590567
14.611828125 -0.06499065070186894 -1.0314739316427366
14.6129765625 -0.08038040790635836 -1.0435349963568947
14.614125 -0.0777580088736326 -1.0454655822057457
14.6152734375 -0.08163512714045251 -1.0465282284030415
14.616421875 -0.08310531421064438 -1.0455796789580931
14.6175703125 -0.07855284228831472 -1.052749554415185
14.61871875 -0.08205558919219802 -1.056847809990502
14.6198671875 -0.09678558203349086 -1.063935585512975
14.621015625 -0.10556407881329843 -1.0685060850895223
14.6221640625 -0.12026254399515945 -1.0730722996106137
14.6233125 -0.13030214501718074 -1.0714237558980004
14.6244609375 -0.14735609078445533 -1.068106165161708
14.625609375 -0.14299969024083337 -1.062790549402442
14.6267578125 -0.15860067480043882 -1.0500665180275548
14.62790625 -0.16675412946954526 -1.0407289290530346
14.6290546875 -0.16378360287244143 -1.0350577928327998
14.630203125 -0.1608149176035364 -1.0227318574850122
14.6313515625 -0.16165483657490376 -1.0202217327627758
14.6325 -0.15972676383875817 -1.0207603568927983
14.6336484375 -0.16152434082437273 -1.0188871498907686
14.634796875 -0.15768194368160593 -1.0120368419162706
14.6359453125 -0.16489743485410613 -1.003645483492942
14.63709375 -0.16332995692740626 -1.0034730151178588
14.6382421875 -0.16459458526112236 -0.9995978659734703
14.639390625 -0.16684971259930303 -0.9969897130588008
14.6405390625 -0.1571942425768137 -0.9965031011813479
14.6416875 -0.16421269335451005 -0.9936148134264906
14.6428359375 -0.16022214466002982 -0.9846675367555009
14.643984375 -0.15531310928385778 -0.9871319613494227
14.6451328125 -0.14679074734539566 -0.9814628190662121
14.64628125 -0.1482845472605021 -0.9824811072197817
14.6474296875 -0.14286145413626183 -0.9810358589701811
14.648578125 -0.1367723173015174 -0.9872888744425292
14.6497265625 -0.13845670342498728 -0.9861925774614171
14.650875 -0.1357486232385905 -0.9890925659160115
14.6520234375 -0.13539930693985858 -0.9946462541802211
14.653171875 -0.13227547335200107 -1.0017757990207437
14.6543203125 -0.13132505088618707 -1.0082633050372694
14.65546875 -0.14220083957471608 -1.0095754680981335
14.6566171875 -0.1466151077121316 -1.0111285147697657
14.657765625 -0.15489148453265844 -1.0052905453057128
14.6589140625 -0.1480250529651107 -0.9958731763474885
14.6600625 -0.14348829777786465 -0.9936463883266269
14.6612109375 -0.13905657280945583 -0.9918600276401649
14.662359375 -0.1366593001799441 -1.0054148959955373
14.6635078125 -0.13728542370129426 -1.0069720013502226
14.66465625 -0.1478612217115325 -1.0155406318089102
14.6658046875 -0.154007565413243 -1.016398325941436
14.666953125 -0.1639663661537557 -1.025119431548911
14.6681015625 -0.16295611710419178 -1.0110301582876364
14.66925 -0.16531237699351564 -1.0202436329060194
14.6703984375 -0.17035482536566005 -1.0082129529057533
14.671546875 -0.17137135968031358 -1.010612677827547
14.6726953125 -0.17016930651746476 -1.0105697352471879
14.67384375 -0.164129250857889 -0.9991626472658008
14.6749921875 -0.17858415024178398 -1.0008373584910428
14.676140625 -0.16848938108220501 -1.000302050530702
14.6772890625 -0.17062287222864514 -1.0040073176359419
14.6784375 -0.17234415515956758 -0.9914473530831384
14.6795859375 -0.16395963467714214 -1.0007921084701508
14.680734375 -0.17036715887444565 -1.0119755770294283
14.6818828125 -0.1670994052217002 -1.009111113639932
14.68303125 -0.17120364131073218 -1.0107541835067615
14.6841796875 -0.187239948833116 -1.0197463066292085
14.685328125 -0.1745877392563695 -1.0225601479115496
14.6864765625 -0.1858383648725297 -1.011010697449845
14.687625 -0.18286494806456977 -1.0095619962263502
14.6887734375 -0.18200802145459605 -1.0148299421270397
14.689921875 -0.18803432123488406 -1.0236549161169757
14.6910703125 -0.18445888436325164 -1.0267150721155949
14.69221875 -0.19714015901375825 -1.0314739297274447
14.6933671875 -0.20770130658286223 -1.0266028999199706
14.694515625 -0.21403736312224397 -1.0229279042334232
14.6956640625 -0.2213332890701264 -1.022805642693031
14.6968125 -0.21501883144235834 -1.0061115309428832
14.6979609375 -0.21844794106970278 -1.0077034482731158
14.699109375 -0.21810400045171308 -1.003678250889645
14.7002578125 -0.2137546332245065 -1.0105024197341068
14.70140625 -0.2204120097674076 -1.0143782892830027
14.7025546875 -0.2292970259440521 -1.0240102733464034
14.703703125 -0.2325578740508466 -1.0256541178977616
14.7048515625 -0.24827026860538015 -1.0191637144501617
14.706 -0.25740870495963 -1.0080996656811998
14.7071484375 -0.2759060345779991 -0.9996853626178814
14.708296875 -0.2753537727432238 -0.9904314439497242
14.7094453125 -0.2707471431499888 -0.9770506856194331
14.71059375 -0.2660888318172201 -0.9698938532881712
14.7117421875 -0.28018045758142296 -0.9726183285491132
14.712890625 -0.2705248475399332 -0.9674476963101963
14.7140390625 -0.27181712849594464 -0.958209507703642
14.7151875 -0.278869583795753 -0.9529576721483478
14.7163359375 -0.28185888662274994 -0.9509636131529738
14.717484375 -0.28093141288346 -0.9341262854236708
14.7186328125 -0.2799791451909509 -0.9304528803616543
14.71978125 -0.26823255336084806 -0.9235274279285239
14.7209296875 -0.2605874298451585 -0.9155911093823033
14.722078125 -0.25568470767845286 -0.9211576314320429
14.7232265625 -0.2647095875703862 -0.9198904853854403
14.724375 -0.2697885614567197 -0.91824315975033
14.7255234375 -0.27311055253087546 -0.9192706133346844
14.726671875 -0.28136410658379396 -0.9010252047550512
14.7278203125 -0.2694820938134971 -0.8872464658823935
14.72896875 -0.266025238249906 -0.867923916445204
14.7301171875 -0.25588946480641284 -0.866841092941189
14.731265625 -0.238285843154442 -0.8648344767837219
14.7324140625 -0.22947944776031615 -0.8559849793138299
14.7335625 -0.22347915319291578 -0.8542665391212114
14.7347109375 -0.20467583005869672 -0.8562634030234766
14.735859375 -0.20394490947186106 -0.8571816980441448
14.7370078125 -0.19466356126694773 -0.8543675718584804
14.73815625 -0.18531864472415016 -0.854317431609536
14.7393046875 -0.1755173102540024 -0.8639781652681823
14.740453125 -0.17252947654247608 -0.8580432316289026
14.7416015625 -0.16983397556677238 -0.8595081683899056
14.74275 -0.15482919393884498 -0.8648829193874659
14.7438984375 -0.15316386124860182 -0.8655035632534425
14.745046875 -0.14861419339857573 -0.8693592042739047
14.7461953125 -0.1377612569169081 -0.8691942059034128
14.74734375 -0.12929035859623295 -0.8748102828739599
14.7484921875 -0.1299322917701088 -0.8892876032836353
14.749640625 -0.12632492652699212 -0.9015897860212322
14.7507890625 -0.12169541034070408 -0.9045744348365164
14.7519375 -0.12059060819481271 -0.9076375996332066
14.7530859375 -0.12047650989184877 -0.9057577235798812
14.754234375 -0.11336182635856895 -0.909277861679257
14.7553828125 -0.10842526628808735 -0.9164990376729543
14.75653125 -0.10939688475487552 -0.9278042665230731
14.7576796875 -0.10539974767804061 -0.9411393584223431
14.758828125 -0.10864490918627823 -0.9496663211076165
14.7599765625 -0.11298000217600218 -0.9579375246954451
14.761125 -0.11808455816968849 -0.9629491180148956
14.7622734375 -0.1266211849389306 -0.9669643091048279
14.763421875 -0.1309036100780931 -0.9698283518227724
14.7645703125 -0.13355528225465074 -0.972218382654606
14.76571875 -0.13658972681113957 -0.9737772033640536
14.7668671875 -0.14486968638313458 -0.9735572474639524
14.768015625 -0.14257123968646357 -0.9741113438512581
14.7691640625 -0.14029813843902939 -0.9762752371785692
14.7703125 -0.1426693542981099 -0.9743833900524765
14.7714609375 -0.14426485161837954 -0.985253537157038
14.772609375 -0.13999323252013318 -0.9850326760986863
14.7737578125 -0.1421092887989598 -0.9905283049812683
14.77490625 -0.14187969834412967 -0.9973566934109999
14.7760546875 -0.14835317046391577 -1.0054794245228242
14.777203125 -0.15203263512180287 -1.006813232063913
14.7783515625 -0.15593857120859939 -1.013635807731881
14.7795 -0.1649399054128614 -1.0250765325740905
14.7806484375 -0.1689149906906669 -1.022322768844023
14.781796875 -0.18518986740029042 -1.0414090654115498
14.7829453125 -0.20212656432420556 -1.0373218200479846
14.78409375 -0.21295515512944196 -1.0441957269717814
14.7852421875 -0.2334984963336565 -1.033024395885218
14.786390625 -0.2357922049486444 -1.0254757194175879
14.7875390625 -0.2354805041588519 -1.0131296586880174
14.7886875 -0.23633677535039793 -1.0023572817615507
14.7898359375 -0.22921339824763243 -0.9907412849406398
14.790984375 -0.22672358336867593 -0.9978862909295312
14.7921328125 -0.23329715759286418 -1.0017899765127007
14.79328125 -0.2364301868566504 -0.9979035983615152
14.7944296875 -0.23457990516022442 -0.9937066331851218
14.795578125 -0.23731297261500583 -1.003641261789962
14.7967265625 -0.23936985274739342 -0.9951062060916331
14.797875 -0.2500471501343583 -0.9933811378254416
14.7990234375 -0.2521719207599413 -0.999021550786646
14.800171875 -0.2462143156975266 -0.9855128335976193
14.8013203125 -0.2603406104866268 -0.9896518712640939
14.80246875 -0.2600781040663974 -0.971565404249045
14.8036171875 -0.25807458391885774 -0.9773703212980029
14.804765625 -0.2607023819886757 -0.9769218868715428
14.8059140625 -0.26052508716647316 -0.9684926135596665
14.8070625 -0.25161483636157134 -0.9726500545856667
14.8082109375 -0.2564373594292857 -0.9719872918959218
14.809359375 -0.2549115705938645 -0.9682009510643422
14.8105078125 -0.26187587481169616 -0.9589561441430896
14.81165625 -0.2641713282097411 -0.9573289751267807
14.8128046875 -0.26617246452322196 -0.9600578472296895
14.813953125 -0.26740091124336784 -0.9487366506799568
14.8151015625 -0.26321081571934557 -0.9544586740568053
14.81625 -0.2564539997189397 -0.9549629803900623
14.8173984375 -0.25806011918546945 -0.9629219532440398
14.818546875 -0.2579438123447486 -0.9552611067609014
14.8196953125 -0.2496559831823204 -0.9481306171794104
14.82084375 -0.2584806779993011 -0.9522756305586816
14.8219921875 -0.25656399486998527 -0.9494465488643125
14.823140625 -0.25558779302471824 -0.9499969565165326
14.8242890625 -0.2577880700283569 -0.9522231656532752
14.8254375 -0.2517544962591647 -0.9456529043933009
14.8265859375 -0.25450471756583504 -0.9519485615171772
14.827734375 -0.2666103462775584 -0.9503816584879947
14.8288828125 -0.25925102320876503 -0.9557852895002952
14.83003125 -0.2586413422916063 -0.9550064984550348
14.8311796875 -0.2619897577368808 -0.9609808116842262
14.832328125 -0.26747536194957255 -0.9651644121266647
14.8334765625 -0.2672164805811761 -0.9581003285181223
14.834625 -0.2723804886208935 -0.9529541172855996
14.8357734375 -0.27574778957329116 -0.9540820624475461
14.836921875 -0.2794360378832803 -0.9523173151268443
14.8380703125 -0.2765078223527928 -0.9466890232827788
14.83921875 -0.28732936739010473 -0.9517121497485154
14.8403671875 -0.2710371592043642 -0.943579804767601
14.841515625 -0.27606323121110177 -0.9303208843334828
14.8426640625 -0.28148753920321523 -0.9306442633063213
14.8438125 -0.26935884346743255 -0.9432551511322731
14.8449609375 -0.24920349795328867 -0.9433879398689005
14.846109375 -0.24815702500754122 -0.9344268613315375
14.8472578125 -0.27684381895410204 -0.9297001115668388
14.84840625 -0.25695253569236454 -0.931887558866608
14.8495546875 -0.24798553097772047 -0.9412212337373485
14.850703125 -0.28702904224786074 -0.9309046159666753
14.8518515625 -0.2600784976583712 -0.9156401921305587
14.853 -0.24142731262594308 -0.9233999692219563
14.8541484375 -0.24814047453398436 -0.9462682391276147
14.855296875 -0.2575080790470995 -0.9495142711033748
14.8564453125 -0.25616152949183024 -0.9462286810347957
14.85759375 -0.2741277073822518 -0.9349297670222176
14.8587421875 -0.2660975447371704 -0.9355023122147784
14.859890625 -0.269825962657833 -0.9435591874395866
14.8610390625 -0.2584828018156077 -0.9539358452201948
14.8621875 -0.2765784415178709 -0.9623760674585612
14.8633359375 -0.2464003824514326 -0.9540993749027804
14.864484375 -0.258278014621534 -0.9538195993046166
14.8656328125 -0.2687562728518549 -0.9589961886377578
14.86678125 -0.2588351772636649 -0.9653586710583333
14.8679296875 -0.2541870595604372 -0.9623958789910487
14.869078125 -0.2764946981604507 -0.9698800551472195
14.8702265625 -0.28704574184968434 -0.9519204248636703
14.871375 -0.257307707608158 -0.9281680671409105
14.8725234375 -0.29250680638655635 -0.9390492888346313
14.873671875 -0.2586441138455412 -0.9475561264338479
14.8748203125 -0.24969903958787765 -0.9436206619104681
14.87596875 -0.2522734975924772 -0.9596068801148778
14.8771171875 -0.28048979646341643 -0.9433641524784813
14.878265625 -0.27369017950870766 -0.9266772539933847
14.8794140625 -0.26591839931574446 -0.9574447645121185
14.8805625 -0.2653943645065194 -0.9556222507886996
14.8817109375 -0.2840084219999107 -0.9483413981838895
14.882859375 -0.28581468053195874 -0.9644367810575478
14.8840078125 -0.28924426025071237 -0.9498870700117799
14.88515625 -0.27919087944706045 -0.9504759935970006
14.8863046875 -0.27688571287329256 -0.9476587420523264
14.887453125 -0.27341484655552045 -0.9330384685200694
14.8886015625 -0.282116335795848 -0.933121201371836
14.88975 -0.27511098287938923 -0.9349846875877332
14.8908984375 -0.2765451877302752 -0.9369863196418711
14.892046875 -0.27043829909169076 -0.9326919852913447
14.8931953125 -0.268332578462227 -0.9286508011833963
14.89434375 -0.26656391454075995 -0.9229277660346551
14.8954921875 -0.256599560914665 -0.9363797712778137
14.896640625 -0.2500310786785523 -0.9458133144320664
14.8977890625 -0.2566237580774725 -0.9373600706317116
14.8989375 -0.2530457284832827 -0.9493565776900557
14.9000859375 -0.24939477391008852 -0.9513086932455208
14.901234375 -0.2509310859895554 -0.9621778772534217
14.9023828125 -0.24640773128019766 -0.9649413480079947
14.90353125 -0.2672610340102567 -0.9642970213262465
14.9046796875 -0.2658834917794386 -0.9668146361079475
14.905828125 -0.26361536786843215 -0.9733266717285538
14.9069765625 -0.2722019844766863 -0.971821578838922
14.908125 -0.25909127234028473 -0.976033690552607
14.9092734375 -0.26113135322829667 -0.9833105583129409
14.910421875 -0.2724350186467711 -0.9839263560391143
14.9115703125 -0.2776865641964819 -0.9803630127095131
14.91271875 -0.27842715259261275 -0.9880131721141332
14.9138671875 -0.2812316922589896 -0.9857457438173218
14.915015625 -0.2823486775389343 -0.9909614856204487
14.9161640625 -0.2921601871169576 -0.9930175612292556
14.9173125 -0.29759093943506487 -0.992032321646996
14.9184609375 -0.30468900809226573 -0.9971079498542716
14.919609375 -0.3100399250018461 -0.996742354913183
14.9207578125 -0.31045685356615615 -0.9914782439886499
14.92190625 -0.3195797879365309 -0.9919351397377274
14.9230546875 -0.3168935063233285 -0.9770221509104318
14.924203125 -0.307869851617403 -0.9762244622352811
14.9253515625 -0.3061892575237213 -0.9868704548844895
14.9265 -0.3029329951166094 -0.9868790090763917
14.9276484375 -0.30298443140437975 -0.9857948279907154
14.928796875 -0.31453663695285655 -0.9821894745942085
14.9299453125 -0.3140971816449885 -0.9809865650349682
14.93109375 -0.3137986765134492 -0.9879496831313783
14.9322421875 -0.3163085361363813 -0.9909173677177029
14.933390625 -0.31533696196463473 -0.9946064459902441
14.9345390625 -0.31867492157460287 -0.9994389950138093
14.9356875 -0.3215759113535396 -0.9995674862735884
14.9368359375 -0.32593270930799695 -0.9954396843901755
14.937984375 -0.32614733377572863 -0.9952300787630606
14.9391328125 -0.3311162994787128 -0.9941201450212941
14.94028125 -0.3335063989347354 -0.9994363374480593
14.9414296875 -0.3390775475796987 -0.998136085975214
14.942578125 -0.3437270130554264 -0.9909745306413347
14.9437265625 -0.3463225018640441 -0.9893210049340408
14.944875 -0.35050050743071764 -0.9908192420479947
14.9460234375 -0.3431076991790379 -0.9909563556951981
14.947171875 -0.3476532046553074 -0.9989569916316371
14.9483203125 -0.3429169349831641 -1.002806698990169
14.94946875 -0.35576305388588036 -0.9948945807200009
14.9506171875 -0.3597045823647803 -0.9945249109501084
14.951765625 -0.37460175705424437 -0.9922292054271309
14.9529140625 -0.3809048514161125 -0.9850275123482229
14.9540625 -0.37802521328886074 -0.976841725304402
14.9552109375 -0.3792775732427527 -0.9752656660210196
14.956359375 -0.3713456398100101 -0.9708570114649856
14.9575078125 -0.36959988690914697 -0.9674157691174855
14.95865625 -0.3713362006709282 -0.97215147309641
14.9598046875 -0.38107016765115326 -0.973096904008098
14.960953125 -0.37862474673213503 -0.9680112059186645
14.9621015625 -0.3793671875897215 -0.9656928494812199
14.96325 -0.38767250087485855 -0.9614636020281931
14.9643984375 -0.386336651560756 -0.9588795322438978
14.965546875 -0.38198807368671894 -0.9538955112627148
14.9666953125 -0.37424231324519286 -0.9588117618714169
14.96784375 -0.3783400639140237 -0.9582370224979202
14.9689921875 -0.3822244109653646 -0.960498545624485
14.970140625 -0.3887091860218843 -0.9653930791165095
14.9712890625 -0.38887683787206884 -0.9614240809814272
14.9724375 -0.3981339492064031 -0.9628269686892088
14.9735859375 -0.40283781799280965 -0.9588761339803146
14.974734375 -0.4012927666196451 -0.9500660255618958
14.9758828125 -0.40062378683010236 -0.9419052814816653
14.97703125 -0.4027209506086201 -0.9383767241391752
14.9781796875 -0.40492370143582657 -0.9430433367703499
14.979328125 -0.4035489447026176 -0.9466895118443918
14.9804765625 -0.40655652818610977 -0.9489572237382702
14.981625 -0.4145825645410024 -0.938959325402904
14.9827734375 -0.4172494198811937 -0.9414065726472491
14.983921875 -0.41901378315708215 -0.9332468960605738
14.9850703125 -0.41872968056962734 -0.9306695068421161
14.98621875 -0.42895264827296253 -0.9237748479002306
14.9873671875 -0.41466901252387556 -0.9169595882930313
14.988515625 -0.4098622202880676 -0.9103271262796204
14.9896640625 -0.4087428692979713 -0.9097460811981319
14.9908125 -0.4047187428205484 -0.9199495421243267
14.9919609375 -0.408695272060357 -0.9278540047165756
14.993109375 -0.4237968655433102 -0.9311469383847728
14.9942578125 -0.4222265810882171 -0.9243970258196892
14.99540625 -0.42571873492684176 -0.909896949656079
14.9965546875 -0.4241013861931387 -0.9074687994200483
14.997703125 -0.4313281989418852 -0.9061097945595011
14.9988515625 -0.4190270577962967 -0.889698836290046
15.0 -0.41245458906039145 -0.8894907739652371
