! Created with skrf 1.8.0 (http://scikit-rf.org).
# GHz S RI R 50.0 
!freq ReS11 ImS11
0.3 -0.9638835663414174 0.04900568606713118
0.3011484375 -0.9630012069309786 0.05028436366821054
0.302296875 -0.9626523728140346 0.052108457448981904
0.3034453125 -0.9631880299277871 0.052965520399929134
0.30459375 -0.9642209349780994 0.05408237484598749
0.3057421875 -0.9646668919811396 0.054280844702169595
0.306890625 -0.9650039557366606 0.05435554469723797
0.3080390625 -0.966458043050896 0.05358803722856295
0.3091875 -0.9660601597182825 0.052088669960553835
0.3103359375 -0.966360039048981 0.05253559531997121
0.311484375 -0.9675916908428199 0.053842404026478746
0.3126328125 -0.9659241232397973 0.05310783376945216
0.31378125 -0.9662557145307111 0.05328923162535308
0.3149296875 -0.9662717720329385 0.05377497066261816
0.316078125 -0.968242878067809 0.0550172586578344
0.3172265625 -0.9674896661661634 0.054570859666624644
0.318375 -0.9653390578208239 0.05403254243065289
0.3195234375 -0.9675830326178478 0.055340444147377044
0.320671875 -0.9682760074041616 0.05514587219346476
0.3218203125 -0.9663676302951085 0.05296201625047246
0.32296875 -0.9658543082713607 0.053309162136031166
0.3241171875 -0.9673977171623329 0.05551045641198987
0.325265625 -0.9670706557180182 0.05487652172920392
0.3264140625 -0.9688345168865299 0.05696332171615609
0.3275625 -0.9682027548783982 0.05292213882395813
0.3287109375 -0.9670123988744473 0.054348019178206336
0.329859375 -0.9683274573440293 0.05579483314900702
0.3310078125 -0.967842016183847 0.05568884156812298
0.33215625 -0.966312260028181 0.0547575296438248
0.3333046875 -0.9680460527601813 0.0532189031010083
0.334453125 -0.9676454180956587 0.053331116900768555
0.3356015625 -0.9666817576731844 0.0577003604892469
0.33675 -0.9675135715509164 0.05422853237122888
0.3378984375 -0.968104829664328 0.05494541204538028
0.339046875 -0.9682248610426867 0.05710659460780143
0.3401953125 -0.9691968531193966 0.059163853640419706
0.34134375 -0.9679346796538453 0.05580499158081953
0.3424921875 -0.9661360216603138 0.05723498420314155
0.343640625 -0.9662927389040822 0.05664977963599305
0.3447890625 -0.9664255973266749 0.056568924678845
0.3459375 -0.9693487129528532 0.0544571042827825
0.3470859375 -0.9669656611389981 0.059959477721461985
0.348234375 -0.9688840823518425 0.055087139633288706
0.3493828125 -0.966493409674728 0.05618606295797257
0.35053125 -0.9704787815945177 0.05500790739030631
0.3516796875 -0.9679020131770164 0.057728079636075125
0.352828125 -0.9649984468139472 0.05764372466022244
0.3539765625 -0.9658766674144691 0.059983509440850624
0.355125 -0.9678419106353575 0.05627438926367012
0.3562734375 -0.967660555051443 0.05733639157191828
0.357421875 -0.9681905588023901 0.05849985574956651
0.3585703125 -0.9675749418740031 0.059162517104560663
0.35971875 -0.9669842160321189 0.060019585570686484
0.3608671875 -0.9666585291473384 0.05977509906153772
0.362015625 -0.9671479955012973 0.06028435881441274
0.3631640625 -0.9670353623157907 0.06020046997649864
0.3643125 -0.9673108635678628 0.061502263149771697
0.3654609375 -0.9667888565982677 0.06105194906084638
0.366609375 -0.9680047978009504 0.0609743039363817
0.3677578125 -0.9679607507866104 0.06204562217170989
0.36890625 -0.967519325946494 0.06231046535091289
0.3700546875 -0.9669109566850809 0.06218140132737182
0.371203125 -0.9680226265612639 0.06318230910699058
0.3723515625 -0.967358883440212 0.062204716776996904
0.3735 -0.968390540345641 0.06377445604952564
0.3746484375 -0.9669383292155369 0.0635317272538164
0.375796875 -0.9676186240867481 0.0643769379257722
0.3769453125 -0.9669148804807092 0.06471130789710505
0.37809375 -0.9679832502307888 0.06534480777484669
0.3792421875 -0.9673151832613602 0.06525907175916607
0.380390625 -0.9677438021298299 0.06647162945350316
0.3815390625 -0.9681495576567616 0.06691956208486183
0.3826875 -0.9683686469890886 0.06721961142224192
0.3838359375 -0.9697530798560222 0.06764665120109192
0.384984375 -0.9694606946007174 0.06680176973828156
0.3861328125 -0.9697341569608271 0.0668789229055925
0.38728125 -0.9695476834250984 0.06756723664133527
0.3884296875 -0.9692411893979979 0.06711361163382892
0.389578125 -0.9694182675714196 0.06736780356488928
0.3907265625 -0.9690054129795671 0.0681264511594693
0.391875 -0.9690200174132959 0.06902643306372941
0.3930234375 -0.9690865691880802 0.06860506116512721
0.394171875 -0.9693261676752127 0.06831916553207479
0.3953203125 -0.969311814610891 0.06926349489965111
0.39646875 -0.9696452168813626 0.06952408309347219
0.3976171875 -0.9696089256678018 0.06989435055733575
0.398765625 -0.9695212109667476 0.07090875586341197
0.3999140625 -0.9697252766741727 0.07053857554943743
0.4010625 -0.970123272796138 0.070524239339669
0.4022109375 -0.9704419832606039 0.07097165241227921
0.403359375 -0.970351024254176 0.07065083586327464
0.4045078125 -0.9703802496890119 0.07072075215587159
0.40565625 -0.9695129234383661 0.06999698060785703
0.4068046875 -0.9700114346848892 0.07097392609231483
0.407953125 -0.96951665472426 0.07075676068349254
0.4091015625 -0.9696567420117603 0.0718411306631917
0.41025 -0.9690569813854659 0.07155364993415117
0.4113984375 -0.9695280466148093 0.07132682734794965
0.412546875 -0.969357891625942 0.0718678559466565
0.4136953125 -0.9692619428917508 0.07155154668551071
0.41484375 -0.9693169552850038 0.07227815814418051
0.4159921875 -0.969400487881632 0.07275393758367148
0.417140625 -0.9691250372968392 0.07314186593984971
0.4182890625 -0.9692410648374427 0.07271390867394578
0.4194375 -0.9700135701482031 0.07310155232004745
0.4205859375 -0.969718898497395 0.07391971324786342
0.421734375 -0.9693636287569706 0.0737928286420246
0.4228828125 -0.970047076234295 0.07344632444619553
0.42403125 -0.9700854915042062 0.07426603271543247
0.4251796875 -0.9700861433124801 0.07438496175987014
0.426328125 -0.9703358995068123 0.0751835544514452
0.4274765625 -0.9701332536008281 0.07525007725126309
0.428625 -0.9687403592525718 0.07437261757361036
0.4297734375 -0.9707337802603007 0.07515373641594025
0.430921875 -0.9698035822461755 0.07577483898367843
0.4320703125 -0.9689075871307928 0.07536466233315775
0.43321875 -0.969885347188133 0.07607834235989969
0.4343671875 -0.9688348733992193 0.0752065562574123
0.435515625 -0.9698707877722591 0.07619122947746093
0.4366640625 -0.9700723552698276 0.07705228718039875
0.4378125 -0.968821103559511 0.0771240460121857
0.4389609375 -0.9696850774162975 0.07679352397108641
0.440109375 -0.9706584939163009 0.07852494886506983
0.4412578125 -0.9692589763219209 0.07775573544612135
0.44240625 -0.969137087395716 0.07796406113322313
0.4435546875 -0.9682823848906348 0.07757665531212543
0.444703125 -0.9707906158407369 0.07942454367085361
0.4458515625 -0.9693151355635076 0.07902857704714306
0.447 -0.9708880938955748 0.07953830713397847
0.4481484375 -0.9685994692505675 0.07666917652726402
0.449296875 -0.9701587036289028 0.07943546779463412
0.4504453125 -0.9696969825380379 0.07929831623768702
0.45159375 -0.9701482801314047 0.07974739515452095
0.4527421875 -0.9704204670063358 0.07957990571569956
0.453890625 -0.9710510494065959 0.08025555268853024
0.4550390625 -0.9706157992849891 0.07960768489824382
0.4561875 -0.9700194698551277 0.07966353576612906
0.4573359375 -0.9700244259625684 0.08206593588314737
0.458484375 -0.9701991394501743 0.08096869538065443
0.4596328125 -0.9703834122679003 0.0811588869797974
0.46078125 -0.9710478704454221 0.08047740529553737
0.4619296875 -0.970155919109692 0.08074280457366556
0.463078125 -0.9706107862243347 0.08230124455171106
0.4642265625 -0.9703334232305026 0.08145639004396837
0.465375 -0.9705414811002673 0.0826653864008896
0.4665234375 -0.9710989139842264 0.08209931635932194
0.467671875 -0.9696335413574985 0.0815638125724949
0.4688203125 -0.970510908754196 0.08181167321062216
0.46996875 -0.9704721400303242 0.08294995952970052
0.4711171875 -0.9703642572968667 0.08234500787321919
0.472265625 -0.9708538795097438 0.08296337784734936
0.4734140625 -0.9700097395724439 0.08320485132407585
0.4745625 -0.9700302678218041 0.08306389398624195
0.4757109375 -0.9696346697258638 0.08186855489912431
0.476859375 -0.9704439025148573 0.08248441015531302
0.4780078125 -0.9708100418777303 0.08263868203041361
0.47915625 -0.9703117202506938 0.0826510594561187
0.4803046875 -0.9696210191714503 0.0829838169581753
0.481453125 -0.9695535239120906 0.08390668370399898
0.4826015625 -0.9699515829893547 0.08390408104746871
0.48375 -0.9697541453166449 0.08458287399661668
0.4848984375 -0.9702717667698953 0.08396368311762695
0.486046875 -0.9702520695061253 0.08435328036250286
0.4871953125 -0.9703805620829596 0.08429838566690429
0.48834375 -0.9697866978869654 0.08424724618823037
0.4894921875 -0.9698424894949969 0.08433876439310602
0.490640625 -0.9693657592149929 0.0845324884912499
0.4917890625 -0.9692344243579518 0.08443376497842384
0.4929375 -0.968939474187958 0.08453159790104799
0.4940859375 -0.9688206927596863 0.08474703257183432
0.495234375 -0.9689903173997647 0.08505000174851521
0.4963828125 -0.9685990847882435 0.08529071544090297
0.49753125 -0.9691124954738881 0.08557880084538014
0.4986796875 -0.9679719393602233 0.08551116110009789
0.499828125 -0.9684218972166974 0.08686345930135786
0.5009765625 -0.9678016634503981 0.08730458193832491
0.502125 -0.9681579906004005 0.08837706951837777
0.5032734375 -0.9671994922735546 0.08870552099778187
0.504421875 -0.9685074274331511 0.08828226305491219
0.5055703125 -0.9687999465055948 0.08875401176912395
0.50671875 -0.9685630346752749 0.08916699338449294
0.5078671875 -0.9690651041503833 0.08936383098567618
0.509015625 -0.9690766632951757 0.0901037798892747
0.5101640625 -0.9691864789006239 0.09050348706166217
0.5113125 -0.9701736970439703 0.09083101632677204
0.5124609375 -0.9707793396238431 0.09089799766496787
0.513609375 -0.9706311733659116 0.09110833868753085
0.5147578125 -0.970622919549987 0.09117274354925367
0.51590625 -0.9700432755902951 0.09113323600470427
0.5170546875 -0.9703997986403262 0.091226244554587
0.518203125 -0.9702391410187445 0.09126670159962907
0.5193515625 -0.9700609740968975 0.09161257376511395
0.5205 -0.9689223881502202 0.09206871798544086
0.5216484375 -0.9695512565598482 0.09281223532889848
0.522796875 -0.9703894104492267 0.09292543679146076
0.5239453125 -0.9698353647319884 0.09301692508267828
0.52509375 -0.9714067303995005 0.09489649501986774
0.5262421875 -0.9718359915223678 0.09370780997947883
0.527390625 -0.970668147031605 0.09499510130959754
0.5285390625 -0.9708550537912299 0.09496339453395347
0.5296875 -0.9701667925552445 0.09581570133859887
0.5308359375 -0.9711803667461667 0.09497818777177608
0.531984375 -0.9715723977420735 0.09520554329114728
0.5331328125 -0.9703253833755453 0.09549225679749596
0.53428125 -0.9712478575765778 0.0959442051491553
0.5354296875 -0.9708202122190858 0.09598898146028256
0.536578125 -0.9713994699721729 0.09618858167694783
0.5377265625 -0.9721914911993891 0.09671289854011272
0.538875 -0.9717251597255868 0.09657281493348258
0.5400234375 -0.9711907565624804 0.09901617031147675
0.541171875 -0.9721827381434449 0.09781856296760538
0.5423203125 -0.9717908367308401 0.09834228614336782
0.54346875 -0.971976347591301 0.09758588372536542
0.5446171875 -0.972189074779149 0.0982162527086568
0.545765625 -0.9722342576044957 0.09805514917395972
0.5469140625 -0.9719171700709333 0.09795259758523867
0.5480625 -0.9717837137487854 0.09760940616251595
0.5492109375 -0.9722760563691263 0.09824457625869068
0.550359375 -0.9720201264317018 0.0991747038857014
0.5515078125 -0.972252242212811 0.09914262916912894
0.55265625 -0.9721315403176574 0.0990767250474367
0.5538046875 -0.9721029385087938 0.09904057723265247
0.554953125 -0.9720350043699622 0.10029660568507284
0.5561015625 -0.9722986054114742 0.10016992120732657
0.55725 -0.9721935616865744 0.10052060474102537
0.5583984375 -0.9724866737958225 0.10063912178273948
0.559546875 -0.972588633527104 0.10129950440911575
0.5606953125 -0.973478615837639 0.10076460452406552
0.56184375 -0.9731119432054118 0.10073815329943836
0.5629921875 -0.9715175696154597 0.10182931982855203
0.564140625 -0.9719595965259521 0.10202190958912544
0.5652890625 -0.9720292603822347 0.10198899133213213
0.5664375 -0.9717899329138231 0.10277247648614654
0.5675859375 -0.9718314445161426 0.10284419393145436
0.568734375 -0.9712945859635582 0.1029319335128023
0.5698828125 -0.9713942969138822 0.1025414535976632
0.57103125 -0.9716651720732541 0.1036117215640428
0.5721796875 -0.9718485515398483 0.10371017320916712
0.573328125 -0.9713099960744185 0.10381071449505871
0.5744765625 -0.9714257610464443 0.10450632571265983
0.575625 -0.9714137941112907 0.10516664056990299
0.5767734375 -0.9717707871115102 0.10558139159560118
0.577921875 -0.9721204587078833 0.10592911665043447
0.5790703125 -0.9713238880985668 0.1065024263268076
0.58021875 -0.9714661203010289 0.10677062278764755
0.5813671875 -0.9713717126153387 0.10711081554888324
0.582515625 -0.971456528207625 0.10810736833653434
0.5836640625 -0.9715546563029697 0.1083794676749017
0.5848125 -0.9714292058115452 0.10815634833269261
0.5859609375 -0.9716566288477952 0.10942322932257914
0.587109375 -0.9717265524104466 0.10979170133035482
0.5882578125 -0.9718823681625313 0.10949309609511465
0.58940625 -0.9719243079738195 0.1100908007990821
0.5905546875 -0.971786515458749 0.11003763934393462
0.591703125 -0.971692046681436 0.11027801043383134
0.5928515625 -0.9718210665374999 0.1109104476204126
0.594 -0.9716751176197329 0.11093411266402564
0.5951484375 -0.9723105612968443 0.11134016592423346
0.596296875 -0.9718564199237749 0.11148526892752755
0.5974453125 -0.9721060471522435 0.11180927755264072
0.59859375 -0.9723368327589796 0.11150784769441016
0.5997421875 -0.9726612209358565 0.11245233457969586
0.600890625 -0.9727639272930251 0.11250662967678887
0.6020390625 -0.973100555930762 0.11271884070763849
0.6031875 -0.9727669447858251 0.11326728934872929
0.6043359375 -0.9733060610418283 0.1135668132838622
0.605484375 -0.9737255342073953 0.11371708221847021
0.6066328125 -0.9737787451129085 0.11389264163501567
0.60778125 -0.9742796306999413 0.11360653303645613
0.6089296875 -0.9733774246556464 0.11319715081506071
0.610078125 -0.9738231250557323 0.11302063576626589
0.6112265625 -0.9736260328158641 0.11318906073379548
0.612375 -0.9736275166309298 0.11388933611977725
0.6135234375 -0.9736411510685608 0.11355430014193613
0.614671875 -0.9737313312513325 0.11406501266478619
0.6158203125 -0.9730196615572635 0.1141269900222543
0.61696875 -0.9728680690594251 0.11396265406513995
0.6181171875 -0.9730038357854128 0.11395317723411075
0.619265625 -0.9727758818164214 0.11447508952391755
0.6204140625 -0.9729552859144085 0.11509809435875701
0.6215625 -0.973178133384914 0.11519116256540729
0.6227109375 -0.9735052607642953 0.11560806101928184
0.623859375 -0.9732802265435126 0.11562717222407626
0.6250078125 -0.9741871400017688 0.1155837135492982
0.62615625 -0.9732392765132292 0.11559977368469537
0.6273046875 -0.9734703221578327 0.11486087332026268
0.628453125 -0.973625123009403 0.11558506069130153
0.6296015625 -0.9733598941749244 0.11589337933250221
0.63075 -0.9738325686183099 0.11642527496314176
0.6318984375 -0.9738507551731244 0.11646133851491025
0.633046875 -0.9737379616357015 0.11665786047680071
0.6341953125 -0.9724882215242165 0.11722549223745993
0.63534375 -0.9707907926325572 0.11636889283857654
0.6364921875 -0.9726444042919681 0.1163015111360452
0.637640625 -0.9734476071103293 0.11675918682584902
0.6387890625 -0.9714594258965229 0.11640516000426154
0.6399375 -0.973420418495813 0.11735153476712484
0.6410859375 -0.9733970721508695 0.11743682656858223
0.642234375 -0.9718689915465906 0.11938704746468498
0.6433828125 -0.972652516467326 0.12038621946888117
0.64453125 -0.9726966225326774 0.1187625408525243
0.6456796875 -0.9725642341918227 0.12014831042723306
0.646828125 -0.9720720130500332 0.1194512384848771
0.6479765625 -0.9739176039637987 0.12093385464190787
0.649125 -0.9717380585139359 0.12028136133709844
0.6502734375 -0.9722233852617466 0.12049593229091538
0.651421875 -0.9725336661980292 0.12035803683374072
0.6525703125 -0.9721440905688544 0.12102123734645376
0.65371875 -0.9723480316309503 0.12379414683475684
0.6548671875 -0.9725571396341656 0.12039327141636255
0.656015625 -0.9715948061069897 0.12142993177200578
0.6571640625 -0.9723167902446125 0.12240505961766787
0.6583125 -0.9725797357939707 0.12279727285939929
0.6594609375 -0.9719451976250342 0.12270814996651394
0.660609375 -0.97244755845679 0.12309191940849748
0.6617578125 -0.973309699673512 0.12354950262898715
0.66290625 -0.9738522918306545 0.12449832792323942
0.6640546875 -0.973597443654777 0.12455361109141891
0.665203125 -0.9738103832148601 0.12535264797587137
0.6663515625 -0.973001422557558 0.12539433638042308
0.6675 -0.9736881114801788 0.12532907803091434
0.6686484375 -0.9730672827717067 0.12531388923748737
0.669796875 -0.9732452993645329 0.12642473081979116
0.6709453125 -0.9733209503180414 0.12611867815594457
0.67209375 -0.9737960269043613 0.12638404139415033
0.6732421875 -0.9739922549130249 0.12655842618664262
0.674390625 -0.9734107337663311 0.12649627304835226
0.6755390625 -0.9741349486551033 0.12751622156503448
0.6766875 -0.9738549957824365 0.1278893420159039
0.6778359375 -0.9747657115243318 0.12756787951268708
0.678984375 -0.9738345629220305 0.1281559859712083
0.6801328125 -0.9739166155850147 0.1278167223216246
0.68128125 -0.9741981259405895 0.12855248407468622
0.6824296875 -0.9739983699054532 0.12866213311540728
0.683578125 -0.9742872667442282 0.12846739557301357
0.6847265625 -0.9741648572326054 0.12880305749049534
0.685875 -0.974541740070143 0.12935687360304152
0.6870234375 -0.974450395326586 0.12928223554535984
0.688171875 -0.9746505015984108 0.1294303470031149
0.6893203125 -0.9752314117315579 0.12934900316176168
0.69046875 -0.9752371211767515 0.1291932762168076
0.6916171875 -0.9748888893302177 0.1292486645919716
0.692765625 -0.9743289587806258 0.1293673677022296
0.6939140625 -0.9743163076548624 0.129380243950722
0.6950625 -0.9737348674147711 0.12943054238226998
0.6962109375 -0.9742358033370466 0.12992517304759757
0.697359375 -0.973940705029098 0.1300164570876028
0.6985078125 -0.974011546109643 0.13100501399370057
0.69965625 -0.9741061821217716 0.1313223042901973
0.7008046875 -0.9742377880886082 0.13124898391754974
0.701953125 -0.973720413916967 0.13149918734800617
0.7031015625 -0.974241684746848 0.13176816827232918
0.70425 -0.9740385236816508 0.13196835755006575
0.7053984375 -0.9736386703690157 0.13168772229191408
0.706546875 -0.974227292125809 0.1321059163427352
0.7076953125 -0.9740605744766673 0.13212536297839295
0.70884375 -0.9742144892780978 0.1326355799603854
0.7099921875 -0.9739250457326891 0.1326776638179022
0.711140625 -0.9730357322075913 0.13253676195907718
0.7122890625 -0.9735315933200613 0.13330489131888448
0.7134375 -0.9735161539938194 0.13398607616500793
0.7145859375 -0.9737496211626986 0.13432511804957034
0.715734375 -0.9737185235719843 0.13489094059430115
0.7168828125 -0.9734974597856143 0.13513243215962828
0.71803125 -0.9734600018042431 0.13568422241356476
0.7191796875 -0.9733288716816351 0.13513848427144945
0.720328125 -0.9736708980226223 0.13606680095123508
0.7214765625 -0.9729204524260089 0.13655071634306726
0.722625 -0.9731516052348166 0.13699067482471172
0.7237734375 -0.9729577929628337 0.13694253085600966
0.724921875 -0.9728434975461359 0.137149936016353
0.7260703125 -0.972817911086558 0.13759610354075696
0.72721875 -0.9726812114184366 0.13839059769248674
0.7283671875 -0.973139843523189 0.13941284627622688
0.729515625 -0.9729103493668546 0.1392623127981289
0.7306640625 -0.9726320031810062 0.13905837347707486
0.7318125 -0.9725124268452681 0.140347812694522
0.7329609375 -0.9727418274302246 0.14077908380887308
0.734109375 -0.9728424459078985 0.14146167114581787
0.7352578125 -0.9728575913486528 0.14115515042364427
0.73640625 -0.9727391983401569 0.14194519678345635
0.7375546875 -0.9726909421723031 0.142296403489864
0.738703125 -0.9726041765398994 0.14281054757409442
0.7398515625 -0.9725909040220502 0.14349729015910806
0.741 -0.9726823716657738 0.14366650786369428
0.7421484375 -0.9729359479240167 0.14384443590708584
0.743296875 -0.9726811693517267 0.1440497582563518
0.7444453125 -0.9726492826587669 0.14493498310269048
0.74559375 -0.9729688544477969 0.1458311642412518
0.7467421875 -0.9733915154596047 0.14531657946307297
0.747890625 -0.9732220143307537 0.14566094327697157
0.7490390625 -0.9729440654368855 0.14561965566378357
0.7501875 -0.9732745088350532 0.1459344462323094
0.7513359375 -0.9737236347596737 0.14650396167657867
0.752484375 -0.9731672917353932 0.1469738899214964
0.7536328125 -0.9728457232942264 0.14749548202252666
0.75478125 -0.9727231180608658 0.14814599893281202
0.7559296875 -0.9732455991539581 0.14837215383565341
0.757078125 -0.9731098106760537 0.14856222542300032
0.7582265625 -0.9735422455817865 0.14840785904577877
0.759375 -0.9738104031880401 0.1489144336699137
0.7605234375 -0.973805388721499 0.14947012929241235
0.761671875 -0.9736771418998185 0.1496183485521957
0.7628203125 -0.9741891246331493 0.14992959199086725
0.76396875 -0.9740015569132208 0.1501910788496304
0.7651171875 -0.973882288555908 0.15039619070053367
0.766265625 -0.9742329631620315 0.15081324691851924
0.7674140625 -0.9738983373826324 0.1511441695719728
0.7685625 -0.9736745477153623 0.15158161588797386
0.7697109375 -0.9737884271886452 0.1512031935227966
0.770859375 -0.9742537032524534 0.1514213740169536
0.7720078125 -0.9745614002863865 0.1518273722799926
0.77315625 -0.9745416746564071 0.15247313277634483
0.7743046875 -0.9749079717157867 0.15264618493462823
0.775453125 -0.9748033757787742 0.15294111508108155
0.7766015625 -0.9747779298507124 0.15247807767405339
0.77775 -0.9752416648893426 0.15283624608222546
0.7788984375 -0.9746880222879677 0.15304349775255638
0.780046875 -0.9747346712711333 0.15329221121607461
0.7811953125 -0.9736215692940774 0.15407722997731876
0.78234375 -0.9746285098135218 0.15444165347670857
0.7834921875 -0.9736154381127569 0.15445607310648735
0.784640625 -0.973904672395828 0.1542409867288927
0.7857890625 -0.9741042430682699 0.15440989288354723
0.7869375 -0.9739547450024595 0.15512060066322786
0.7880859375 -0.9741904521806367 0.15538255088410569
0.789234375 -0.9742699149079304 0.15563114603997635
0.7903828125 -0.9742193712260118 0.15570578871014024
0.79153125 -0.9736027962191547 0.15591579992096127
0.7926796875 -0.9729257427919312 0.15582274539107943
0.793828125 -0.973960274375493 0.15648605322677345
0.7949765625 -0.9732558008195422 0.15638300441164021
0.796125 -0.9733863060901036 0.15654078667074595
0.7972734375 -0.9737718198405309 0.15660875590194961
0.798421875 -0.9732717640567945 0.15714194445400687
0.7995703125 -0.9734644582598164 0.1577996715131686
0.80071875 -0.9728415474216329 0.15755384085047774
0.8018671875 -0.9734345482409569 0.15867094907040175
0.803015625 -0.9732711552586233 0.15837149522332122
0.8041640625 -0.9733746049419971 0.1591916268085451
0.8053125 -0.9733872372925513 0.1594596746286669
0.8064609375 -0.9731520142847457 0.15967011193365482
0.807609375 -0.9737149738035228 0.15977087161632936
0.8087578125 -0.973992285907112 0.15982285783749756
0.80990625 -0.9741369487164987 0.15953391482671214
0.8110546875 -0.9736620863711409 0.1594902912356746
0.812203125 -0.9736208773535433 0.1594222215079092
0.8133515625 -0.9730625582681491 0.15955002376069638
0.8145 -0.9725494294591297 0.16028324139089623
0.8156484375 -0.9727243949902359 0.16106781573807832
0.816796875 -0.9726334688050956 0.16156620935344657
0.8179453125 -0.9729445696961926 0.16151224082687182
0.81909375 -0.9730788244224065 0.16168949951577227
0.8202421875 -0.973291102597442 0.16226347512311695
0.821390625 -0.9734856444840073 0.1625208605645913
0.8225390625 -0.9736305148951796 0.16259412230856135
0.8236875 -0.9736223370969302 0.16311367063133242
0.8248359375 -0.9737786327039459 0.16290894646563123
0.825984375 -0.9733059022601134 0.16288836269536333
0.8271328125 -0.9732297450613328 0.16318587719363606
0.82828125 -0.9734362425657137 0.16337004571659214
0.8294296875 -0.9739751178414037 0.16328108783963907
0.830578125 -0.9745853717324617 0.16406225498339577
0.8317265625 -0.9738632296567274 0.16407128063120519
0.832875 -0.9744069526991332 0.1640313023999302
0.8340234375 -0.9746642118997417 0.16427111374135822
0.835171875 -0.97473196204799 0.16501489531594463
0.8363203125 -0.9751877052768091 0.16456246656023318
0.83746875 -0.975316333289433 0.16569765039184847
0.8386171875 -0.9750119466298427 0.16541585708189527
0.839765625 -0.9746145230989871 0.16530968585946207
0.8409140625 -0.9751374317164949 0.1665006977977408
0.8420625 -0.9751746257713507 0.16582821478777815
0.8432109375 -0.9747210648205661 0.16533087065444937
0.844359375 -0.9757160949747128 0.16611724566476221
0.8455078125 -0.9760850169725818 0.16719748846850208
0.84665625 -0.9748723090871328 0.1665590121153921
0.8478046875 -0.97478382583687 0.16718495796214006
0.848953125 -0.9731886953222502 0.16780699406713695
0.8501015625 -0.9737193212070308 0.16866432029230918
0.85125 -0.9736705984224796 0.16812482143639795
0.8523984375 -0.9748175995663544 0.16786758893854584
0.853546875 -0.9736502548055463 0.1680232765726368
0.8546953125 -0.9742274486594331 0.1689856264253437
0.85584375 -0.9743757616975801 0.16881085411021168
0.8569921875 -0.9743789907589582 0.16862480666409746
0.858140625 -0.9752735202345386 0.16977285220098104
0.8592890625 -0.9737180957340383 0.1700344163338977
0.8604375 -0.9739673732204898 0.1696398564318021
0.8615859375 -0.9730461825611139 0.17026957321089273
0.862734375 -0.9738181606727482 0.170178898446542
0.8638828125 -0.9742660729740373 0.17021206997246852
0.86503125 -0.9744822024356965 0.17053843063700325
0.8661796875 -0.9740216828886694 0.17092723281832073
0.867328125 -0.973633240558609 0.17242584333606303
0.8684765625 -0.973580798529081 0.171987183848813
0.869625 -0.9739487230314396 0.17287526676916093
0.8707734375 -0.9731999694594956 0.17245244532216408
0.871921875 -0.9727694477111989 0.17227070785294682
0.8730703125 -0.9738383941224626 0.17224271748855025
0.87421875 -0.9734375313930521 0.17310440561707977
0.8753671875 -0.9736236630461177 0.1739600266579722
0.876515625 -0.9732235282259858 0.17396733282822333
0.8776640625 -0.9732686887625314 0.17439986813304637
0.8788125 -0.9731949402388138 0.17473924627089904
0.8799609375 -0.9730952370922368 0.17496857153818046
0.881109375 -0.9730645631162332 0.17528795745425835
0.8822578125 -0.9728898368198252 0.17555414607074482
0.88340625 -0.9731756205235688 0.17586624389554548
0.8845546875 -0.9730906706562776 0.1759705654873265
0.885703125 -0.973058369871273 0.17631726141133908
0.8868515625 -0.9731173482155857 0.17663920382596526
0.888 -0.9731352516306115 0.17702129206255543
0.8891484375 -0.9731837482776216 0.17733699445075454
0.890296875 -0.9729095666477835 0.17773208622392028
0.8914453125 -0.9726597665081089 0.17798165525398854
0.89259375 -0.9725144773699274 0.17798880106490791
0.8937421875 -0.9725405832412525 0.17847768348200782
0.894890625 -0.972762477532667 0.17909041954747
0.8960390625 -0.9727928000765675 0.17926594335991566
0.8971875 -0.9728356787559915 0.17947299040888784
0.8983359375 -0.9728223583299018 0.18004207281875959
0.899484375 -0.972690625808362 0.1800544920499251
0.9006328125 -0.9725083599721349 0.18053166519063296
0.90178125 -0.9727285984206887 0.18088819586525023
0.9029296875 -0.9728435318880694 0.18135001683334115
0.904078125 -0.9726490987320852 0.1816440919266784
0.9052265625 -0.9727416638323696 0.1823570280520522
0.906375 -0.9730910029264017 0.18254061552379766
0.9075234375 -0.9728185972303348 0.18270628753524398
0.908671875 -0.9722941827660773 0.18269664822451406
0.9098203125 -0.9725327012012611 0.183249577524415
0.91096875 -0.9726505795855391 0.18372858066327985
0.9121171875 -0.9723212877925038 0.18391715883203075
0.913265625 -0.9722960402311882 0.18401968216218098
0.9144140625 -0.9728164127612959 0.18428787420689094
0.9155625 -0.9724139764240772 0.1846654902966838
0.9167109375 -0.9720027442488122 0.18483025312392795
0.917859375 -0.9717590273421993 0.18519476705451426
0.9190078125 -0.9723835122203154 0.18644634055767836
0.92015625 -0.9717907459917293 0.18624856850160815
0.9213046875 -0.972839527851328 0.18654281287820612
0.922453125 -0.9725181153971199 0.18708901495738073
0.9236015625 -0.9723416324943452 0.1874954562371751
0.92475 -0.9719519887778654 0.1883532433187592
0.9258984375 -0.9720033853210213 0.1880214345298637
0.927046875 -0.9719376932121506 0.18822515269516588
0.9281953125 -0.9715934106336015 0.188959124721451
0.92934375 -0.9720281244683815 0.18920454142165077
0.9304921875 -0.9712772316838222 0.1891099356252152
0.931640625 -0.9714136355428032 0.19012857151675558
0.9327890625 -0.971442119305532 0.19005711849108692
0.9339375 -0.9717115678775069 0.1903996840618975
0.9350859375 -0.971597498790892 0.19059103480348633
0.936234375 -0.9711032547950609 0.1909406121963086
0.9373828125 -0.9709183575558185 0.19147276773027036
0.93853125 -0.9711998666279263 0.19207136939787864
0.9396796875 -0.9713007625688229 0.1923409925165795
0.940828125 -0.9711241449071466 0.19264230616335168
0.9419765625 -0.9707713647704272 0.1927076265753292
0.943125 -0.9707206881668488 0.19312067057530866
0.9442734375 -0.9708282459122575 0.19344397529136928
0.945421875 -0.970899357872698 0.19372234944495756
0.9465703125 -0.9707792389301348 0.19414180322005828
0.94771875 -0.9708439238348543 0.19429498916477383
0.9488671875 -0.9707559376712415 0.1948449568667296
0.950015625 -0.9709154336360848 0.1950748915008803
0.9511640625 -0.971208485102948 0.19514794951937733
0.9523125 -0.9711331935848382 0.1954033668372605
0.9534609375 -0.9712947493798069 0.1958129336337574
0.954609375 -0.9712149904148302 0.19610425226977352
0.9557578125 -0.9711373809110261 0.19629730272392296
0.95690625 -0.9710903689831014 0.196461822582903
0.9580546875 -0.9707322748470956 0.19708714229660496
0.959203125 -0.971311691224045 0.19733376255845825
0.9603515625 -0.9713870911143394 0.19700143086480365
0.9615 -0.9713031582712006 0.19756810760680277
0.9626484375 -0.971236281329849 0.19797806469876178
0.963796875 -0.9715321772389001 0.19816819002983221
0.9649453125 -0.9710997320980155 0.19863374039420578
0.96609375 -0.9712262319836072 0.19851145502172168
0.9672421875 -0.9715183451277807 0.19920299742688302
0.968390625 -0.9713040487446166 0.19965391432355895
0.9695390625 -0.972055833330521 0.1993393513852314
0.9706875 -0.9717185652824623 0.1991432467116735
0.9718359375 -0.9727254455928402 0.20064133670832945
0.972984375 -0.972173993941179 0.20005827685667416
0.9741328125 -0.9721592698916188 0.2012625907483882
0.97528125 -0.9737090556847483 0.2012087806810247
0.9764296875 -0.9724469109623259 0.20143835859321657
0.977578125 -0.9724060316555786 0.20134244082868774
0.9787265625 -0.9716263939689592 0.2014899910754337
0.979875 -0.9711410903402993 0.20131367835447028
0.9810234375 -0.9704696588270564 0.2018119687454173
0.982171875 -0.9720294256044418 0.2028384226720984
0.9833203125 -0.9716758474432925 0.20350378102534772
0.98446875 -0.9719190662744874 0.20291604652181572
0.9856171875 -0.9719808288439099 0.202945868806861
0.986765625 -0.9714299168768405 0.20389234191031885
0.9879140625 -0.971888900227001 0.20448963899250705
0.9890625 -0.9719556540213768 0.20546362348935232
0.9902109375 -0.9720022418964158 0.2056774278050218
0.991359375 -0.9713642167099777 0.2050275684346351
0.9925078125 -0.9711123213602464 0.20516316225765163
0.99365625 -0.9709580296882445 0.20486650796881595
0.9948046875 -0.9710630545637389 0.20546324224648516
0.995953125 -0.9705182165194193 0.20524283707736174
0.9971015625 -0.9708774525959517 0.20549115103527477
0.99825 -0.971266121605835 0.20607405981803012
0.9993984375 -0.9703631177819466 0.20582913734511746
1.000546875 -0.9697815536134917 0.20597976288131883
1.0016953125 -0.9704038996590785 0.2060559272169995
1.00284375 -0.9702683829963572 0.2061707009642546
1.0039921875 -0.9700850742155454 0.20654748607036352
1.005140625 -0.9701491132536316 0.20688949043773913
1.0062890625 -0.9700144855415133 0.20767887010352262
1.0074375 -0.9700155980777942 0.2070111320373803
1.0085859375 -0.9694688427073758 0.2077749750249679
1.009734375 -0.9697249715441407 0.2079593285671252
1.0108828125 -0.9696802979838612 0.20862908967677446
1.01203125 -0.9696490651707397 0.20862795803964498
1.0131796875 -0.9695107759029964 0.20896505608746246
1.014328125 -0.9694233249981815 0.20948290613815124
1.0154765625 -0.9693046109647473 0.2096900739882169
1.016625 -0.9692574696311529 0.21014888092680697
1.0177734375 -0.9697442253339742 0.21041109553609066
1.018921875 -0.9703224288944454 0.21049546287681836
1.0200703125 -0.9699966092989354 0.21059493314166344
1.02121875 -0.9696556702368764 0.2105995651066086
1.0223671875 -0.9701529120907199 0.21097452337110909
1.023515625 -0.9703237521828538 0.2110339060989241
1.0246640625 -0.9702160662667311 0.21117461831780698
1.0258125 -0.9706503999308923 0.21160087460358484
1.0269609375 -0.9701472195214287 0.21172027577768443
1.028109375 -0.9699121509836699 0.21194835652973598
1.0292578125 -0.9697866174397828 0.21230959899589025
1.03040625 -0.9704763673147998 0.21230883229406436
1.0315546875 -0.9703367786409783 0.21297926643799497
1.032703125 -0.9697148404683997 0.2126528624109831
1.0338515625 -0.9703693592461885 0.21298083168135862
1.035 -0.9699958576406764 0.2130193714018322
1.0361484375 -0.9702869857328271 0.21334788889911407
1.037296875 -0.9703978823596862 0.21411182575194823
1.0384453125 -0.9700561230486485 0.2144572741362199
1.03959375 -0.9707457625096543 0.21469894127295527
1.0407421875 -0.9706863462754898 0.21464414453148975
1.041890625 -0.9707811172057901 0.2154762966058935
1.0430390625 -0.9699707842616958 0.2145828069810905
1.0441875 -0.9693334449538343 0.21536239533132498
1.0453359375 -0.9694834605036402 0.21469517819975545
1.046484375 -0.9696505270711828 0.21593533046740446
1.0476328125 -0.9694247396120479 0.2168266204386563
1.04878125 -0.9701828582674026 0.21652380311384037
1.0499296875 -0.9698612238040621 0.21748201333626485
1.051078125 -0.969123593344304 0.21731401430254976
1.0522265625 -0.9700142936994972 0.21785997752530067
1.053375 -0.9707229082099261 0.2190898258544095
1.0545234375 -0.9695352697000021 0.21800381641293648
1.055671875 -0.9696721209542054 0.21836535682409206
1.0568203125 -0.96852763700477 0.21855091337589821
1.05796875 -0.9692599370711531 0.21873275624362593
1.0591171875 -0.9692319964480699 0.21919885973279524
1.060265625 -0.9684545847589461 0.21934923630377165
1.0614140625 -0.9689437996758464 0.21946158915670264
1.0625625 -0.9690052045763821 0.21949729877360905
1.0637109375 -0.9686272647132727 0.22060186931681708
1.064859375 -0.968018177497348 0.22099140562506342
1.0660078125 -0.9687408438939827 0.22042131879023658
1.06715625 -0.9687800565516511 0.22038730029039644
1.0683046875 -0.9689124988468264 0.2210259230760222
1.069453125 -0.9684303919452173 0.22172325605884563
1.0706015625 -0.9675097370179104 0.22133186395328183
1.07175 -0.9678906514902166 0.2215248066457969
1.0728984375 -0.9673830085252657 0.22235766758788034
1.074046875 -0.9676883778477448 0.22250322665939637
1.0751953125 -0.9682515927969463 0.22311407176972123
1.07634375 -0.9675032816762068 0.2232336508912871
1.0774921875 -0.9676517723083581 0.2232170742555595
1.078640625 -0.9676498303486454 0.2232022535742102
1.0797890625 -0.9674446783301094 0.2240582841245675
1.0809375 -0.9670500327458218 0.22433576938648755
1.0820859375 -0.9669778644829375 0.22474070212456282
1.083234375 -0.9671267936356204 0.22554078239149647
1.0843828125 -0.9670857772412053 0.22574493295195486
1.08553125 -0.9666810499546465 0.2261788435069103
1.0866796875 -0.9666746819147524 0.22651308483840066
1.087828125 -0.9668134279355924 0.22677574072794424
1.0889765625 -0.966681965611929 0.22727233262730398
1.090125 -0.9666779197998142 0.22767866234664266
1.0912734375 -0.9667962718311414 0.22827876588433665
1.092421875 -0.9668337651157991 0.2278715582880807
1.0935703125 -0.966880323822164 0.22803120327995613
1.09471875 -0.9667792587078278 0.22850288359774473
1.0958671875 -0.9673910327214922 0.22848663704143968
1.097015625 -0.9668785816699186 0.229053701412593
1.0981640625 -0.9668924720138536 0.22929294662318786
1.0993125 -0.9669441459208336 0.22970942860995414
1.1004609375 -0.9669798242751048 0.2294567451731203
1.101609375 -0.9664318395186636 0.23055201251199348
1.1027578125 -0.9665133232768484 0.2309412923934125
1.10390625 -0.9670755850825781 0.23154102225447892
1.1050546875 -0.9664105550006739 0.23151074696088417
1.106203125 -0.9661553197487875 0.23160505788475683
1.1073515625 -0.9661981937987956 0.23233066016389664
1.1085 -0.9659373525746948 0.2323462809593856
1.1096484375 -0.9653591388881919 0.23263519846953273
1.110796875 -0.9659809775133017 0.23340286589350223
1.1119453125 -0.965813751825075 0.2336217903488888
1.11309375 -0.966954430071632 0.23384901211422227
1.1142421875 -0.9664641162777152 0.23355371390955862
1.115390625 -0.9659824495078466 0.23365274686047371
1.1165390625 -0.966467042979601 0.23489304906122982
1.1176875 -0.9663003748513616 0.2346642411238034
1.1188359375 -0.9663376216160835 0.23553832166550936
1.119984375 -0.9657853351968717 0.23478931910245326
1.1211328125 -0.9662383991665199 0.2357039917649581
1.12228125 -0.9659274398278865 0.235337907988254
1.1234296875 -0.9654662500731037 0.23653397531309403
1.124578125 -0.9664866640185854 0.23670062379222215
1.1257265625 -0.9658825843485354 0.2368724848002964
1.126875 -0.9667428571992315 0.23751784613195615
1.1280234375 -0.9655712522049684 0.23680213758187596
1.129171875 -0.9655681770823498 0.23737166237416035
1.1303203125 -0.9649449426463924 0.23849510193426252
1.13146875 -0.9655333612838871 0.23803668088625382
1.1326171875 -0.9654431869377915 0.23813177005763064
1.133765625 -0.9648958736241406 0.23859597609060962
1.1349140625 -0.9648667871518358 0.2384133712254568
1.1360625 -0.9651006532665899 0.23879022112010875
1.1372109375 -0.9648858524080423 0.23966715562048058
1.138359375 -0.964949455129498 0.2395042123371822
1.1395078125 -0.9651404410737351 0.2394941218270117
1.14065625 -0.9650226460049286 0.23947555435044315
1.1418046875 -0.965011889385266 0.23994947030922398
1.142953125 -0.9645448109467468 0.24017046888357887
1.1441015625 -0.964284842699604 0.2402907450528011
1.14525 -0.9642400872138588 0.24073151947263527
1.1463984375 -0.9638199379693886 0.24107750238331155
1.147546875 -0.9639895965253871 0.24097090854068262
1.1486953125 -0.9640280555864839 0.24196745010390097
1.14984375 -0.9641059471714626 0.24175768171246909
1.1509921875 -0.9640329287106556 0.2425391035566951
1.152140625 -0.9641399271016683 0.2426405343471444
1.1532890625 -0.9640616033587449 0.24282479395638892
1.1544375 -0.964557178379339 0.24319197372875745
1.1555859375 -0.9650967751798276 0.24281729470340352
1.156734375 -0.9651728779318929 0.24326115334658027
1.1578828125 -0.9653742512050276 0.2434304777473181
1.15903125 -0.9647910204134145 0.2436279810709245
1.1601796875 -0.9646372729557177 0.24395017431514895
1.161328125 -0.9645643042966325 0.24399698094017622
1.1624765625 -0.9649628461981606 0.2442640139492364
1.163625 -0.9649699194981987 0.2452496509929103
1.1647734375 -0.9641198321864503 0.245256783210541
1.165921875 -0.9643190118971507 0.24576285248550572
1.1670703125 -0.964546449938591 0.24529434794194432
1.16821875 -0.964153967935666 0.24431622714424786
1.1693671875 -0.9638637916885513 0.24456915433460572
1.170515625 -0.9645466738206147 0.24458313888739366
1.1716640625 -0.964472393259526 0.24596072106741618
1.1728125 -0.9653530974547168 0.24632256106000835
1.1739609375 -0.9643884761518459 0.24559933940855566
1.175109375 -0.9650250180777196 0.24616987454501543
1.1762578125 -0.9630925056888349 0.24676542418816166
1.17740625 -0.963077597003192 0.24671735106571224
1.1785546875 -0.9632691287033264 0.2468379173509756
1.179703125 -0.9622271750591619 0.2465830054582903
1.1808515625 -0.9625198150218514 0.24745997086604912
1.182 -0.9633823188998272 0.24755764268209382
1.1831484375 -0.9625698782771218 0.24861289579439524
1.184296875 -0.9626688326594347 0.2488279924899763
1.1854453125 -0.9631423424997381 0.24758608733308257
1.18659375 -0.9632353431705843 0.24853374432968334
1.1877421875 -0.9626411175044589 0.24887719238798853
1.188890625 -0.9642004915141522 0.24931581408147233
1.1900390625 -0.9631730942461477 0.24880683919898477
1.1911875 -0.9629314566571974 0.25073309378104697
1.1923359375 -0.9624031957839153 0.24993636184275153
1.193484375 -0.9616585109378935 0.25035019437900885
1.1946328125 -0.9621301655605008 0.2512265136604557
1.19578125 -0.9622157666776634 0.25167925831735527
1.1969296875 -0.9627152287005931 0.25165067634834926
1.198078125 -0.9625544779246993 0.2512614419660588
1.1992265625 -0.9616162327487098 0.25196325963458577
1.200375 -0.9611002337081487 0.25231852674018607
1.2015234375 -0.9610397434676365 0.2521349860335135
1.202671875 -0.9615424878543091 0.2522851968387477
1.2038203125 -0.9609798185380642 0.2511452751738578
1.20496875 -0.9606810005988391 0.2523328263262262
1.2061171875 -0.960274521319733 0.25246316458431584
1.207265625 -0.9606053552808591 0.2533017620377633
1.2084140625 -0.9597935831261611 0.2538471346930736
1.2095625 -0.9596461354590434 0.25368872068051385
1.2107109375 -0.9595901039009386 0.2544567569806709
1.211859375 -0.9592663292316211 0.25466837048481594
1.2130078125 -0.9592775299792997 0.2557449989662015
1.21415625 -0.9591388304044649 0.25594387200374424
1.2153046875 -0.9595744331532672 0.25633510833745754
1.216453125 -0.9593347023121781 0.2574262025744357
1.2176015625 -0.9597014187696326 0.2575375161829674
1.21875 -0.9603671854493845 0.2574976294662947
1.2198984375 -0.9604755732363864 0.25822704580652606
1.221046875 -0.9606839807918119 0.2577605547371053
1.2221953125 -0.960181280453532 0.25813599491648653
1.22334375 -0.9600398476567022 0.258617520577394
1.2244921875 -0.9600833742517032 0.25871095528161936
1.225640625 -0.960528304435916 0.2590469974125189
1.2267890625 -0.9606645667721205 0.2595390817012681
1.2279375 -0.9608323195758826 0.25943042735514293
1.2290859375 -0.9611228104080113 0.2597756418872146
1.230234375 -0.9619782563960471 0.2606474556195215
1.2313828125 -0.9628596203159981 0.2607900681418563
1.23253125 -0.9618315584881096 0.260361940270338
1.2336796875 -0.9619554507469965 0.2606945926073442
1.234828125 -0.9612026494076508 0.2617901446300749
1.2359765625 -0.9616300503273787 0.26129434315796907
1.237125 -0.9612584111440905 0.26160092158851733
1.2382734375 -0.9607533522215224 0.2612529107393264
1.239421875 -0.9611683681254356 0.2618960759309724
1.2405703125 -0.9617466796436469 0.2621158351633235
1.24171875 -0.9616026800832322 0.262634755923749
1.2428671875 -0.9621376457003745 0.26293072799510564
1.244015625 -0.9619326412635747 0.263085886774395
1.2451640625 -0.9620803680623475 0.26363022807388503
1.2463125 -0.9625502514847263 0.26317477696017194
1.2474609375 -0.9620421520951409 0.2631720997061362
1.248609375 -0.9616591977918669 0.264071600102976
1.2497578125 -0.960752632500525 0.2628721051162931
1.25090625 -0.961759102634837 0.2636854115828498
1.2520546875 -0.9613479155577258 0.2637454838084482
1.253203125 -0.9604721719943026 0.26444865409150653
1.2543515625 -0.9597074135114136 0.2643347979750461
1.2555 -0.9601398660740849 0.2644544617189052
1.2566484375 -0.9595889850971518 0.26444554392320185
1.257796875 -0.9601197975746011 0.26461683746419895
1.2589453125 -0.9605314532913294 0.2652253684968612
1.26009375 -0.9590096196766417 0.2658096246727651
1.2612421875 -0.9582107372590103 0.26599063985896465
1.262390625 -0.9593002315022229 0.2654353613143607
1.2635390625 -0.9586115064847995 0.26612862404880544
1.2646875 -0.9593772362063995 0.26657093453623587
1.2658359375 -0.9595741089009833 0.26682107107958025
1.266984375 -0.9593535769387279 0.26787685186438437
1.2681328125 -0.9586792395755986 0.2674079493048286
1.26928125 -0.9585358257811136 0.26736061465013317
1.2704296875 -0.9585855099535735 0.2681415771388543
1.271578125 -0.9581104031681117 0.26804073464214584
1.2727265625 -0.9582750878575252 0.26859774136713094
1.273875 -0.9575197022792054 0.26855176835425876
1.2750234375 -0.9573409875544932 0.26856702034984575
1.276171875 -0.9569807960507282 0.26945687129180107
1.2773203125 -0.9568986608566299 0.2699179481491297
1.27846875 -0.9565037548155121 0.2699679903085518
1.2796171875 -0.9566897372171774 0.27059298954372446
1.280765625 -0.9565103342572746 0.27064359478471484
1.2819140625 -0.9563535341993515 0.27085561320148455
1.2830625 -0.9556279873217568 0.271113194884902
1.2842109375 -0.9556435326630002 0.2714618227367726
1.285359375 -0.9554437289078852 0.2718998664089466
1.2865078125 -0.9558109162548545 0.27170305126856953
1.28765625 -0.9553809027737471 0.27278866868630514
1.2888046875 -0.955383208422776 0.2729209765359517
1.289953125 -0.9561049320815137 0.27381068056799435
1.2911015625 -0.9549100424764535 0.27430905632984676
1.29225 -0.9554105413833966 0.2740150979844905
1.2933984375 -0.9556433486597706 0.2745728693483997
1.294546875 -0.9552926520698387 0.27468878617915865
1.2956953125 -0.9550135927316129 0.27490713129342864
1.29684375 -0.9550024824429986 0.27558730452168917
1.2979921875 -0.9557771496480677 0.2746476091720378
1.299140625 -0.955434563169934 0.2750743141696227
1.3002890625 -0.9559562175223045 0.27698102822635584
1.3014375 -0.9552868844932629 0.276945477338126
1.3025859375 -0.956754688086487 0.27716515681554715
1.303734375 -0.9572167939212404 0.2772445458948748
1.3048828125 -0.9569135552734256 0.27770561543815137
1.30603125 -0.9567494043325441 0.2771935153685785
1.3071796875 -0.9556609709309553 0.2783629952314436
1.308328125 -0.9569068528508222 0.2785550397627276
1.3094765625 -0.955968580946383 0.27826992415679347
1.310625 -0.9572902971350048 0.2786269965232142
1.3117734375 -0.9567754075398084 0.2792281823978413
1.312921875 -0.9566429480590763 0.27894558754637305
1.3140703125 -0.9553094132726301 0.27978139725889006
1.31521875 -0.9560431896940859 0.27920830606011404
1.3163671875 -0.9569838856228094 0.2795497076012954
1.317515625 -0.956255614907453 0.2799893680322373
1.3186640625 -0.956917867392508 0.2800752718099396
1.3198125 -0.9555501799131739 0.2805403591742227
1.3209609375 -0.9562120421026674 0.28064182315252173
1.322109375 -0.9555681802108604 0.2790539561707036
1.3232578125 -0.9562941716715525 0.28039577576934593
1.32440625 -0.9555645033200033 0.28065078617706646
1.3255546875 -0.9558706783289906 0.2811606244831956
1.326703125 -0.9553317977995065 0.28110676123878686
1.3278515625 -0.9553791035325113 0.2798551537444555
1.329 -0.9560641621327588 0.2799178374735014
1.3301484375 -0.9552728832023308 0.280526305318051
1.331296875 -0.95547542890138 0.2807265965511353
1.3324453125 -0.9551443424729468 0.2810272060233764
1.33359375 -0.955303596307018 0.2801729912017025
1.3347421875 -0.9549996693238751 0.28102357633621855
1.335890625 -0.9546514249411913 0.2811119614281794
1.3370390625 -0.9544119199731194 0.2811807846539056
1.3381875 -0.9539949516365334 0.28132964290840307
1.3393359375 -0.953662801014856 0.281524946515628
1.340484375 -0.9531133549633417 0.28159944862966085
1.3416328125 -0.9533121055570742 0.28126449231057743
1.34278125 -0.9525076604992484 0.28150164482174245
1.3439296875 -0.9523903983494972 0.2819772556069809
1.345078125 -0.9521243545467322 0.2818380652818322
1.3462265625 -0.9516771401951818 0.2821177272673032
1.347375 -0.951315678706913 0.2826462171339019
1.3485234375 -0.9507588533175538 0.2829756297263183
1.349671875 -0.9506073370456101 0.2836366486459399
1.3508203125 -0.9507331990041571 0.28390399995587823
1.35196875 -0.9507311732027316 0.28359817453795344
1.3531171875 -0.9505783872774303 0.2842414613055263
1.354265625 -0.9503034289885396 0.2843338318484321
1.3554140625 -0.9501319694252007 0.2855411238846512
1.3565625 -0.9504491582157758 0.285769341417104
1.3577109375 -0.9508445619115928 0.28477271928570447
1.358859375 -0.9496324172274251 0.28568052835685037
1.3600078125 -0.9498520059063444 0.2857954994818567
1.36115625 -0.9498579049268516 0.28590840089540914
1.3623046875 -0.9499878334733151 0.28686048594472513
1.363453125 -0.9501988773240942 0.2864660234131805
1.3646015625 -0.9501563086378222 0.2875454319720494
1.36575 -0.9508578309984248 0.2884291669316848
1.3668984375 -0.9504784099864507 0.2886839576524716
1.368046875 -0.9506557761221044 0.28989618003971085
1.3691953125 -0.9504034897280067 0.2891295045408135
1.37034375 -0.9489767856204474 0.2904801130040092
1.3714921875 -0.9498143722448795 0.2916506094032787
1.372640625 -0.9516997075493361 0.2909933323309644
1.3737890625 -0.9510739444736085 0.292120710610229
1.3749375 -0.951374443231154 0.2921609689252505
1.3760859375 -0.9515564734350785 0.2913338687732832
1.377234375 -0.9517412583804499 0.2922421179856029
1.3783828125 -0.9520983692322649 0.29228918313007024
1.37953125 -0.9525789277603779 0.293390651088068
1.3806796875 -0.9520565854663299 0.29346017092114307
1.381828125 -0.9533332384551023 0.2940234647983415
1.3829765625 -0.9525869612854603 0.29261675152909117
1.384125 -0.9520651834964386 0.29462576123094186
1.3852734375 -0.9514655118732878 0.29467653057452814
1.386421875 -0.9520360674633346 0.2945811823340846
1.3875703125 -0.9518406736191949 0.29397201167611275
1.38871875 -0.9520249258530653 0.29396964964990396
1.3898671875 -0.9527615803344276 0.29561453308272956
1.391015625 -0.9511689704386855 0.2950725019492128
1.3921640625 -0.9536299485412876 0.29645270785867484
1.3933125 -0.9526180151711177 0.29434457871353986
1.3944609375 -0.9516678411272105 0.2957000704082846
1.395609375 -0.9524694496697544 0.29531115437210054
1.3967578125 -0.9522931182705529 0.2949257130622691
1.39790625 -0.9522756107793777 0.29602397797666136
1.3990546875 -0.9521725877044424 0.29513171692402135
1.400203125 -0.9524699951485082 0.2958977552282197
1.4013515625 -0.9524707250612463 0.29579264184769194
1.4025 -0.9525052492757498 0.29531350211899343
1.4036484375 -0.9524184787057762 0.29584402403482046
1.404796875 -0.9524985626754526 0.2957185481344521
1.4059453125 -0.952377648491229 0.29581578668608016
1.40709375 -0.9511652957746748 0.29496919999513327
1.4082421875 -0.9513266288301105 0.2955663076883575
1.409390625 -0.9513921110587804 0.29544369322783715
1.4105390625 -0.9501866959000703 0.29539779858669357
1.4116875 -0.950177808638339 0.2951032348918615
1.4128359375 -0.9497224909183501 0.29553844126341744
1.413984375 -0.950110371141976 0.2956922321872438
1.4151328125 -0.9502219232862316 0.2959409645057368
1.41628125 -0.9494816436723206 0.2961092883798511
1.4174296875 -0.9495250210242039 0.2965397586990216
1.418578125 -0.9491849277420256 0.29628965464493
1.4197265625 -0.9487344920937569 0.29693330721588496
1.420875 -0.9484690777043068 0.29654602726581625
1.4220234375 -0.9478185158060155 0.29697426974065677
1.423171875 -0.9480937365876831 0.29669218143508824
1.4243203125 -0.9473638228330583 0.2971929652348372
1.42546875 -0.947081034308605 0.29736273669520347
1.4266171875 -0.9466565307738097 0.2976098566275023
1.427765625 -0.9469335845546806 0.2978312188740273
1.4289140625 -0.946825966412671 0.2981193791000992
1.4300625 -0.946406969066588 0.2987819967109182
1.4312109375 -0.9459400434381331 0.2998213331035935
1.432359375 -0.9459674624128759 0.3003376069478133
1.4335078125 -0.9459189480728061 0.3007415404694117
1.43465625 -0.9455644069533687 0.3011057642405853
1.4358046875 -0.9450201977253602 0.3013647853983713
1.436953125 -0.9454748697498767 0.3016683055724528
1.4381015625 -0.9456145823624396 0.30143977925816445
1.43925 -0.9448403307717134 0.3023202187453131
1.4403984375 -0.9452408413675885 0.3026344848715208
1.441546875 -0.9449449670036695 0.30327179038487234
1.4426953125 -0.9444490751035773 0.304019680810196
1.44384375 -0.9449331612546175 0.30454818419928664
1.4449921875 -0.9446096574937233 0.3046774738022374
1.446140625 -0.9445214643773316 0.30480801458791096
1.4472890625 -0.9442460986809268 0.30543531577303806
1.4484375 -0.9433355755453124 0.3059795743164597
1.4495859375 -0.9432450708152725 0.3064891775629118
1.450734375 -0.9432245063231588 0.3067457212067189
1.4518828125 -0.9445522212180605 0.308557183959072
1.45303125 -0.9446999514620273 0.30768426742436966
1.4541796875 -0.9443542520616274 0.3083973917384809
1.455328125 -0.944573171234842 0.3086413898406681
1.4564765625 -0.9446356194863936 0.3090441655015375
1.457625 -0.9451414019449764 0.30989885403109146
1.4587734375 -0.94487157363441 0.3096216538321913
1.459921875 -0.9454748192092163 0.3096605965086796
1.4610703125 -0.9458302350741796 0.3102403216371004
1.46221875 -0.9456292664900787 0.3104483121699712
1.4633671875 -0.9458826073542227 0.3108803522728962
1.464515625 -0.9459728359325487 0.3095057031368031
1.4656640625 -0.9456512184056461 0.31024054037664595
1.4668125 -0.9456143099232973 0.31110433853353897
1.4679609375 -0.9456992719765938 0.3102505637959278
1.469109375 -0.945336988131621 0.3111151757396459
1.4702578125 -0.946053952076697 0.31070503227895874
1.47140625 -0.9458956394396741 0.310769741995317
1.4725546875 -0.9454434008932548 0.31090957267388475
1.473703125 -0.9460776044721164 0.3122091938710805
1.4748515625 -0.9455461590407553 0.31162370351767765
1.476 -0.9457036713434399 0.31169796697981966
1.4771484375 -0.9461055184547531 0.3115505983214455
1.478296875 -0.9458191718505287 0.31177993768076545
1.4794453125 -0.945593264760649 0.31182054287162475
1.48059375 -0.9453882555390025 0.3119416193323322
1.4817421875 -0.9451882309653856 0.3114695125335412
1.482890625 -0.944901743312162 0.3116533051483108
1.4840390625 -0.9448133412600853 0.31226796427906856
1.4851875 -0.944274518218841 0.3118912546605995
1.4863359375 -0.944367460696421 0.3117241994821814
1.487484375 -0.9439477059214296 0.31106543815005844
1.4886328125 -0.9446144838059249 0.3117627568216158
1.48978125 -0.9441941473210006 0.3121062163487177
1.4909296875 -0.9440824301071498 0.31215466847299816
1.492078125 -0.9437082396560829 0.31180766265429405
1.4932265625 -0.9438111922431452 0.31191646177744736
1.494375 -0.9428571560954108 0.31172093078449403
1.4955234375 -0.9434250679280343 0.312228785885709
1.496671875 -0.9433602094665107 0.31233877613356403
1.4978203125 -0.9436832447915673 0.3120739806020854
1.49896875 -0.9426814880146516 0.31158531005545387
1.5001171875 -0.9431523743911961 0.31188170198778997
1.501265625 -0.9420827815812448 0.3122085985035556
1.5024140625 -0.9427122112737278 0.31234250319198603
1.5035625 -0.9416617962515955 0.312704680964637
1.5047109375 -0.9416672402539951 0.3137164672640157
1.505859375 -0.9416056324926968 0.31305810758660557
1.5070078125 -0.9409128454474541 0.3144963213760136
1.50815625 -0.9401611215956875 0.31417864364980425
1.5093046875 -0.9409140301442133 0.3158638778742423
1.510453125 -0.9411690810570522 0.31565665868611825
1.5116015625 -0.9405592560233301 0.3154220611583529
1.51275 -0.9402987234064694 0.3165205344523714
1.5138984375 -0.9404473333079263 0.3163775725119774
1.515046875 -0.9405864985356132 0.31528476527762295
1.5161953125 -0.9389091535164285 0.31629600153103005
1.51734375 -0.9378563774881592 0.317297447494214
1.5184921875 -0.9385778403415431 0.3175469200868146
1.519640625 -0.9390173937636561 0.3176352136644395
1.5207890625 -0.9395761119541621 0.31755522904082556
1.5219375 -0.9379467108591105 0.31812441384312373
1.5230859375 -0.9386471495616788 0.31914107822674925
1.524234375 -0.938738901388319 0.31844177203692614
1.5253828125 -0.9386437794724918 0.3198811839347274
1.52653125 -0.9389375507933739 0.3196082554434416
1.5276796875 -0.9393417172148657 0.32030889405806096
1.528828125 -0.9389548204934401 0.32062241419695975
1.5299765625 -0.9390958215875141 0.32142508298766215
1.531125 -0.9394095039067674 0.322252404918011
1.5322734375 -0.9402845159057673 0.32224525019843486
1.533421875 -0.9395638645805999 0.3217475054250302
1.5345703125 -0.939736778272636 0.3219413611502897
1.53571875 -0.9408437096397105 0.3230983858433041
1.5368671875 -0.9398598683529913 0.32196696535703234
1.538015625 -0.9405839754367256 0.3226229362501012
1.5391640625 -0.9403709077464947 0.32220605307940625
1.5403125 -0.9402604630581273 0.32273700961823915
1.5414609375 -0.9400320600636098 0.32234720539979506
1.542609375 -0.9401595469046762 0.3226628072943002
1.5437578125 -0.9405529988800467 0.322872188177611
1.54490625 -0.9404165355158696 0.32230094920365787
1.5460546875 -0.9403531209117155 0.32249259139871267
1.547203125 -0.9405100382146547 0.32282383718100816
1.5483515625 -0.9403702785416526 0.3232515245382155
1.5495 -0.9406489876098769 0.3229382861879109
1.5506484375 -0.9411988128305474 0.3230988367766522
1.551796875 -0.9407907419405616 0.3235839481764502
1.5529453125 -0.9405306412036986 0.32335380782903317
1.55409375 -0.94079494152181 0.32334336339876674
1.5552421875 -0.9409152531593525 0.3232239578920312
1.556390625 -0.940849657557674 0.3230902918110185
1.5575390625 -0.9403609768331722 0.32274983159995885
1.5586875 -0.9401250854708731 0.3234252394972726
1.5598359375 -0.9397418297939762 0.3234018227976668
1.560984375 -0.9401346691843596 0.32325962447426104
1.5621328125 -0.9396470916913735 0.3230419235193236
1.56328125 -0.9388214625518743 0.32327170709250574
1.5644296875 -0.9388659997199402 0.32348212825120026
1.565578125 -0.9393713767140354 0.32301895195807095
1.5667265625 -0.9386602391770882 0.3235764207183586
1.567875 -0.938231465432352 0.3232991522243246
1.5690234375 -0.9383264427679197 0.32435719545774194
1.570171875 -0.9382684599531511 0.32396991515471996
1.5713203125 -0.9378774797985092 0.32351166196638814
1.57246875 -0.9377123388498331 0.3240477310794145
1.5736171875 -0.9371303103231702 0.3237358673347979
1.574765625 -0.93746823087196 0.3243987080210877
1.5759140625 -0.937516128121874 0.32368732561564684
1.5770625 -0.9365784020118417 0.3241314808384639
1.5782109375 -0.9361446641776644 0.3244058866712617
1.579359375 -0.9356048780594735 0.3252670960774676
1.5805078125 -0.9359158758057937 0.3248896358342461
1.58165625 -0.9359269124100587 0.32551777206090027
1.5828046875 -0.935823803394427 0.32522695188607853
1.583953125 -0.9357406011663923 0.3256853659053135
1.5851015625 -0.9353744823983295 0.32660307535417743
1.58625 -0.9348952711327961 0.32633103000402186
1.5873984375 -0.9345566494575791 0.3268980656304822
1.588546875 -0.9335911444125147 0.32766737115171496
1.5896953125 -0.9334846051128629 0.3276767784962487
1.59084375 -0.9335833662218037 0.3271985479621963
1.5919921875 -0.9336614884326948 0.3272634280183991
1.593140625 -0.9339082095471672 0.32873629483118055
1.5942890625 -0.9338294990385324 0.32913187910922803
1.5954375 -0.9333640274905407 0.3292432176779534
1.5965859375 -0.933520064899097 0.32947182508044137
1.597734375 -0.9327704961122122 0.32953960890926637
1.5988828125 -0.9332164787739973 0.3308040554080107
1.60003125 -0.9332812516591957 0.3314416099809712
1.6011796875 -0.9329409101228576 0.33075361714684626
1.602328125 -0.932686198388701 0.33236848351158205
1.6034765625 -0.9327531497422299 0.33225889599839836
1.604625 -0.9329993669653238 0.3331716370114877
1.6057734375 -0.9332864581333694 0.3332755094326176
1.606921875 -0.9330704233966881 0.33351985692326225
1.6080703125 -0.9332371594654532 0.3339035248498009
1.60921875 -0.933074585288234 0.333414122144698
1.6103671875 -0.9329347648192258 0.33448947251559213
1.611515625 -0.9333489889994661 0.3348942486949815
1.6126640625 -0.9332273361228277 0.33504890307300284
1.6138125 -0.9330350159262765 0.3350493962719519
1.6149609375 -0.933458233832953 0.3355446530140711
1.616109375 -0.9330747645323368 0.33552779795977977
1.6172578125 -0.9332749501708464 0.33519346124153837
1.61840625 -0.9333037178109045 0.33534227091884206
1.6195546875 -0.9334857324996205 0.3358216920542223
1.620703125 -0.9332146389295727 0.336328984588007
1.6218515625 -0.9334809673419379 0.3362204244427379
1.623 -0.9341576475158192 0.3359907461209445
1.6241484375 -0.9341670531422898 0.33602959258163423
1.625296875 -0.9335974231974821 0.3363221459126684
1.6264453125 -0.933864545574144 0.33675294294652536
1.62759375 -0.9339680025174586 0.3366012397185001
1.6287421875 -0.9336049739283865 0.33686751386939257
1.629890625 -0.9337157253368686 0.3359384675746966
1.6310390625 -0.9334757941576374 0.3363132892190397
1.6321875 -0.9331827544648054 0.33680830809824214
1.6333359375 -0.933130386823875 0.3370444462169402
1.634484375 -0.9333847571252198 0.3366653466883264
1.6356328125 -0.9334978632229336 0.3368917481736826
1.63678125 -0.9333680797553893 0.33702217547646746
1.6379296875 -0.9341175324929738 0.3376063276183794
1.639078125 -0.9330697762821076 0.3373532219315515
1.6402265625 -0.9330560519758408 0.3369271356197754
1.641375 -0.932937983578397 0.33704357061970486
1.6425234375 -0.9326031178695138 0.33741803987450497
1.643671875 -0.9327466962653839 0.3371475346424676
1.6448203125 -0.9328315146527951 0.3372345492031322
1.64596875 -0.932875181952481 0.3375535345653524
1.6471171875 -0.9327583144537231 0.3376618420511576
1.648265625 -0.9325715615810697 0.3378914681665819
1.6494140625 -0.9321055258468859 0.3376819775113533
1.6505625 -0.9317359854142282 0.33833883036860546
1.6517109375 -0.9313442025102852 0.3377105115045512
1.652859375 -0.9318798139781306 0.33839966853117803
1.6540078125 -0.931214798788079 0.33847538593777937
1.65515625 -0.9307861769702394 0.3384894054300248
1.6563046875 -0.9311989269869083 0.33901908138208764
1.657453125 -0.9310846319974357 0.33894631886901455
1.6586015625 -0.9307150054778023 0.3392543469427568
1.65975 -0.9303827195444094 0.3393139340805904
1.6608984375 -0.9301397461585794 0.33999306614669617
1.662046875 -0.9300781359273093 0.3403090101406732
1.6631953125 -0.9304591759592814 0.34012414763814636
1.66434375 -0.9300254772510979 0.3404162994810684
1.6654921875 -0.9297584402604254 0.34083019515279256
1.666640625 -0.9294909754277875 0.3409035367648101
1.6677890625 -0.929389166564307 0.3412861276826528
1.6689375 -0.9293330194803048 0.3412128155488948
1.6700859375 -0.9290407784083841 0.34164567663073664
1.671234375 -0.9289832952870541 0.34189826356652936
1.6723828125 -0.9285437842948737 0.34242513600042757
1.67353125 -0.9284565680913505 0.34267865562266425
1.6746796875 -0.9286117303451904 0.3431709135665874
1.675828125 -0.9286205874170979 0.34333676978991146
1.6769765625 -0.9281290296395317 0.34378842351029065
1.678125 -0.9282426758503253 0.3437352460573216
1.6792734375 -0.9281259586543583 0.34445999379968767
1.680421875 -0.9284312574005054 0.34464652865291884
1.6815703125 -0.9279664183682634 0.344490593433805
1.68271875 -0.9278075379342394 0.34516930000796275
1.6838671875 -0.9278526388550906 0.34502497803741694
1.685015625 -0.9280407027477571 0.345092656839903
1.6861640625 -0.928199713046081 0.3453641679629062
1.6873125 -0.9277474266715633 0.34504104937117
1.6884609375 -0.92854906030653 0.3458171108896151
1.689609375 -0.9287154994667901 0.3463921190170285
1.6907578125 -0.9281669982880374 0.34658849787084856
1.69190625 -0.9286303294337812 0.34689932095963105
1.6930546875 -0.9287791834350393 0.3466964183322476
1.694203125 -0.9288218608773452 0.34710979739354136
1.6953515625 -0.9278032483892857 0.34674098648578966
1.6965 -0.9282604163219657 0.3470401138875512
1.6976484375 -0.9285346185493822 0.347154613689521
1.698796875 -0.929063936045772 0.34702243450222814
1.6999453125 -0.9285636716713511 0.34757543506248917
1.70109375 -0.9282855338616084 0.3470589630471805
1.7022421875 -0.9284177509126161 0.3469824216786171
1.703390625 -0.9276346417198665 0.346350958967063
1.7045390625 -0.928756973610619 0.3480723677978529
1.7056875 -0.927921132305501 0.34834954607616603
1.7068359375 -0.928054622448043 0.3488170288019941
1.707984375 -0.9278412710921163 0.34753182690469786
1.7091328125 -0.9294720429050333 0.34834419763651836
1.71028125 -0.9280911069290068 0.3485373584024931
1.7114296875 -0.9285359902400805 0.34855524746575495
1.712578125 -0.9276380882396943 0.34731676659023164
1.7137265625 -0.9276606613509104 0.34869300885818044
1.714875 -0.927813179837901 0.34872774828542985
1.7160234375 -0.9277214992180982 0.3481721804842256
1.717171875 -0.9276722212293895 0.34891516534301836
1.7183203125 -0.9268681057413378 0.3499611115443209
1.71946875 -0.9268291301003568 0.34928272840649865
1.7206171875 -0.9266337392320075 0.3490806995591831
1.721765625 -0.926327377816925 0.34958287509440134
1.7229140625 -0.9268213806220355 0.3489023052500541
1.7240625 -0.9264977128535088 0.3496388603167727
1.7252109375 -0.9263380195075815 0.3494950726148295
1.726359375 -0.9262227996876353 0.3500575801116783
1.7275078125 -0.9257119788163071 0.35046629080559233
1.72865625 -0.9258939703487215 0.3506711462991094
1.7298046875 -0.9257421129657418 0.35045927281392686
1.730953125 -0.9254167503360907 0.3506316029445934
1.7321015625 -0.9256465808529829 0.35090825157364125
1.73325 -0.9255841762996375 0.35102324738295965
1.7343984375 -0.9256847038075072 0.35102330510075497
1.735546875 -0.9257714125305613 0.3511659144265833
1.7366953125 -0.9255031685046534 0.35123950209191995
1.73784375 -0.925150915286448 0.3516415226492675
1.7389921875 -0.9251803386812416 0.35159187896385535
1.740140625 -0.9249538132171132 0.3518049441118321
1.7412890625 -0.9248703180307265 0.3521597196007865
1.7424375 -0.9247083243983615 0.3527455325808009
1.7435859375 -0.9244118879395086 0.35280405641134527
1.744734375 -0.9243565764953585 0.3529894260917013
1.7458828125 -0.9239942781430039 0.35318508711804775
1.74703125 -0.9240994627787827 0.35329383544330945
1.7481796875 -0.9239639535095858 0.3536897854386841
1.749328125 -0.9239159342373839 0.35392109303207775
1.7504765625 -0.9237073431122269 0.3540638182551511
1.751625 -0.9235614599780222 0.3543458424031596
1.7527734375 -0.923584487412654 0.3543311802869459
1.753921875 -0.9235969109749651 0.3549636312317227
1.7550703125 -0.9233506910458203 0.3551402250062939
1.75621875 -0.9232531684844028 0.35481701739914895
1.7573671875 -0.922831002128017 0.3556322362640309
1.758515625 -0.9231094819577409 0.3550813565369656
1.7596640625 -0.9229336579750683 0.3560398652249047
1.7608125 -0.9231345295246682 0.3560568439186995
1.7619609375 -0.9231436041788456 0.35616258612889856
1.763109375 -0.9226107690419524 0.3560099131101434
1.7642578125 -0.9230978341095202 0.3565735058788369
1.76540625 -0.922777582218357 0.35666186060017513
1.7665546875 -0.9228175959962343 0.3575164916096041
1.767703125 -0.9232504955250853 0.35761896246273234
1.7688515625 -0.9226367263577384 0.3576617781522156
1.77 -0.9228124382219021 0.3577814504414174
1.7711484375 -0.9231711806236311 0.35818271179230726
1.772296875 -0.9233052901172929 0.3580370592951455
1.7734453125 -0.9229200207694037 0.3575744444254863
1.77459375 -0.9221583103629251 0.35788290155500624
1.7757421875 -0.9221644308291561 0.358345853348529
1.776890625 -0.9225595665866564 0.3580697226091975
1.7780390625 -0.9218464547986978 0.35782944252126764
1.7791875 -0.9222603477513326 0.3586254876708221
1.7803359375 -0.9226580041995748 0.35905194667807
1.781484375 -0.9221719287036676 0.3583779141956687
1.7826328125 -0.9221407636239021 0.35907557108902044
1.78378125 -0.9218928531598894 0.35880591653649574
1.7849296875 -0.9217736157842503 0.35960211611893567
1.786078125 -0.9224081622642141 0.35928897077573096
1.7872265625 -0.9216359042352712 0.3592878644237368
1.788375 -0.9217551233010328 0.3594306193699801
1.7895234375 -0.9215042931534405 0.35939577154065105
1.790671875 -0.9217331396942766 0.3597038139482465
1.7918203125 -0.9218527212765065 0.3598390439430132
1.79296875 -0.9218138210415578 0.3601713766223492
1.7941171875 -0.9214631920890137 0.35999643672078685
1.795265625 -0.9217445395075159 0.36056920335243176
1.7964140625 -0.9216620118854058 0.3609274101343077
1.7975625 -0.921444865559797 0.3611035308082867
1.7987109375 -0.9212541635325924 0.3611821638222402
1.799859375 -0.9213115429074796 0.36142657257924693
1.8010078125 -0.9213248781239198 0.3619801412835705
1.80215625 -0.9212155884765861 0.3618006314891626
1.8033046875 -0.9210213253858623 0.3622147975691604
1.804453125 -0.9210368966348351 0.36227331085095993
1.8056015625 -0.9210104068103044 0.3624496336482616
1.80675 -0.9207642332274049 0.3627962242092164
1.8078984375 -0.9204784733315771 0.36302717272492824
1.809046875 -0.9204023560406537 0.3634154569767516
1.8101953125 -0.9201131931905956 0.3634965714038628
1.81134375 -0.9199765021092192 0.3641170705098573
1.8124921875 -0.9197787228023852 0.36437040912235086
1.813640625 -0.9195817634108447 0.3646024809005949
1.8147890625 -0.9196977011951638 0.36473331435386813
1.8159375 -0.9194938360539303 0.3648910724104876
1.8170859375 -0.9194781301596349 0.3650835835598988
1.818234375 -0.9195283096176765 0.365201893224792
1.8193828125 -0.9193043803994261 0.36521712281023216
1.82053125 -0.9190870732472108 0.36542442153394283
1.8216796875 -0.9190245618747527 0.3657032511167989
1.822828125 -0.9192017167958922 0.3657670283186739
1.8239765625 -0.9187010916130924 0.3665853008211392
1.825125 -0.9185293928688685 0.3664714724314835
1.8262734375 -0.9186867116376143 0.36646290737248316
1.827421875 -0.9184944584319588 0.36666839099841203
1.8285703125 -0.9182670784839024 0.36691356146261705
1.82971875 -0.9187254153490857 0.3668715204671822
1.8308671875 -0.9182122980910556 0.36676148668919917
1.832015625 -0.9178324899415434 0.36713315726467144
1.8331640625 -0.9173176009541704 0.36730492634782197
1.8343125 -0.9174275983395856 0.36740886112074383
1.8354609375 -0.9176090829432016 0.36709207895578083
1.836609375 -0.917447905285058 0.36739627625472837
1.8377578125 -0.9176660093177702 0.36823137081022195
1.83890625 -0.9174367302286799 0.36791020186267676
1.8400546875 -0.917118696910469 0.36854344704113956
1.841203125 -0.9171257105185684 0.3681727726303496
1.8423515625 -0.9169532382252423 0.36880659926188747
1.8435 -0.9179762639323601 0.36920200337512155
1.8446484375 -0.9168298248912845 0.36905568954674794
1.845796875 -0.916590280700508 0.3694607656577016
1.8469453125 -0.9162545768796191 0.36856535942419766
1.84809375 -0.9167499598779525 0.3696515516306339
1.8492421875 -0.916989170419855 0.36916425088963956
1.850390625 -0.9167873930054884 0.36944169192970683
1.8515390625 -0.9157907825453764 0.3691519981300795
1.8526875 -0.9161194542601387 0.36986519666344553
1.8538359375 -0.9163805388589413 0.36974422716966165
1.854984375 -0.9160670435978375 0.3699940863939296
1.8561328125 -0.9161627026116665 0.37060600723451864
1.85728125 -0.9160364480238131 0.37025221945400144
1.8584296875 -0.9161055147319924 0.3702144404442718
1.859578125 -0.9157597694236868 0.3704205979138943
1.8607265625 -0.9160381185882761 0.3707488307776533
1.861875 -0.9160193882096511 0.3709755291423068
1.8630234375 -0.916024409304552 0.37158530260465544
1.864171875 -0.9159627893049236 0.3716925654500837
1.8653203125 -0.9156960199475853 0.37179352737647725
1.86646875 -0.9157140930853087 0.3717956693834984
1.8676171875 -0.9159113366975246 0.37183243894656653
1.868765625 -0.9156560655600084 0.37220163760878633
1.8699140625 -0.9154853901336772 0.3723434650981974
1.8710625 -0.9155247232220267 0.3725854199774395
1.8722109375 -0.9153377360887671 0.37263733166161606
1.873359375 -0.9153742319649989 0.3728749190997735
1.8745078125 -0.9154199214484637 0.37297393214389857
1.87565625 -0.9153518298443075 0.37335795501627705
1.8768046875 -0.9150768192260657 0.37361395413731857
1.877953125 -0.9149781234739989 0.3736387329119287
1.8791015625 -0.9149752871066135 0.373683630394839
1.88025 -0.9147110004572809 0.37405101441987587
1.8813984375 -0.9146203315009442 0.37410445220463606
1.882546875 -0.914804161694375 0.3745064293670429
1.8836953125 -0.914380083752194 0.3743317588221679
1.88484375 -0.9140911104607309 0.37448403504538696
1.8859921875 -0.9140317951497143 0.3747677927341729
1.887140625 -0.9140238728135623 0.3748543204227146
1.8882890625 -0.9142110494311527 0.37508477994159367
1.8894375 -0.9139355250988708 0.37467976546778536
1.8905859375 -0.9142371212249846 0.37527538886373457
1.891734375 -0.914353542378314 0.37530716815569
1.8928828125 -0.9139935205839602 0.3757026576312934
1.89403125 -0.914121806631704 0.37599158989747994
1.8951796875 -0.914496770365778 0.37563699006666396
1.896328125 -0.9148881253126989 0.37501713025298494
1.8974765625 -0.9139096225933919 0.3763109307347045
1.898625 -0.913510231969129 0.377065377488266
1.8997734375 -0.9136605819826844 0.37670427176261245
1.900921875 -0.9137600166352305 0.3769954033069626
1.9020703125 -0.91382686398472 0.3763728678090909
1.90321875 -0.9142336216639619 0.3770623744427729
1.9043671875 -0.9133006216065133 0.3770276235166906
1.905515625 -0.9132635228834693 0.3770891355368861
1.9066640625 -0.913147230952665 0.3775655958775291
1.9078125 -0.9134958356498486 0.3785618500294258
1.9089609375 -0.9137593719529544 0.3781858285616463
1.910109375 -0.9131026613649682 0.37820251397630045
1.9112578125 -0.9130875214573374 0.37883703007117786
1.91240625 -0.9130557683234061 0.37826193010108056
1.9135546875 -0.9122084549866233 0.3783351985798703
1.914703125 -0.912415720279183 0.37875167489648603
1.9158515625 -0.9121571773681274 0.37936482737172894
1.917 -0.9122281054380628 0.3794216880365353
1.9181484375 -0.9124648477265619 0.37978909000626215
1.919296875 -0.911587553162402 0.37982800508822007
1.9204453125 -0.9123764945048087 0.3794827396608216
1.92159375 -0.911748035386888 0.3792825415812319
1.9227421875 -0.911996892982014 0.3797660714347886
1.923890625 -0.911409795217112 0.37999745190563516
1.9250390625 -0.9111399375827197 0.3806765714993034
1.9261875 -0.911231521400144 0.38066701301087374
1.9273359375 -0.9118455562119432 0.38097869699458997
1.928484375 -0.9116595784801407 0.38107339913937144
1.9296328125 -0.9111180674561825 0.3812220585647349
1.93078125 -0.910997718611423 0.3814134749357351
1.9319296875 -0.9114146218704557 0.38125573005156005
1.933078125 -0.9112548069510958 0.381565332020702
1.9342265625 -0.910690104794796 0.3821380592268866
1.935375 -0.9112541174221138 0.38233699824838197
1.9365234375 -0.911058890361332 0.3823954684679316
1.937671875 -0.9109546000966134 0.3826019950095423
1.9388203125 -0.9108298444210581 0.38327313079895986
1.93996875 -0.9108059517197933 0.3831079323779192
1.9411171875 -0.9109303544442586 0.3835193247000811
1.942265625 -0.9107969145451468 0.38371259726654555
1.9434140625 -0.9109839378150875 0.3837583181278733
1.9445625 -0.9106570080465028 0.38419820284119205
1.9457109375 -0.9108649886938407 0.3842836569333213
1.946859375 -0.9106803973176786 0.38445627860891507
1.9480078125 -0.9104453970545079 0.38441242660108355
1.94915625 -0.9106285712437645 0.38464731633979554
1.9503046875 -0.9105527481855183 0.3848590919975351
1.951453125 -0.9099890147835008 0.3848656262872129
1.9526015625 -0.9103682435726907 0.38489893000289377
1.95375 -0.9102317324078654 0.38504976372996796
1.9548984375 -0.9099950074906971 0.3852897880977124
1.956046875 -0.9096986023291703 0.3858173155768111
1.9571953125 -0.9101009997381435 0.38567617335275695
1.95834375 -0.9101025673122267 0.385754170479092
1.9594921875 -0.9096386384712473 0.3858028373103205
1.960640625 -0.9096791376613416 0.3860130999441515
1.9617890625 -0.9101014364052149 0.38654961474023275
1.9629375 -0.909671784351667 0.38633935704137123
1.9640859375 -0.9091817952176476 0.38666060747297404
1.965234375 -0.9093350520258372 0.3868315328571268
1.9663828125 -0.9093464570540399 0.3870605558705833
1.96753125 -0.9093181131723679 0.3874232216249346
1.9686796875 -0.9089991904034072 0.38755183099538737
1.969828125 -0.9097684136098894 0.38762130306785425
1.9709765625 -0.9088651433619623 0.3871714232549093
1.972125 -0.9086688712708357 0.38765039667511425
1.9732734375 -0.9095971013902368 0.38756964048788856
1.974421875 -0.9088998276255469 0.3875902369397762
1.9755703125 -0.9082598808085159 0.38726342589186885
1.97671875 -0.9081669664278627 0.3887498981815515
1.9778671875 -0.9075438400398252 0.3883857387991357
1.979015625 -0.9076325945619907 0.38834647270724193
1.9801640625 -0.9079488109085531 0.38879205080906776
1.9813125 -0.9076970319807767 0.388580026250849
1.9824609375 -0.9073789548164037 0.38917329218669683
1.983609375 -0.9071987656749789 0.3896097378851265
1.9847578125 -0.9074735320679344 0.3898361959156506
1.98590625 -0.9072939085463496 0.3898247333973686
1.9870546875 -0.9068884234065011 0.38947479653492
1.988203125 -0.9067494514110406 0.390213938898101
1.9893515625 -0.9067427267614306 0.3905304947343782
1.9905 -0.9067649177993529 0.3900501923024666
1.9916484375 -0.9070512812697848 0.3908541408440439
1.992796875 -0.9068475937579189 0.39137403595626946
1.9939453125 -0.9065885196914087 0.3911771475990165
1.99509375 -0.9073013755000308 0.3919572112048869
1.9962421875 -0.9065807098023322 0.3916699601629294
1.997390625 -0.9061125148725444 0.39145174072359146
1.9985390625 -0.9063846558789418 0.3914271029003298
1.9996875 -0.905973949501981 0.3919303883269444
2.0008359375 -0.9062045150572415 0.3920751547446456
2.001984375 -0.9057213536904529 0.3922892944993528
2.0031328125 -0.905916772074828 0.3924150230207294
2.00428125 -0.9060385176319745 0.3927056796830347
2.0054296875 -0.9054254147242708 0.3934928240128956
2.006578125 -0.9059065898913997 0.39327066365806246
2.0077265625 -0.9056435031560541 0.39357731394149853
2.008875 -0.9055197470048104 0.3930670457705117
2.0100234375 -0.9059841997288895 0.3935234098841339
2.011171875 -0.9057314485211825 0.3937525044843407
2.0123203125 -0.905689747129703 0.39375667981921736
2.01346875 -0.9048901076398773 0.3945893551936503
2.0146171875 -0.9058295997937819 0.3945634546150507
2.015765625 -0.905182790426598 0.3945468024363148
2.0169140625 -0.9056747492953278 0.3944083739180341
2.0180625 -0.9055761065017485 0.39462840137002364
2.0192109375 -0.9051387331231238 0.39444733720677755
2.020359375 -0.9049976956745664 0.39462090930709026
2.0215078125 -0.9054275312346967 0.39516955944064264
2.02265625 -0.9050337913337643 0.395130818045688
2.0238046875 -0.9049791674725249 0.39494935415170485
2.024953125 -0.9047658853547014 0.39533087127329103
2.0261015625 -0.9047287511997164 0.3957497195816777
2.02725 -0.9048449349489271 0.3962182491685298
2.0283984375 -0.9048999490367042 0.3956978184799678
2.029546875 -0.9048858353382574 0.39601988169747404
2.0306953125 -0.904674927172481 0.39657785375842536
2.03184375 -0.9043943628068205 0.39611408250859725
2.0329921875 -0.9047033134174496 0.39596383621349746
2.034140625 -0.9040944661548069 0.3968484887083309
2.0352890625 -0.9034191663595783 0.3960922553763277
2.0364375 -0.9037800826684721 0.39637909804543786
2.0375859375 -0.9034549629849122 0.3972113325322142
2.038734375 -0.9027814248055468 0.39706257076508855
2.0398828125 -0.9034018609485609 0.39703957245069443
2.04103125 -0.9026232552733173 0.39688753628006745
2.0421796875 -0.9031152366424449 0.3973254691433431
2.043328125 -0.9022322642704137 0.3974539512418643
2.0444765625 -0.9023631884664147 0.3976506420748718
2.045625 -0.9022746737511645 0.397601604578576
2.0467734375 -0.9024534791555316 0.39809564646395346
2.047921875 -0.9024623056744071 0.3981522469308749
2.0490703125 -0.9024793176475064 0.3979016030637581
2.05021875 -0.9016227436955794 0.39810609024616944
2.0513671875 -0.9015574533460344 0.39831985812616916
2.052515625 -0.9018316569789598 0.39855446891650903
2.0536640625 -0.9015041363180356 0.39852026471811824
2.0548125 -0.9015620624094802 0.39929327825427063
2.0559609375 -0.9011223644812476 0.399769549075455
2.057109375 -0.9007889206671014 0.40000627090679375
2.0582578125 -0.9005415075319703 0.39989772846222815
2.05940625 -0.900873869076716 0.40000726489614996
2.0605546875 -0.9007968713122142 0.39983168454231527
2.061703125 -0.9004163238282703 0.4010372052427631
2.0628515625 -0.9009613115871872 0.40124319576626316
2.064 -0.9004125017369659 0.4013891994406418
2.0651484375 -0.90043682282338 0.40133150125882094
2.066296875 -0.9003191396553951 0.40162674190999914
2.0674453125 -0.9002356258974877 0.4018904397377782
2.06859375 -0.9001038124843904 0.4016252674811132
2.0697421875 -0.900278967927171 0.40222162929115346
2.070890625 -0.9003005430525782 0.402404813688741
2.0720390625 -0.9001706575375299 0.4029138547251155
2.0731875 -0.8999997402657011 0.4032868302380292
2.0743359375 -0.9000601470724217 0.40351428102669706
2.075484375 -0.9001708181054819 0.4031016309887473
2.0766328125 -0.9000994875731554 0.40389585075498274
2.07778125 -0.9005271790688688 0.40406698157379334
2.0789296875 -0.900351001149635 0.40467186068864947
2.080078125 -0.9003684658913353 0.404535815114874
2.0812265625 -0.900869416955731 0.4046583074423392
2.082375 -0.900529071625494 0.404780714599679
2.0835234375 -0.90050159813559 0.4056576361019309
2.084671875 -0.8999171454115107 0.40564747943019774
2.0858203125 -0.9005103741729684 0.4060406414929533
2.08696875 -0.9003743152210807 0.40569520893883526
2.0881171875 -0.8998409476872987 0.4060024022641526
2.089265625 -0.9001517647343046 0.40593884872385744
2.0904140625 -0.9006942610471915 0.4063639552872698
2.0915625 -0.9004239740286255 0.40680347803160466
2.0927109375 -0.9003256667812332 0.40675721011676436
2.093859375 -0.9001071746270395 0.4067945127338987
2.0950078125 -0.9001570506026882 0.4066924125710395
2.09615625 -0.9007081107015785 0.406553679372917
2.0973046875 -0.9012465514020321 0.4075259304164671
2.098453125 -0.9013814066588707 0.40734742426039994
2.0996015625 -0.9005621153150801 0.4070224344790405
2.10075 -0.900533227612122 0.40809103235346755
2.1018984375 -0.900646969019939 0.40696417697379417
2.103046875 -0.9004018255685013 0.40777368797766567
2.1041953125 -0.9012112804308501 0.40750739440728717
2.10534375 -0.9002617971194948 0.407236583846363
2.1064921875 -0.9004270193868433 0.4071358688730621
2.107640625 -0.9003455074775372 0.4074124592878089
2.1087890625 -0.9002295653640054 0.4075729440031539
2.1099375 -0.9000017237792983 0.40790225271130703
2.1110859375 -0.8998727111902811 0.4074376395792162
2.112234375 -0.9000611295605965 0.40794876512457556
2.1133828125 -0.9000394394476745 0.4078561603528532
2.11453125 -0.8994132702411743 0.4084336706701872
2.1156796875 -0.8994834664361586 0.4082912936261017
2.116828125 -0.8991077141745405 0.4077080245251248
2.1179765625 -0.8985720567376312 0.40816739102418964
2.119125 -0.8977201502673399 0.40830603714782043
2.1202734375 -0.897317262935254 0.40798676499919506
2.121421875 -0.8972410417226059 0.40838450930323095
2.1225703125 -0.8971404022082986 0.4088778265069849
2.12371875 -0.8970168132963705 0.4090085316275017
2.1248671875 -0.8970714411627217 0.40926561735339606
2.126015625 -0.8965522483139508 0.4090630314105341
2.1271640625 -0.8966779403427185 0.4102607883558972
2.1283125 -0.8966898999103564 0.41003872198252667
2.1294609375 -0.8965034041215301 0.41046278212873766
2.130609375 -0.8959103409054472 0.41059470670494747
2.1317578125 -0.895566399601978 0.4100900761661753
2.13290625 -0.8953742997587936 0.41096226768561017
2.1340546875 -0.8958851457287171 0.4108957223745239
2.135203125 -0.8960672597979495 0.4109728155585508
2.1363515625 -0.8957631327515004 0.4121532099541596
2.1375 -0.8954861331345318 0.411460270998699
2.1386484375 -0.8953100682118744 0.41291624529781823
2.139796875 -0.895709117367068 0.41252518143978756
2.1409453125 -0.8953881741681007 0.4126321804411913
2.14209375 -0.8954072313021912 0.4128553166863658
2.1432421875 -0.8956025040707141 0.41319321055346725
2.144390625 -0.8950620625106684 0.41324994654849034
2.1455390625 -0.8951358467546198 0.4140161216674571
2.1466875 -0.8948882581662677 0.4145106054477554
2.1478359375 -0.8950380687427643 0.41465302063258713
2.148984375 -0.8950524431956246 0.4150964721411031
2.1501328125 -0.8956078735108297 0.4160201116512731
2.15128125 -0.894641659526877 0.4164393980499064
2.1524296875 -0.893915636826776 0.4168979384398511
2.153578125 -0.8943052530598226 0.4177733893110716
2.1547265625 -0.8943991261616482 0.41709252860292284
2.155875 -0.8939794665586966 0.4173679250533895
2.1570234375 -0.8948174589663015 0.4182839498367364
2.158171875 -0.8945997278091349 0.41827538601504033
2.1593203125 -0.8946280247226137 0.41860126610999715
2.16046875 -0.894221086496251 0.4189283102194803
2.1616171875 -0.8946879997805421 0.4195129770892694
2.162765625 -0.8940422355137008 0.41940500719647894
2.1639140625 -0.8952916533548388 0.4202207370681543
2.1650625 -0.8954991947674411 0.41996883389763107
2.1662109375 -0.8953425273035723 0.420405701471084
2.167359375 -0.8951074393973848 0.42071827396469785
2.1685078125 -0.8948334944375703 0.420298716817
2.16965625 -0.8959582700776527 0.41924390750894036
2.1708046875 -0.8956896815860249 0.4195879222861883
2.171953125 -0.8960348034694796 0.41991035829808443
2.1731015625 -0.8960835985585702 0.41957218176417227
2.17425 -0.895067792268911 0.4190868264656089
2.1753984375 -0.8950328146366171 0.41863669814163
2.176546875 -0.8950713941724345 0.4195434072011048
2.1776953125 -0.8953029486078956 0.4196955140279507
2.17884375 -0.8952250754493278 0.4192207694857318
2.1799921875 -0.8954168299924277 0.4202062701937102
2.181140625 -0.8952033191424468 0.42031780825849385
2.1822890625 -0.8949727657614744 0.4198413243209726
2.1834375 -0.8945590702236598 0.41990606520083573
2.1845859375 -0.8946146271481601 0.41951511322114043
2.185734375 -0.8942029655595655 0.4197766621261474
2.1868828125 -0.8942702610646927 0.41959381633617715
2.18803125 -0.893929740693393 0.42015206358851986
2.1891796875 -0.8939521384914724 0.41978273834228397
2.190328125 -0.8934871536757947 0.4199720207705515
2.1914765625 -0.8933369067146225 0.4202573445987692
2.192625 -0.8925022069780699 0.41950498125749236
2.1937734375 -0.8918509107531941 0.4201944786955089
2.194921875 -0.8919276128161224 0.4202995142633113
2.1960703125 -0.8917282532315557 0.41995069524886014
2.19721875 -0.8911763276398492 0.42012353855890994
2.1983671875 -0.891337298508051 0.42004177178635294
2.199515625 -0.8912707603071002 0.4206975147816445
2.2006640625 -0.8907836093120189 0.4209683662556318
2.2018125 -0.8903398308401018 0.42135367823009495
2.2029609375 -0.8903206466915936 0.42100752631774463
2.204109375 -0.8900007840759419 0.4213999739773716
2.2052578125 -0.8903714895145954 0.4214450371521771
2.20640625 -0.8900722678516019 0.421982834367269
2.2075546875 -0.8902847013957798 0.42182929939393754
2.208703125 -0.8894027788120928 0.42280563569603014
2.2098515625 -0.8888939402448508 0.42263302079183795
2.211 -0.8895065139395045 0.42201201333316696
2.2121484375 -0.8893012010033149 0.42224582673130334
2.213296875 -0.8894711512749144 0.42285011872065315
2.2144453125 -0.8882729148197976 0.42249369732728204
2.21559375 -0.889108355469232 0.4230222566786094
2.2167421875 -0.8885810300928826 0.42598783211163693
2.217890625 -0.8881018196228279 0.4250858179010004
2.2190390625 -0.8888360347819653 0.4257044518511477
2.2201875 -0.8884040461184363 0.42603129773128146
2.2213359375 -0.8875354355462968 0.4264008324349787
2.222484375 -0.8874432825262863 0.42658889873876643
2.2236328125 -0.8886434117236499 0.42674607028152356
2.22478125 -0.8878784076505453 0.4268897347491424
2.2259296875 -0.8871349309463398 0.42714469851423076
2.227078125 -0.8866763546785432 0.4273879867868986
2.2282265625 -0.8871619132642687 0.4282908288866313
2.229375 -0.887660032099534 0.42949962710461853
2.2305234375 -0.8881075571478041 0.42929534991472296
2.231671875 -0.8884844901326885 0.4300143828502742
2.2328203125 -0.8879838787169645 0.429506584071028
2.23396875 -0.8882753417079143 0.43045964151305594
2.2351171875 -0.888163613018262 0.4299212894946751
2.236265625 -0.8888127717057328 0.4306526954785529
2.2374140625 -0.8889646465403037 0.4312740234134508
2.2385625 -0.8887180307454254 0.4311143689923831
2.2397109375 -0.8895819415869355 0.4318788572525216
2.240859375 -0.8900225013624179 0.4305896348175048
2.2420078125 -0.8898607976533374 0.4305182869913332
2.24315625 -0.8903667776545109 0.430401885640423
2.2443046875 -0.8907423374933089 0.43098842910491847
2.245453125 -0.8901006141418026 0.43152647066088373
2.2466015625 -0.8909719431570787 0.4309443900880317
2.24775 -0.8906230142491864 0.4314254376261917
2.2488984375 -0.8909741059608138 0.4306123442033204
2.250046875 -0.8909007678614568 0.43079567097524396
2.2511953125 -0.8903624534410643 0.43156645527134996
2.25234375 -0.8888164334622759 0.43186111188390114
2.2534921875 -0.8891559123774037 0.43148676049361134
2.254640625 -0.8898490163664513 0.43092407683873457
2.2557890625 -0.8894302096266071 0.4309203419941283
2.2569375 -0.8887171421205071 0.4316570259389084
2.2580859375 -0.8887050721135095 0.43189585662043084
2.259234375 -0.8887945392857732 0.4317111070337858
2.2603828125 -0.8889077835361148 0.43142830193640525
2.26153125 -0.8889127071220915 0.431053442354566
2.2626796875 -0.8887469842512388 0.43111496416940487
2.263828125 -0.8881773547095438 0.43164064925757095
2.2649765625 -0.8875867630925554 0.4321693326336585
2.266125 -0.8879433589120824 0.43173934507960654
2.2672734375 -0.8874086223633831 0.43188761166661765
2.268421875 -0.8876435231674312 0.4319320663300747
2.2695703125 -0.8867565433595122 0.43168650691406113
2.27071875 -0.886662474789785 0.432392857884127
2.2718671875 -0.886110487468603 0.4321464520319744
2.273015625 -0.8864338867769554 0.4322236366184298
2.2741640625 -0.886115583261652 0.4324572985252003
2.2753125 -0.8855233017917075 0.4328100864487204
2.2764609375 -0.8849432017111168 0.4323815649242239
2.277609375 -0.8849888867459339 0.432981270102124
2.2787578125 -0.8856993710755318 0.43291656696743686
2.27990625 -0.8841602934041233 0.433593191892058
2.2810546875 -0.8845679400904692 0.4340645865461902
2.282203125 -0.8845650165151248 0.43471281210318496
2.2833515625 -0.8842503419318892 0.4345238996409857
2.2845 -0.884366350531473 0.4346013435314645
2.2856484375 -0.8847161648122424 0.4357332097240049
2.286796875 -0.8847092888416725 0.4356131647209198
2.2879453125 -0.8838776427339186 0.435675286692882
2.28909375 -0.884830841300997 0.4360943294130738
2.2902421875 -0.8831335643600855 0.4360703084549737
2.291390625 -0.8830353569671548 0.43661616459689534
2.2925390625 -0.8826359723740465 0.43821163164960686
2.2936875 -0.8823258972615325 0.43866870560738763
2.2948359375 -0.8822139132553548 0.4388727066722158
2.295984375 -0.8822495751347341 0.4387749281626725
2.2971328125 -0.881765426214464 0.4404954926396077
2.29828125 -0.8820167516210446 0.4408017292717886
2.2994296875 -0.8819356247268871 0.44189599833829096
2.300578125 -0.882311291491181 0.440852751161271
2.3017265625 -0.8820514216220354 0.44192591299382455
2.302875 -0.8818189961586731 0.4414380666646155
2.3040234375 -0.8815550037407895 0.44192163096476694
2.305171875 -0.8822482531125122 0.4418086131852455
2.3063203125 -0.8815380850867328 0.4422822359579053
2.30746875 -0.8820059814167388 0.4426487314999074
2.3086171875 -0.8820067754584289 0.44290528913368044
2.309765625 -0.8819804816578465 0.44293958076998374
2.3109140625 -0.8811563539130776 0.4436909055606842
2.3120625 -0.8816176416467503 0.44396994831213715
2.3132109375 -0.8819419035233399 0.4437964007785603
2.314359375 -0.8822064326986215 0.4442096749479826
2.3155078125 -0.8827934365017868 0.4450833992895499
2.31665625 -0.8822925202313882 0.44532739691298395
2.3178046875 -0.8826851467047259 0.44483463674019097
2.318953125 -0.8828541415058366 0.44499338438902686
2.3201015625 -0.88268503050982 0.44536983547126935
2.32125 -0.88273134581516 0.44585344495826906
2.3223984375 -0.8829829027205249 0.44562006177993974
2.323546875 -0.8832531478193213 0.4457386342457887
2.3246953125 -0.8830599185025669 0.44557991763481697
2.32584375 -0.8829856924212458 0.4457239006297428
2.3269921875 -0.8833808849170597 0.446094398510146
2.328140625 -0.8829534708462251 0.44610700825912375
2.3292890625 -0.8824001679628402 0.44641472958369033
2.3304375 -0.8823785690128343 0.445833317153021
2.3315859375 -0.8830789652765658 0.44554929210533945
2.332734375 -0.8826903597740022 0.44519045458634576
2.3338828125 -0.8824877716798859 0.44537921075740716
2.33503125 -0.8825555374851134 0.4460559491888096
2.3361796875 -0.8817378738065279 0.4459470709438295
2.337328125 -0.8821831912187901 0.44569824768691824
2.3384765625 -0.8820323053380229 0.4462804837998106
2.339625 -0.8814307102450853 0.44632690415798376
2.3407734375 -0.880239760051237 0.4464215566263556
2.341921875 -0.8817137348655858 0.4466198804556946
2.3430703125 -0.8822190485042083 0.44580706306373435
2.34421875 -0.882136253601516 0.4459266301806639
2.3453671875 -0.8817622524491919 0.4469027657664245
2.346515625 -0.8816924162624957 0.44728446880650774
2.3476640625 -0.8815425729137156 0.44656611417766745
2.3488125 -0.8810175370488849 0.4468328333940619
2.3499609375 -0.8804391277586643 0.44637149264272036
2.351109375 -0.880021310398444 0.4476547427091771
2.3522578125 -0.8795414585778154 0.4471758450140172
2.35340625 -0.8785134658050031 0.44723106560594356
2.3545546875 -0.8800146335671758 0.4472846469296086
2.355703125 -0.8784658483588179 0.44913981196432445
2.3568515625 -0.8779947720500669 0.44683512991400015
2.358 -0.8777630934855237 0.44875646590690743
2.3591484375 -0.8765797304273557 0.4488848618456863
2.360296875 -0.8774044316258411 0.44967126565730864
2.3614453125 -0.8769155721090818 0.4486525220360395
2.36259375 -0.8782182184541607 0.4494907213548155
2.3637421875 -0.8777065890525527 0.4501855145143075
2.364890625 -0.8773578431030342 0.45101759465511104
2.3660390625 -0.8767464634735704 0.45106069631035656
2.3671875 -0.8766420896074827 0.4502291507607542
2.3683359375 -0.8762508198910551 0.4517799104470019
2.369484375 -0.8769438703780115 0.4521118577341116
2.3706328125 -0.8761200032390772 0.45137285364129076
2.37178125 -0.8762092160313918 0.45198407311827327
2.3729296875 -0.87663126901569 0.4531190327658756
2.374078125 -0.8757093885949736 0.4528514543304172
2.3752265625 -0.8764152094270892 0.45381666187117925
2.376375 -0.8757895884237592 0.45345108132241907
2.3775234375 -0.8749310288968457 0.4540460875453226
2.378671875 -0.8754717858864103 0.4543856355996605
2.3798203125 -0.8750324770851369 0.45404247282333093
2.38096875 -0.8756113920615822 0.4543184914032854
2.3821171875 -0.8751946202372042 0.4554842809913003
2.383265625 -0.8758721357079008 0.4556203517607093
2.3844140625 -0.8752997311595563 0.4555953170930271
2.3855625 -0.8754849285661818 0.45550831007176446
2.3867109375 -0.8761708277677789 0.4557584339165632
2.387859375 -0.876512501402783 0.4562456216187512
2.3890078125 -0.8755791995300013 0.4567426920573804
2.39015625 -0.8762480809707796 0.4567251705617804
2.3913046875 -0.8763785118465701 0.4565281157549019
2.392453125 -0.8763874259557239 0.45739466175649324
2.3936015625 -0.8764236158895036 0.45661913216342426
2.39475 -0.8758680892962651 0.4569458212121811
2.3958984375 -0.8764424339982209 0.45723726551691013
2.397046875 -0.8758232837942572 0.4572705053463163
2.3981953125 -0.8759772729036466 0.4570751020624086
2.39934375 -0.8766842555574457 0.45711955172746477
2.4004921875 -0.8759047565092221 0.4572137990316416
2.401640625 -0.8758884763478814 0.4577947091865125
2.4027890625 -0.8755196251284608 0.4580079335166545
2.4039375 -0.8760376394037945 0.45779524488144746
2.4050859375 -0.8756236733518664 0.45830126899304136
2.406234375 -0.8763330462573324 0.45891621132260435
2.4073828125 -0.8758820854883063 0.45840035882528163
2.40853125 -0.8758967796105862 0.4576472119543961
2.4096796875 -0.8768636903667922 0.458547842179327
2.410828125 -0.876814324742344 0.45825905679742973
2.4119765625 -0.8753255451377873 0.4580176830468141
2.413125 -0.8762032707976541 0.45768856931886864
2.4142734375 -0.875404628518897 0.4589534620121922
2.415421875 -0.8728048793912885 0.45824711795088047
2.4165703125 -0.874740538568447 0.4578776847004821
2.41771875 -0.8754708664612101 0.4581586563451339
2.4188671875 -0.8744775727240791 0.458037515320187
2.420015625 -0.8736982632249545 0.45883168717563094
2.4211640625 -0.8747322063605281 0.4609614424483016
2.4223125 -0.8748534625742005 0.4589256337138072
2.4234609375 -0.8733846271757707 0.4587900127155722
2.424609375 -0.8747496820452046 0.46077489464443433
2.4257578125 -0.8740675750471626 0.46112689779311444
2.42690625 -0.8741863342302831 0.46072320477664064
2.4280546875 -0.8729635288571803 0.4619791156444436
2.429203125 -0.872583506836534 0.4613577224710985
2.4303515625 -0.8727562581852075 0.461902509987205
2.4315 -0.8723760766887858 0.46256344913026715
2.4326484375 -0.8724575476023253 0.46154443548096813
2.433796875 -0.871969534082408 0.46206294311394036
2.4349453125 -0.8718484249103469 0.46224997457362627
2.43609375 -0.8709424200769851 0.4635586087946504
2.4372421875 -0.872821038400452 0.46433622523276563
2.438390625 -0.8712269741392036 0.46357968287203655
2.4395390625 -0.8716289632623772 0.46324282497725366
2.4406875 -0.870866696268238 0.4643733188051262
2.4418359375 -0.8704197625254945 0.4652030696118489
2.442984375 -0.8700492362757609 0.46536812331023863
2.4441328125 -0.8700522631565534 0.46472485650374284
2.44528125 -0.8699279915329011 0.46558678937228476
2.4464296875 -0.8695422590997234 0.4652039810786596
2.447578125 -0.869358703137899 0.4657681426168087
2.4487265625 -0.868659071598304 0.4661885410135851
2.449875 -0.8694070446231195 0.46623242914337404
2.4510234375 -0.8695222623634274 0.4667553770060243
2.452171875 -0.869093104950818 0.4662516091071409
2.4533203125 -0.868815972388166 0.4668671422597493
2.45446875 -0.8691655840889704 0.4677506178454329
2.4556171875 -0.8690116793494704 0.4674227400094423
2.456765625 -0.8689023457223696 0.4671998829070924
2.4579140625 -0.8689200740097578 0.46787469815013427
2.4590625 -0.868600772608614 0.4684028808972139
2.4602109375 -0.8691476663976974 0.4683971404531844
2.461359375 -0.8688526040734692 0.4682333714146175
2.4625078125 -0.8697011634274223 0.46892594362665396
2.46365625 -0.8689871919174563 0.46930835110287655
2.4648046875 -0.8688463257400166 0.4695330641480787
2.465953125 -0.8687130770489604 0.46976144487705884
2.4671015625 -0.8686158980307175 0.470141797333546
2.46825 -0.8685471979626198 0.4701379698858243
2.4693984375 -0.8687158415468341 0.4705151353448575
2.470546875 -0.8684606032983454 0.4708056538257416
2.4716953125 -0.8683026612958872 0.4711015325719834
2.47284375 -0.8687677175742011 0.4713535332391815
2.4739921875 -0.8685252853610687 0.4715506976836976
2.475140625 -0.8676681093950223 0.4720345402148052
2.4762890625 -0.8679070707702212 0.47139167620224537
2.4774375 -0.8687076942097985 0.47189515837897106
2.4785859375 -0.8683552104958617 0.4714612121878547
2.479734375 -0.8684065439749449 0.4720616650081765
2.4808828125 -0.8693798460825899 0.47250644979857326
2.48203125 -0.8680086243620371 0.47233360634958277
2.4831796875 -0.8685928902112906 0.473011670571974
2.484328125 -0.8686990827918664 0.4725019516939988
2.4854765625 -0.8693896436026977 0.472376219523725
2.486625 -0.8677052278286077 0.4728087114123516
2.4877734375 -0.8685979893145493 0.4728126696559717
2.488921875 -0.8678181039412057 0.4733801346326787
2.4900703125 -0.8686052296666855 0.4736796304970212
2.49121875 -0.86799427285754 0.4735933159851969
2.4923671875 -0.8684787025127539 0.47445021835546297
2.493515625 -0.8682841812839943 0.4745199114261598
2.4946640625 -0.8680714274046792 0.47351287575148127
2.4958125 -0.8676291379916765 0.4754019689649868
2.4969609375 -0.8676628934015412 0.4751886823464155
2.498109375 -0.86698612739844 0.4750461565187596
2.4992578125 -0.8680161422752394 0.47579471869479834
2.50040625 -0.8669133595426709 0.47525027444699064
2.5015546875 -0.8672473735923824 0.47558625541476834
2.502703125 -0.8664252848930944 0.4761622401409692
2.5038515625 -0.8666595115369212 0.47603444902063163
2.505 -0.8661634377971811 0.47657457322461627
2.5061484375 -0.8656943732064789 0.47717806760857595
2.507296875 -0.8658024987650939 0.4777650784596833
2.5084453125 -0.8664684918595009 0.4768781098806377
2.50959375 -0.8658360256838211 0.47747654639161985
2.5107421875 -0.8650025827211552 0.47758267967515966
2.511890625 -0.8654961348754975 0.4780822718530681
2.5130390625 -0.8648142234355031 0.4785214591989741
2.5141875 -0.8644396012254165 0.4784136358071186
2.5153359375 -0.8645521098660984 0.47927073533004183
2.516484375 -0.8645865858153305 0.4797375925761106
2.5176328125 -0.8645314943836587 0.48013564756878246
2.51878125 -0.8645967382660799 0.48055122875657025
2.5199296875 -0.863884122360528 0.48121871758830936
2.521078125 -0.8634612874532039 0.48149132864886407
2.5222265625 -0.8637382010828264 0.4818755291045085
2.523375 -0.862997271068054 0.4821719881257695
2.5245234375 -0.8625183373121348 0.48232006250397585
2.525671875 -0.8628408424048551 0.4827965314335432
2.5268203125 -0.863212086857299 0.48349708264392355
2.52796875 -0.8621281248091455 0.48312261947816837
2.5291171875 -0.8618100535810739 0.48310119918044736
2.530265625 -0.8624769169256183 0.48359062850646284
2.5314140625 -0.8618249355987947 0.4839086218009673
2.5325625 -0.8605680704566099 0.4832905997670415
2.5337109375 -0.8620870539707224 0.48414015967681034
2.534859375 -0.8616596939006786 0.4839886621598768
2.5360078125 -0.861892251014172 0.4842380828079306
2.53715625 -0.8614004227341203 0.48464811288145326
2.5383046875 -0.8620394182955989 0.48521318780562933
2.539453125 -0.8616381524789396 0.48554594730249095
2.5406015625 -0.8616558863900606 0.48557558704094506
2.54175 -0.861371896096707 0.48653628754631884
2.5428984375 -0.86017131062028 0.48552125780301847
2.544046875 -0.8602594275175663 0.48557212442945075
2.5451953125 -0.8609753567527169 0.4865252600638251
2.54634375 -0.8607689264998368 0.4867496790780638
2.5474921875 -0.8595338639984874 0.4870953621062728
2.548640625 -0.8609438802918116 0.4877680532999676
2.5497890625 -0.8610101065608362 0.487025351322828
2.5509375 -0.8598514942518427 0.48783222266951465
2.5520859375 -0.8606912719878763 0.4866807746434699
2.553234375 -0.8593647760286678 0.48810376768299757
2.5543828125 -0.8594370084023472 0.4875787196546632
2.55553125 -0.8579691990365694 0.48876410920295565
2.5566796875 -0.8587579463165298 0.4882210001905
2.557828125 -0.8589776729918918 0.48830787634891776
2.5589765625 -0.8587554075018241 0.4878932188299341
2.560125 -0.8593184433708736 0.488188051019526
2.5612734375 -0.8585614239728079 0.48742616859079635
2.562421875 -0.8583466884675248 0.4889009771328028
2.5635703125 -0.8577517787296778 0.4892429671216513
2.56471875 -0.8582852198840203 0.489385422972651
2.5658671875 -0.8576640662414614 0.4886528533931209
2.567015625 -0.8579889914812947 0.48941764918607367
2.5681640625 -0.8586138281790663 0.490430062367182
2.5693125 -0.8579333956286453 0.48990132576478823
2.5704609375 -0.8571916595964798 0.48976798966345614
2.571609375 -0.8571030996895973 0.49052004367929947
2.5727578125 -0.8566689815320454 0.48998446933202
2.57390625 -0.8565075302474338 0.4901263872358883
2.5750546875 -0.8568966624921249 0.4907764493068756
2.576203125 -0.856767715832894 0.4909251950910296
2.5773515625 -0.8564586729300088 0.4911441556752327
2.5785 -0.8561825815411357 0.49178441766658565
2.5796484375 -0.8560099642321792 0.49190510231180756
2.580796875 -0.8557441011337538 0.4914581513653076
2.5819453125 -0.8559884631906515 0.4919746059272622
2.58309375 -0.8564381106402335 0.4920643265465243
2.5842421875 -0.8556532001034063 0.4918585026422476
2.585390625 -0.8552340541763896 0.4917955681078864
2.5865390625 -0.8553769767599504 0.49244255999513503
2.5876875 -0.855102564838094 0.49266580258837556
2.5888359375 -0.8549661463449495 0.4925478294595407
2.589984375 -0.8543682798989579 0.49308103120973634
2.5911328125 -0.8548796829277906 0.4937587465151422
2.59228125 -0.8538571419222908 0.4935310161710047
2.5934296875 -0.8551755681150474 0.49361241815337525
2.594578125 -0.8545309703753449 0.49350472693882197
2.5957265625 -0.8542642273507229 0.4940179869620167
2.596875 -0.8546592277404649 0.49405677899241274
2.5980234375 -0.8543930854008351 0.4947800751159187
2.599171875 -0.8539567969687776 0.4947386387250809
2.6003203125 -0.853123013312744 0.4949719992374457
2.60146875 -0.8535916143951411 0.49489013899412315
2.6026171875 -0.8530149293321821 0.49527865424928674
2.603765625 -0.8537775724472338 0.4957351565089075
2.6049140625 -0.853737450867934 0.49646178116159945
2.6060625 -0.8531126079000412 0.495430415837522
2.6072109375 -0.8529586782171867 0.4959815115473
2.608359375 -0.8537497192048236 0.4956041657676459
2.6095078125 -0.8528702748021523 0.496669831416984
2.61065625 -0.8525239445532197 0.4967009151684212
2.6118046875 -0.8520213864887709 0.4966374176033089
2.612953125 -0.8518432110093175 0.4974908393210564
2.6141015625 -0.8521120603538379 0.49781794997326073
2.61525 -0.853576593766805 0.49672970793892013
2.6163984375 -0.8530369777192205 0.4975114239402261
2.617546875 -0.8527252356383122 0.49834809670530733
2.6186953125 -0.8527721457675518 0.4981090211516582
2.61984375 -0.8527851731797835 0.49863296195322815
2.6209921875 -0.8524005682294635 0.4985435208254213
2.622140625 -0.8533860484090481 0.49840042961406394
2.6232890625 -0.85228496355551 0.4984542176235227
2.6244375 -0.8525843857671003 0.5002141283180492
2.6255859375 -0.8508446785042677 0.501110006544596
2.626734375 -0.8507235979816253 0.5007960309055122
2.6278828125 -0.8504226138995513 0.500619992311951
2.62903125 -0.8508661755927132 0.5013099993405141
2.6301796875 -0.8496885836576671 0.5004461217369229
2.631328125 -0.8501601645407388 0.5005966543702574
2.6324765625 -0.8502474614892881 0.5022100489093524
2.633625 -0.849800462800438 0.5008347329868945
2.6347734375 -0.850967495632662 0.5012029537067604
2.635921875 -0.8504911007436716 0.5004700169342754
2.6370703125 -0.8492368176933767 0.5013058288692409
2.63821875 -0.8499972499021289 0.5016837215619249
2.6393671875 -0.8495512222581041 0.5018323193979072
2.640515625 -0.8495528215370116 0.501239392380389
2.6416640625 -0.8488510371085497 0.5015033204779702
2.6428125 -0.8492807972083173 0.5018840609853938
2.6439609375 -0.8489995103074319 0.502384055905582
2.645109375 -0.8491649436338661 0.5027144396914345
2.6462578125 -0.8492357323032277 0.50287820065939
2.64740625 -0.8492088921120802 0.5027401342084685
2.6485546875 -0.848162029501905 0.5026763637399148
2.649703125 -0.8483278879940178 0.5034620888619845
2.6508515625 -0.8484333716046617 0.5035800597269087
2.652 -0.8484118742702871 0.504035110643873
2.6531484375 -0.8482335940160366 0.5043340098868393
2.654296875 -0.8485334217009346 0.5042590739988146
2.6554453125 -0.8482284746057925 0.5045295559595968
2.65659375 -0.848029033072879 0.5048713608238246
2.6577421875 -0.8481374395331917 0.5051006222156718
2.658890625 -0.8477287669315308 0.5050200257089522
2.6600390625 -0.8476785890737359 0.5053439173417086
2.6611875 -0.8477230582494777 0.5056909413656263
2.6623359375 -0.8476307777976969 0.505919888840783
2.663484375 -0.8474375067928633 0.5063256877337553
2.6646328125 -0.8469368625727639 0.5063367118035976
2.66578125 -0.8474223355724321 0.5069459105305236
2.6669296875 -0.847486646202473 0.5067488376764876
2.668078125 -0.846727666561099 0.5071156526433162
2.6692265625 -0.8471284038346526 0.5074418426041057
2.670375 -0.8472102414908295 0.5075374542713468
2.6715234375 -0.8466195033713324 0.5077969396628863
2.672671875 -0.8467855119716401 0.5084792893254466
2.6738203125 -0.8465740423857508 0.5091143336518842
2.67496875 -0.8474980055620532 0.5085413620849536
2.6761171875 -0.8462639443856083 0.5088958866320838
2.677265625 -0.8464056258545399 0.5105545915298324
2.6784140625 -0.8465764406843738 0.5113364034445399
2.6795625 -0.8459602350810075 0.5103250140819415
2.6807109375 -0.8457777356925338 0.5101736537338365
2.681859375 -0.84481722571869 0.5109653895349987
2.6830078125 -0.8451919893961617 0.5122414503134314
2.68415625 -0.8445194946839727 0.5114164786113451
2.6853046875 -0.8444521683050565 0.5113932752909662
2.686453125 -0.8438412674061804 0.5117301666551946
2.6876015625 -0.8431871224301141 0.51220559423301
2.68875 -0.8451436759388753 0.5136303151903887
2.6898984375 -0.8440504386066313 0.5125968595370656
2.691046875 -0.843844685201498 0.5127923125966444
2.6921953125 -0.8437545556563386 0.5136033094544514
2.69334375 -0.8439959201808176 0.5133720912416977
2.6944921875 -0.8439981800014839 0.5136195066004603
2.695640625 -0.8429301860716982 0.5147124865703436
2.6967890625 -0.8433712317031252 0.5159520875763337
2.6979375 -0.843660572714139 0.5149486960076634
2.6990859375 -0.843286954527364 0.5147229862216302
2.700234375 -0.8425064641088837 0.5153042316015451
2.7013828125 -0.841501668394791 0.5160475546189902
2.70253125 -0.8431760388751326 0.5158322660573788
2.7036796875 -0.8416610984719107 0.5161004483652136
2.704828125 -0.8411674573317871 0.5161134739765912
2.7059765625 -0.8414818623052318 0.5168218911301429
2.707125 -0.8421405639660831 0.5163599458747706
2.7082734375 -0.8417590350725451 0.516007482059341
2.709421875 -0.8408320749915362 0.5162288692076394
2.7105703125 -0.840771297028533 0.5173071600670944
2.71171875 -0.8409467025981184 0.5173324978562898
2.7128671875 -0.8410936996793453 0.5172280236333302
2.714015625 -0.8413040990959645 0.5177862984721844
2.7151640625 -0.8411268100531774 0.5182272337801146
2.7163125 -0.84034862156259 0.5185052287729267
2.7174609375 -0.8401231370105356 0.5183013886095837
2.718609375 -0.8404048581391669 0.5185709855625802
2.7197578125 -0.839948856639795 0.5193330784183954
2.72090625 -0.8396923702208323 0.5195621616097348
2.7220546875 -0.8402392019476986 0.5197097427621908
2.723203125 -0.8394059235508438 0.5202162482771177
2.7243515625 -0.8391641014756955 0.5199769186397987
2.7255 -0.8395727361737436 0.5201072471793442
2.7266484375 -0.8394851895304413 0.5202298120046693
2.727796875 -0.8391096317317239 0.5201595397868217
2.7289453125 -0.8390753426031374 0.5205542401293531
2.73009375 -0.8388233736744203 0.5208015325018892
2.7312421875 -0.8388753240845195 0.5210634166866652
2.732390625 -0.8387199685392781 0.5217104145943495
2.7335390625 -0.8380755861401825 0.5217675346566937
2.7346875 -0.83775208034101 0.5220933564195361
2.7358359375 -0.8382972991325046 0.5222000937588445
2.736984375 -0.8382714089695005 0.5229587734004748
2.7381328125 -0.8373431606834506 0.5226563199166571
2.73928125 -0.8378099152433098 0.5230851807006673
2.7404296875 -0.837174425802336 0.5236097044251551
2.741578125 -0.837090629088917 0.5228946228577221
2.7427265625 -0.836399141591655 0.5241603871727173
2.743875 -0.8371180017331628 0.5237689176109855
2.7450234375 -0.8375153226317125 0.5242608143184614
2.746171875 -0.836639859425905 0.5252373959460883
2.7473203125 -0.8361798269587923 0.5243479207565994
2.74846875 -0.835373883047417 0.5252390572447342
2.7496171875 -0.836117540336363 0.5253971272836409
2.750765625 -0.8374450487760671 0.524401211142391
2.7519140625 -0.8361518276721646 0.5262712400594004
2.7530625 -0.8356555724141763 0.5254566377930939
2.7542109375 -0.8350136915185926 0.5270368875249157
2.755359375 -0.8360944103418033 0.5267825161338546
2.7565078125 -0.8367339090398827 0.5270809817107416
2.75765625 -0.8359488924909678 0.5274807397173072
2.7588046875 -0.8341545430456448 0.5269569558796324
2.759953125 -0.8340342142591289 0.5266168038621425
2.7611015625 -0.8340355903917718 0.5267374489794235
2.76225 -0.8341014569282224 0.5284284846992953
2.7633984375 -0.8335115094336788 0.5270143575984737
2.764546875 -0.8342049629025571 0.5278101796046539
2.7656953125 -0.8343545231694857 0.5290498783868475
2.76684375 -0.8341933572587146 0.5286012147417556
2.7679921875 -0.8329279711845071 0.5290826318728901
2.769140625 -0.8340004586150908 0.5283048259248144
2.7702890625 -0.8336495621658365 0.5286840713946348
2.7714375 -0.8332713511602583 0.5298462489180201
2.7725859375 -0.8334723807351485 0.5296611240350272
2.773734375 -0.8337670841182443 0.5295635070626947
2.7748828125 -0.8329791850000687 0.5299331448490364
2.77603125 -0.8321806210313425 0.5310273979305731
2.7771796875 -0.8316378733203847 0.530596487150714
2.778328125 -0.8325761721884224 0.5310513838209707
2.7794765625 -0.8327156181205561 0.5304262162781357
2.780625 -0.8317065368251907 0.5311152332688799
2.7817734375 -0.8318062776345396 0.532044986469584
2.782921875 -0.8323196764548342 0.531913411445215
2.7840703125 -0.8314341943007789 0.5314154574319936
2.78521875 -0.8314156802585787 0.532621098516201
2.7863671875 -0.8319108931994752 0.5328353537880068
2.787515625 -0.8312013062000158 0.5331928610113409
2.7886640625 -0.8314926569942445 0.5330656624473018
2.7898125 -0.8317302223449227 0.5329813065903886
2.7909609375 -0.8309768062996388 0.533510979186532
2.792109375 -0.8307420551296325 0.5330740686154805
2.7932578125 -0.8312543228726459 0.5335901416215122
2.79440625 -0.8306220662009002 0.533477761071632
2.7955546875 -0.8307043926093196 0.5337620969403988
2.796703125 -0.8306165469927862 0.5343968875339805
2.7978515625 -0.8307617998120219 0.5342511584460267
2.799 -0.8301861505640399 0.5336620610391438
2.8001484375 -0.8295541381899306 0.5339238927130797
2.801296875 -0.829816693329684 0.5344205160604307
2.8024453125 -0.8294872841552686 0.5342857670358286
2.80359375 -0.8296940504059567 0.5349138856068175
2.8047421875 -0.8289941496110272 0.5350240094724721
2.805890625 -0.8288268724445719 0.5352826788399474
2.8070390625 -0.8294040192487375 0.5357166325941353
2.8081875 -0.8293065121642846 0.5358332344933313
2.8093359375 -0.8294720412855423 0.5355156752237215
2.810484375 -0.8286489728477598 0.5355889862572567
2.8116328125 -0.8282340730156965 0.535998789664702
2.81278125 -0.8279423193088584 0.536010876050723
2.8139296875 -0.8278702413992092 0.5365945608076937
2.815078125 -0.8275839722224942 0.5359649901025653
2.8162265625 -0.8279162503895819 0.5360390801485163
2.817375 -0.82747207600886 0.5373469274256074
2.8185234375 -0.8269618719170345 0.5377581422878738
2.819671875 -0.8271190095703053 0.538083278413268
2.8208203125 -0.8277774584745525 0.5379099385351486
2.82196875 -0.8270354081859712 0.5371229585238172
2.8231171875 -0.8274027270799018 0.5370246520156337
2.824265625 -0.8266008303101882 0.5382278096141164
2.8254140625 -0.8269521775830149 0.53869122587984
2.8265625 -0.8262609488797903 0.5381840214477904
2.8277109375 -0.825944306909253 0.5387002710372693
2.828859375 -0.825317848202444 0.5391687642105798
2.8300078125 -0.8259941663317802 0.5400179984927341
2.83115625 -0.8247469250304807 0.5394620202208711
2.8323046875 -0.8246952267824915 0.540588878039922
2.833453125 -0.8237015862242334 0.5398799598261919
2.8346015625 -0.824924012230804 0.5412175940856786
2.83575 -0.8233653787262839 0.5412090931467237
2.8368984375 -0.8230510258650268 0.5407576150544913
2.838046875 -0.824142345241632 0.5417602533390249
2.8391953125 -0.8250243663113301 0.541801488994413
2.84034375 -0.8241092800781439 0.5420151029435066
2.8414921875 -0.8244894326695946 0.5421265485537498
2.842640625 -0.8233822277734384 0.5429139238219097
2.8437890625 -0.8235576445312449 0.5421721492981068
2.8449375 -0.8235725494504432 0.5424539484988684
2.8460859375 -0.8234980623388273 0.5430028693771833
2.847234375 -0.8228347765977936 0.5438477964479258
2.8483828125 -0.8219620879416336 0.5436513275445811
2.84953125 -0.822424143576468 0.5441460663031806
2.8506796875 -0.822437730303898 0.5439960473773401
2.851828125 -0.8221246164746758 0.544466651903024
2.8529765625 -0.8222333650375734 0.5457618991444049
2.854125 -0.8218287051414812 0.5455974386691206
2.8552734375 -0.8218996816550493 0.5455938831804528
2.856421875 -0.8210473978639725 0.5455121643043582
2.8575703125 -0.8209916720735588 0.5451136362980412
2.85871875 -0.8205557245609147 0.5452334616965564
2.8598671875 -0.8201358597791525 0.5463229289403262
2.861015625 -0.8197672226874091 0.5468068976049654
2.8621640625 -0.8200144619474112 0.5472174266204556
2.8633125 -0.8206275303145463 0.547179128675171
2.8644609375 -0.8217488893395194 0.5466852027418644
2.865609375 -0.8204470686919588 0.5469709769094387
2.8667578125 -0.8192675891375634 0.5470930609396553
2.86790625 -0.8196349150632517 0.5478214065679876
2.8690546875 -0.8202377501262612 0.5480581045719329
2.870203125 -0.8196692480411384 0.5483409606085354
2.8713515625 -0.8198534821975054 0.5488810909932013
2.8725 -0.8211427889588977 0.5484360270556623
2.8736484375 -0.8208925569216178 0.5487120552433952
2.874796875 -0.8197991902816361 0.5502065471104648
2.8759453125 -0.8199336531223969 0.5504388000022999
2.87709375 -0.8183703281036911 0.5489061322606029
2.8782421875 -0.8189218476318497 0.5487550793896037
2.879390625 -0.8189749570703958 0.5494737457704447
2.8805390625 -0.8189517235467861 0.5486034732971047
2.8816875 -0.8184652037855823 0.5489983363673461
2.8828359375 -0.8177769887920152 0.5501366285162965
2.883984375 -0.8189691137513623 0.5496589868832862
2.8851328125 -0.8183984362232288 0.5501861879787262
2.88628125 -0.8167682337175792 0.5504584379892367
2.8874296875 -0.817599490679332 0.5507211916446666
2.888578125 -0.8160044837169653 0.5496367294932986
2.8897265625 -0.8171332562450703 0.5516038133892792
2.890875 -0.8167550830119072 0.5498888845820336
2.8920234375 -0.8161806260224684 0.5505942075590385
2.893171875 -0.8163552194936291 0.551472635690876
2.8943203125 -0.8166976960466404 0.5509481933096525
2.89546875 -0.815943849912022 0.551078585462777
2.8966171875 -0.8150117673330728 0.5511321922401066
2.897765625 -0.815460745208556 0.5519310893035825
2.8989140625 -0.8167183132046192 0.5527966161609654
2.9000625 -0.8155790560446663 0.5533555084344725
2.9012109375 -0.8149502881180793 0.5533097361906845
2.902359375 -0.8167539028468551 0.551809048612534
2.9035078125 -0.8156354098046407 0.551928048585658
2.90465625 -0.815373752270226 0.5526186885262547
2.9058046875 -0.8145963332152262 0.5547637642311807
2.906953125 -0.8137499041552806 0.5554072442152039
2.9081015625 -0.8137023631078311 0.5543412846468423
2.90925 -0.8134985433252926 0.5543476880238962
2.9103984375 -0.8129700785125223 0.554726966354612
2.911546875 -0.8134831895870831 0.5550488357880675
2.9126953125 -0.8139659433388896 0.5564839380728676
2.91384375 -0.8127393309723232 0.5559585083410089
2.9149921875 -0.8126836970013299 0.5566159099242308
2.916140625 -0.8131620123876233 0.5562205109851144
2.9172890625 -0.8130976533767289 0.5569704807372071
2.9184375 -0.8127197611183562 0.5573911361470342
2.9195859375 -0.8127281293085755 0.5572373947338873
2.920734375 -0.8135074376769664 0.5576833565804337
2.9218828125 -0.8125467971194253 0.5581642810599958
2.92303125 -0.812151153912875 0.5579224747439032
2.9241796875 -0.8120391599990537 0.5586408102654472
2.925328125 -0.8124349467906041 0.5592612867200186
2.9264765625 -0.811874893168859 0.5582469789797394
2.927625 -0.8113003242708607 0.5596670902932861
2.9287734375 -0.8115868507787241 0.5596653769748183
2.929921875 -0.8114014908996802 0.560183415131795
2.9310703125 -0.8111078771691961 0.5600771880597324
2.93221875 -0.8113432938372149 0.5610419313322788
2.9333671875 -0.810535394962341 0.5614846420900561
2.934515625 -0.8101896976542972 0.5613845011675231
2.9356640625 -0.8107311829492413 0.5614743768726558
2.9368125 -0.8103060977140503 0.5617249485874874
2.9379609375 -0.8104486972974192 0.5618596507004957
2.939109375 -0.8097978521630085 0.5612340448065704
2.9402578125 -0.8098516818102515 0.5624554409157325
2.94140625 -0.8103420680413053 0.5625720711402922
2.9425546875 -0.8111614329524524 0.5628069315442883
2.943703125 -0.8111225877727029 0.5631044375858361
2.9448515625 -0.8107569555141756 0.5630341047177375
2.946 -0.8103350850785213 0.5633334026167602
2.9471484375 -0.8104955130962797 0.563248026983653
2.948296875 -0.8098993766530329 0.5639146954819023
2.9494453125 -0.8093774965330911 0.5636718248199736
2.95059375 -0.8095844835374382 0.5640062705751784
2.9517421875 -0.8098309587938545 0.5645616311242727
2.952890625 -0.8106991357774751 0.5637229548272988
2.9540390625 -0.8092906617549225 0.5636423420074839
2.9551875 -0.8100007907952754 0.5647025408027017
2.9563359375 -0.809129080567306 0.5637658717486592
2.957484375 -0.8096768235171596 0.5652723013770711
2.9586328125 -0.8094516785404423 0.5638517459430659
2.95978125 -0.809004813004081 0.563964352523742
2.9609296875 -0.8068220028555283 0.5638197503504522
2.962078125 -0.8067893166154242 0.564035010600858
2.9632265625 -0.8078868154852976 0.5650858316976881
2.964375 -0.8067146531136365 0.5647614446632608
2.9655234375 -0.8085327377815691 0.5653984075820593
2.966671875 -0.8083661205867215 0.5637854739757144
2.9678203125 -0.8077358229377909 0.5648805283417444
2.96896875 -0.8075095684120308 0.5648622057964677
2.9701171875 -0.8075080635912043 0.566473836421999
2.971265625 -0.807271108624303 0.5665475194849675
2.9724140625 -0.806817013676364 0.5646637064342841
2.9735625 -0.8060097624767945 0.5659914072497723
2.9747109375 -0.805478180992702 0.566295452210984
2.975859375 -0.8052664896364254 0.5662764851582622
2.9770078125 -0.8050359373769533 0.5659151052392937
2.97815625 -0.8043279409487897 0.5655465727805543
2.9793046875 -0.8040420947897435 0.5658490234700153
2.980453125 -0.8041584183199786 0.5663293083335493
2.9816015625 -0.8038141236942206 0.5666173566294708
2.98275 -0.8037570414845028 0.5662572806328541
2.9838984375 -0.8038400643694663 0.5671559487918778
2.985046875 -0.8037281007305483 0.5683587336276327
2.9861953125 -0.8033796591274563 0.5689167039901732
2.98734375 -0.8030574279690896 0.5690296903120495
2.9884921875 -0.8035985703259241 0.5692680224945871
2.989640625 -0.8029603368002138 0.5688786596286718
2.9907890625 -0.8027374659048057 0.5700835191727155
2.9919375 -0.8024491476636115 0.5706989839159661
2.9930859375 -0.8012010099298204 0.5706088708426367
2.994234375 -0.8021901070024464 0.5709266221786856
2.9953828125 -0.801530152001854 0.5716408937162809
2.99653125 -0.8021883937016921 0.5720645117323223
2.9976796875 -0.8024829054411591 0.5720837926440436
2.998828125 -0.8014017846928932 0.5722505580118311
2.9999765625 -0.801872134240736 0.5718799332481901
3.001125 -0.8013605259808851 0.5728070279430566
3.0022734375 -0.8008245687796052 0.5725654892578843
3.003421875 -0.8004916913826209 0.5743080129417879
3.0045703125 -0.8007608696696845 0.5731602415018342
3.00571875 -0.8002298323516568 0.5741717500257016
3.0068671875 -0.8006337761896425 0.5749705322027563
3.008015625 -0.801169042072461 0.5757222651586739
3.0091640625 -0.8001360211431445 0.5769060355887423
3.0103125 -0.7989855981915155 0.5746519514477944
3.0114609375 -0.7983161684053065 0.5769465523709226
3.012609375 -0.7989211123175465 0.5771987563353648
3.0137578125 -0.7979100639052132 0.5772299552828005
3.01490625 -0.7977562988732074 0.577839109671475
3.0160546875 -0.7987306205819477 0.5788192786248506
3.017203125 -0.7982734496885036 0.5788042556421932
3.0183515625 -0.7985854068936222 0.578918236813345
3.0195 -0.7983320945917121 0.5778798731368426
3.0206484375 -0.7978538352969519 0.5782996958831417
3.021796875 -0.798703264057797 0.5789794641662587
3.0229453125 -0.7994274556713691 0.5797693555429758
3.02409375 -0.7990042516912659 0.5777405626506605
3.0252421875 -0.7992151161530504 0.5789857707911442
3.026390625 -0.79849960539903 0.579432944767324
3.0275390625 -0.798437064040869 0.5786153236476559
3.0286875 -0.7993765050279087 0.5795696949523338
3.0298359375 -0.7991905156364482 0.5790261226887905
3.030984375 -0.7990792060189319 0.5788732380005566
3.0321328125 -0.7987572892470476 0.5779080130954952
3.03328125 -0.7981125563159992 0.5788586290899057
3.0344296875 -0.7989850424690631 0.5788321200864214
3.035578125 -0.7984307766017049 0.5785761536840537
3.0367265625 -0.7974689270723592 0.5776180112294967
3.037875 -0.7971419205348005 0.5793211522827848
3.0390234375 -0.7962817080714895 0.5789188492190372
3.040171875 -0.7972641010262701 0.5788543598903099
3.0413203125 -0.7975565051792953 0.5793936205932574
3.04246875 -0.7964899196878057 0.5804213478554816
3.0436171875 -0.7967403679229926 0.5792446808639307
3.044765625 -0.7961335263259286 0.579897064756994
3.0459140625 -0.7964071120331696 0.5803579648986534
3.0470625 -0.7955371034083907 0.5797898811584621
3.0482109375 -0.7944985783291594 0.5813355758634636
3.049359375 -0.7954601197358602 0.5810796844260673
3.0505078125 -0.7941815316524928 0.5808268499261744
3.05165625 -0.7928848986601585 0.5802086463830469
3.0528046875 -0.7935595435142351 0.5812061661066068
3.053953125 -0.7929052413447883 0.5823235980782575
3.0551015625 -0.7932476108810073 0.5819302690549178
3.05625 -0.7934501207940807 0.582068404205144
3.0573984375 -0.7923180707703793 0.581902326509846
3.058546875 -0.7922476357664949 0.5807618413214528
3.0596953125 -0.7921278662710783 0.5819197287863315
3.06084375 -0.791879749435667 0.5816837672639054
3.0619921875 -0.7909227913868493 0.5815367108239554
3.063140625 -0.7903826140270555 0.58192602615903
3.0642890625 -0.7909901853922436 0.5823175702462818
3.0654375 -0.7904700544423832 0.5831698104303046
3.0665859375 -0.7907875309152919 0.5841800928659093
3.067734375 -0.7897097922575473 0.5840036198366321
3.0688828125 -0.7886416397267317 0.5836599976555603
3.07003125 -0.7895529754741212 0.5838689914127199
3.0711796875 -0.7895897129304783 0.585142988403264
3.072328125 -0.7894431026721758 0.5848624009894879
3.0734765625 -0.7890010154738525 0.5842163936980876
3.074625 -0.7895011137853981 0.5867381797360404
3.0757734375 -0.7894531337919006 0.5860939778200521
3.076921875 -0.7898150032130261 0.5865486754194156
3.0780703125 -0.789171497363006 0.5873050948461797
3.07921875 -0.7894637626255483 0.5874360513101136
3.0803671875 -0.7877750624906188 0.5872637165038529
3.081515625 -0.787886211447201 0.5869688796958417
3.0826640625 -0.7890514518365236 0.5881897199116334
3.0838125 -0.7883892052140328 0.5893776957194552
3.0849609375 -0.7876523214564416 0.5889080798873465
3.086109375 -0.7883948691936237 0.5883680592574234
3.0872578125 -0.7865125087891911 0.5894573132207951
3.08840625 -0.7885685419522537 0.5888666546806787
3.0895546875 -0.7880594054709443 0.589648449416537
3.090703125 -0.7875148033470355 0.5898023997890439
3.0918515625 -0.7864282484876023 0.5908885026159676
3.093 -0.7861547262324963 0.5893374742477228
3.0941484375 -0.7880157691305288 0.5896122697302714
3.095296875 -0.7878403763965425 0.591411856768963
3.0964453125 -0.7867204959157971 0.5913096558291182
3.09759375 -0.7866215418829267 0.5915627468040062
3.0987421875 -0.78732504271221 0.5919617475166312
3.099890625 -0.7877982762603618 0.5910078818118906
3.1010390625 -0.7865225657503911 0.591468036574438
3.1021875 -0.7874085225566962 0.591152252052966
3.1033359375 -0.7856611489946913 0.5893046562418573
3.104484375 -0.7854128464763668 0.5909982886140652
3.1056328125 -0.7859286568390675 0.5904494280800338
3.10678125 -0.7859383796892943 0.5916030843711408
3.1079296875 -0.7865709898614528 0.5914109164517755
3.109078125 -0.7871762329602506 0.5926180235548087
3.1102265625 -0.7859413254390333 0.5927356971082622
3.111375 -0.785359435886007 0.5923384681142562
3.1125234375 -0.786302472575038 0.5928240944289638
3.113671875 -0.7854523392239482 0.5927959798892796
3.1148203125 -0.7843685510214744 0.5921286707332394
3.11596875 -0.7849365974523841 0.5926876050529175
3.1171171875 -0.785116807970185 0.5929544623156552
3.118265625 -0.7839647651096676 0.5924611607382126
3.1194140625 -0.7838140996996669 0.5925223535849338
3.1205625 -0.7832505684964342 0.5930941877899837
3.1217109375 -0.7833845005755462 0.5928087382307272
3.122859375 -0.7835365392485238 0.5929977487236231
3.1240078125 -0.7839970502436739 0.5934717757442834
3.12515625 -0.7839049309946647 0.5927942401645788
3.1263046875 -0.7839478449259061 0.5930309735135892
3.127453125 -0.7828843708512548 0.5931003903968852
3.1286015625 -0.7832100496017993 0.5918556644375268
3.12975 -0.7818810785046306 0.5917533371003363
3.1308984375 -0.7821462019526702 0.5937960893101607
3.132046875 -0.7819943718548195 0.5937845027215748
3.1331953125 -0.7813493045699798 0.5938398715489341
3.13434375 -0.7813566343839172 0.5938064117717797
3.1354921875 -0.7818912835034941 0.594409428950826
3.136640625 -0.7815350984046914 0.5946629530553101
3.1377890625 -0.7805621319493341 0.594401794695522
3.1389375 -0.7816484859428051 0.5950492452283831
3.1400859375 -0.7805167254598365 0.5952213579203521
3.141234375 -0.7811755878915987 0.5957050271303057
3.1423828125 -0.7797509915364099 0.596604291623656
3.14353125 -0.7801672143469603 0.5961458726288297
3.1446796875 -0.7798745056870445 0.5945909997326659
3.145828125 -0.7803050549318998 0.5959908083895264
3.1469765625 -0.7797053646046432 0.5972102788955512
3.148125 -0.7804042404465631 0.5975515149485374
3.1492734375 -0.7798110624731701 0.5974806310456247
3.150421875 -0.7798815491837134 0.5977046193598773
3.1515703125 -0.779557067656507 0.5983702584577395
3.15271875 -0.7793905072007571 0.5987011258615423
3.1538671875 -0.7790811500210754 0.598229897696109
3.155015625 -0.778735605931684 0.5988164714942719
3.1561640625 -0.7782306294462713 0.598960364298053
3.1573125 -0.7796912184192536 0.5996884607170428
3.1584609375 -0.7779432906084127 0.5987934076891948
3.159609375 -0.7788247817204463 0.5985657295442348
3.1607578125 -0.7775661518853925 0.5985757644464091
3.16190625 -0.7772417463348644 0.5994541027257735
3.1630546875 -0.7780305353152084 0.6003016326326569
3.164203125 -0.7769321949136297 0.5998127739545297
3.1653515625 -0.7774466997214373 0.5999609525908315
3.1665 -0.777718172491665 0.6003410777481322
3.1676484375 -0.7771952261024129 0.6007258360580379
3.168796875 -0.7764762106450407 0.6015484308726398
3.1699453125 -0.7765001449316684 0.6019998888137753
3.17109375 -0.7776674737285435 0.6023631382819483
3.1722421875 -0.7768271668578542 0.6019691554671464
3.173390625 -0.7770994544740939 0.6019456559782389
3.1745390625 -0.7767346528744814 0.6029570840909186
3.1756875 -0.7758422280292139 0.6026018627378404
3.1768359375 -0.775731262275544 0.6032082822646747
3.177984375 -0.7751319700920074 0.6041686702948126
3.1791328125 -0.7746985515564035 0.6038295925746449
3.18028125 -0.7758824590565514 0.6039367370230337
3.1814296875 -0.7752736561351631 0.6037608600734116
3.182578125 -0.7753699662683284 0.6040621122696415
3.1837265625 -0.7756818232076677 0.6044143609766995
3.184875 -0.7738158948154255 0.6042072425232362
3.1860234375 -0.7754618684772677 0.6042128798957829
3.187171875 -0.7759108134199708 0.6048384082424565
3.1883203125 -0.7754764802549371 0.6042358881501018
3.18946875 -0.7755334455879614 0.604733665524586
3.1906171875 -0.7743093549338947 0.6038791573360942
3.191765625 -0.7746611050769912 0.6048535625825001
3.1929140625 -0.7735781239382037 0.6048684399507342
3.1940625 -0.7740214740584745 0.6044719225874318
3.1952109375 -0.774423388355272 0.6047104245376229
3.196359375 -0.7728079917722702 0.6044052783392863
3.1975078125 -0.7731133740391576 0.6053908054672505
3.19865625 -0.7729767070092244 0.6050873191804904
3.1998046875 -0.7727685357321549 0.6044252638829961
3.200953125 -0.7734268805569163 0.6045353286579869
3.2021015625 -0.7730888581894289 0.6055976247860748
3.20325 -0.7731387174832061 0.605905047595698
3.2043984375 -0.7723469235902525 0.6058864300613661
3.205546875 -0.7723918171707473 0.6056275754341848
3.2066953125 -0.7723942241225378 0.6058994006024394
3.20784375 -0.7716142729918988 0.6069126557113824
3.2089921875 -0.7706335769900541 0.6064640151289449
3.210140625 -0.7708010142471086 0.6083562671485742
3.2112890625 -0.7711881256488529 0.6073971319969473
3.2124375 -0.7706685362718237 0.6061354343029948
3.2135859375 -0.7706222668946132 0.6074410918595604
3.214734375 -0.7701128890075524 0.608337201914338
3.2158828125 -0.7704330625363772 0.6084417606237998
3.21703125 -0.7695640224866742 0.6085512085179662
3.2181796875 -0.7699656584427107 0.6084620763262979
3.219328125 -0.7703323034654332 0.6088302575231959
3.2204765625 -0.7700154690070156 0.60911400181598
3.221625 -0.7698585408120586 0.6092860104834397
3.2227734375 -0.7691101192614248 0.6089374687415575
3.223921875 -0.7695046826573535 0.6095562532670583
3.2250703125 -0.7699545666138802 0.6100879056435475
3.22621875 -0.7702365435179159 0.6109751231059461
3.2273671875 -0.7696530475509075 0.6096822690248407
3.228515625 -0.7683729835368722 0.6098896969923414
3.2296640625 -0.7698495867906915 0.6096702047671252
3.2308125 -0.7695431089990166 0.6105388847882515
3.2319609375 -0.768966435018497 0.610125306724041
3.233109375 -0.7679212930533246 0.6102686950807494
3.2342578125 -0.7675908915534213 0.6109220424750686
3.23540625 -0.7680418087091382 0.6100382234568922
3.2365546875 -0.7687822789607659 0.6113515121947785
3.237703125 -0.7684455083359155 0.6115475982872984
3.2388515625 -0.7683420886779662 0.6110598815533965
3.24 -0.7674737416838344 0.6119350799247657
3.2411484375 -0.7674144124817978 0.6123134961903411
3.242296875 -0.7667868856663089 0.612567852771708
3.2434453125 -0.7665523141486666 0.6132353099644392
3.24459375 -0.7670765433023328 0.6129365091699785
3.2457421875 -0.7669417965300128 0.6137520420698304
3.246890625 -0.7658719923023293 0.6141877852490061
3.2480390625 -0.766891958328541 0.6146269591422923
3.2491875 -0.765732222303111 0.6152838911411933
3.2503359375 -0.7651298077431203 0.6142088501413479
3.251484375 -0.7651799349793127 0.6153298906543432
3.2526328125 -0.7649056890830757 0.6150385902273008
3.25378125 -0.7643926948094303 0.6148869861247381
3.2549296875 -0.7642525548843512 0.6162592211079411
3.256078125 -0.7652083647713604 0.6163928915073225
3.2572265625 -0.7644815271086202 0.6163625804769207
3.258375 -0.763415533165377 0.6161946794685259
3.2595234375 -0.763886058715289 0.6169732188097781
3.260671875 -0.7639589443902578 0.6168754081512346
3.2618203125 -0.7628716201946035 0.6169746592190228
3.26296875 -0.7631093950735348 0.6178029925547691
3.2641171875 -0.7624378190723199 0.6172177043912359
3.265265625 -0.7625081431284834 0.6166916664276396
3.2664140625 -0.7637674156687024 0.6165833456529934
3.2675625 -0.763121122289651 0.6177304727627448
3.2687109375 -0.7630925626916802 0.6170317804108156
3.269859375 -0.7622944987443682 0.6177409350697405
3.2710078125 -0.7625893824780159 0.6178112691064027
3.27215625 -0.7621491880804714 0.6173868881813195
3.2733046875 -0.7624106284985038 0.6174007574434813
3.274453125 -0.7616506451858219 0.6175523706201365
3.2756015625 -0.76162096699375 0.6191096197273641
3.27675 -0.7623891107045725 0.6197758636272409
3.2778984375 -0.7612143415982838 0.6193158982907171
3.279046875 -0.7607224366005813 0.619192875985478
3.2801953125 -0.7620002087529238 0.6192553630796443
3.28134375 -0.7612172644440274 0.6205868599611323
3.2824921875 -0.7617637300346247 0.620557942715345
3.283640625 -0.7608800993480644 0.6199267377058251
3.2847890625 -0.762057232718953 0.6214659000401659
3.2859375 -0.7619378359866131 0.6214813746332069
3.2870859375 -0.7613180389546568 0.6208703074508856
3.288234375 -0.7612053691624597 0.6206415416074992
3.2893828125 -0.7610482965886393 0.6202010935471061
3.29053125 -0.7615103255072138 0.6207228492510639
3.2916796875 -0.7612155458429234 0.6202923826809996
3.292828125 -0.7601512223742272 0.6214781564253832
3.2939765625 -0.7606781771198512 0.6213650033864657
3.295125 -0.7605631325760258 0.620498536384721
3.2962734375 -0.7612369519524024 0.6207959465201166
3.297421875 -0.7599028580648127 0.6212690473423079
3.2985703125 -0.7596548776839108 0.6217968288126561
3.29971875 -0.7600342106106369 0.6209404592599004
3.3008671875 -0.7595261818159346 0.6208731995116711
3.302015625 -0.7604161581958913 0.620755034643106
3.3031640625 -0.7602933880071475 0.6207527704345492
3.3043125 -0.7593230981940708 0.621618784995882
3.3054609375 -0.7599886855697648 0.6211386877478721
3.306609375 -0.7589779774290594 0.6207173872811914
3.3077578125 -0.7600382015300075 0.621416107630958
3.30890625 -0.7586557776135302 0.6226862815153933
3.3100546875 -0.758714788640937 0.622214659779113
3.311203125 -0.7581058317965824 0.6215253874922189
3.3123515625 -0.7578030205273115 0.622357758285177
3.3135 -0.7581886899158035 0.6225975170404799
3.3146484375 -0.7580556970287277 0.6231452458335455
3.315796875 -0.7580204892165641 0.623713179255678
3.3169453125 -0.7569795637199158 0.6234165941500851
3.31809375 -0.7575190486837197 0.6237931710781139
3.3192421875 -0.7574909738733268 0.624208033292076
3.320390625 -0.757430172481464 0.6244998559121678
3.3215390625 -0.7580959567821656 0.624212940092111
3.3226875 -0.7580928381578647 0.6250420490035866
3.3238359375 -0.7572571784098082 0.6241494668034678
3.324984375 -0.7575865090589178 0.6237258122106152
3.3261328125 -0.756735843604102 0.623494240524691
3.32728125 -0.7566466121374751 0.6236990284948771
3.3284296875 -0.7561974285657527 0.6236733084226648
3.329578125 -0.75599826567614 0.6244268830367682
3.3307265625 -0.7559926834823976 0.6235963472273199
3.331875 -0.756002308424551 0.6238008246622562
3.3330234375 -0.7556743444500919 0.6240042057161644
3.334171875 -0.7553209979262256 0.6248230086985997
3.3353203125 -0.7552151147012234 0.6253406837964283
3.33646875 -0.7554158698121194 0.625817999763375
3.3376171875 -0.7551307703603792 0.626116237906455
3.338765625 -0.7539460997381039 0.6269086194669048
3.3399140625 -0.7554283215505196 0.626378922345971
3.3410625 -0.7546404381530885 0.6271306801476012
3.3422109375 -0.7537089717948319 0.6265986931921921
3.343359375 -0.7537260119423086 0.6270422557949477
3.3445078125 -0.7528460561889369 0.627300772284518
3.34565625 -0.7539353593376712 0.6278606852362588
3.3468046875 -0.7527020609140768 0.6281531815092466
3.347953125 -0.7536533749178873 0.6281723443329622
3.3491015625 -0.7538893350271231 0.6282609551923232
3.35025 -0.7530656719306119 0.6291726406893693
3.3513984375 -0.7535063070999773 0.6291488993126315
3.352546875 -0.7525080765832342 0.6286365315945548
3.3536953125 -0.7531072753363053 0.6299851879388089
3.35484375 -0.7527896839817074 0.6292934292815872
3.3559921875 -0.7525732684851691 0.6299200633929758
3.357140625 -0.7524350290948101 0.6310841062092665
3.3582890625 -0.752111949345943 0.6297587083883452
3.3594375 -0.7523514846856183 0.6294182964354963
3.3605859375 -0.7520670758448672 0.6304637106363556
3.361734375 -0.7523350459816414 0.6299944211928835
3.3628828125 -0.751984878522575 0.630002682176528
3.36403125 -0.7519263512552197 0.630268224337033
3.3651796875 -0.7514223681747113 0.6299851859831352
3.366328125 -0.7509927877561493 0.6306390170818911
3.3674765625 -0.751670776546842 0.6297937033083196
3.368625 -0.7513356110778889 0.6313815916071028
3.3697734375 -0.7506155811183842 0.6300696353587063
3.370921875 -0.7496857318831157 0.6302495130989267
3.3720703125 -0.7506249032103174 0.6317010423034487
3.37321875 -0.7511154955752407 0.6311492712071425
3.3743671875 -0.7505075745341262 0.6306578991428408
3.375515625 -0.7503695235301365 0.6314576664508701
3.3766640625 -0.7496126993271539 0.6317495871211045
3.3778125 -0.7500153192114799 0.6316634874553816
3.3789609375 -0.7502328222426455 0.6316575785562432
3.380109375 -0.7497301069721719 0.6323900806366034
3.3812578125 -0.7496575877761381 0.6315101742845355
3.38240625 -0.7499654942618064 0.6317051460520479
3.3835546875 -0.749172849083617 0.6330931449416418
3.384703125 -0.7499635729480628 0.6324969255212146
3.3858515625 -0.7492710644853489 0.63276205988376
3.387 -0.7496559460290438 0.6336846928892862
3.3881484375 -0.749854924296494 0.632743163109683
3.389296875 -0.7501386602100477 0.6329129046783589
3.3904453125 -0.7493871855200911 0.6329282197047469
3.39159375 -0.7493010111855062 0.6325382535435575
3.3927421875 -0.7496515070117359 0.6320011225507515
3.393890625 -0.7480037873644072 0.6328493507634804
3.3950390625 -0.7493510417315341 0.6321884992112904
3.3961875 -0.7483051435576324 0.6331343806107829
3.3973359375 -0.7483295490736499 0.6334929171678497
3.398484375 -0.748232670757063 0.6339238964518861
3.3996328125 -0.7482614925893202 0.6341783500007359
3.40078125 -0.748954530560635 0.6342509474173488
3.4019296875 -0.7478821556346992 0.6349507839645989
3.403078125 -0.7483858608061325 0.6349627532115452
3.4042265625 -0.7480070666500455 0.6349339001870304
3.405375 -0.7479337674812723 0.6354233746584376
3.4065234375 -0.7466560709914705 0.6349274865126283
3.407671875 -0.7466304382453819 0.6353365840171356
3.4088203125 -0.7467094494128803 0.6354705881168743
3.40996875 -0.7463707355740503 0.6359812716735416
3.4111171875 -0.7460417433818781 0.6358899826034439
3.412265625 -0.7448911925960541 0.6357755180398299
3.4134140625 -0.7454555883883772 0.6360450735309211
3.4145625 -0.7460604268722204 0.6361813915122204
3.4157109375 -0.7460785183704506 0.6367573267405519
3.416859375 -0.7465100068881696 0.6367108433617933
3.4180078125 -0.7470619985165876 0.6371510940479509
3.41915625 -0.7469875882716753 0.6369234331127369
3.4203046875 -0.7462679135347348 0.6378870527798017
3.421453125 -0.7467317431741288 0.6382488019922815
3.4226015625 -0.7464713188671956 0.6384870905005303
3.42375 -0.7470085498404011 0.6386386046442617
3.4248984375 -0.7476844357863976 0.6393033206289662
3.426046875 -0.7469559688416461 0.6386594285569234
3.4271953125 -0.7471606081814152 0.6397498853902859
3.42834375 -0.7464358506871206 0.6400155529024818
3.4294921875 -0.7461495351626806 0.6393516102237886
3.430640625 -0.7460615513514018 0.6399385578731627
3.4317890625 -0.7463923709228195 0.6403445350027716
3.4329375 -0.7470211990135504 0.6399340361828751
3.4340859375 -0.7453143788947384 0.6401103595694979
3.435234375 -0.744459672925086 0.6406666820763665
3.4363828125 -0.7451008158087071 0.6410696372263567
3.43753125 -0.7448218360317005 0.6409281148158559
3.4386796875 -0.745238476331418 0.6420720329875911
3.439828125 -0.7446044990597019 0.6422110843170235
3.4409765625 -0.7445853785860495 0.641712823757639
3.442125 -0.743612900522844 0.6420068748135536
3.4432734375 -0.7448541298728537 0.6412555667915638
3.444421875 -0.7448414459858944 0.6423479707308075
3.4455703125 -0.7442685059315757 0.6419231262737448
3.44671875 -0.7438585645951055 0.6419248766610426
3.4478671875 -0.7432224248523517 0.6430383404849771
3.449015625 -0.7436309342443763 0.6426111131787384
3.4501640625 -0.74312073693695 0.6428088726435939
3.4513125 -0.7430197150062947 0.6438697856237594
3.4524609375 -0.7417689128927024 0.6440925116360487
3.453609375 -0.743164984134168 0.6442321634654067
3.4547578125 -0.7421138643335552 0.6447838068701406
3.45590625 -0.7415562963104085 0.6443140552200395
3.4570546875 -0.7429267940255837 0.6448002759226616
3.458203125 -0.7419735350663447 0.6451999682751909
3.4593515625 -0.7422664932095272 0.6458831188787176
3.4605 -0.7433588227730352 0.6450864217261938
3.4616484375 -0.7417478006921421 0.6446188452325492
3.462796875 -0.7418797250623743 0.6437468722541244
3.4639453125 -0.7424752380401919 0.6452994224115438
3.46509375 -0.741540576395397 0.6448079569803956
3.4662421875 -0.7414284958871913 0.6455290239026098
3.467390625 -0.7410258091798112 0.6458553532071867
3.4685390625 -0.7418892668368378 0.646595553131923
3.4696875 -0.7420356762944031 0.6461091470216842
3.4708359375 -0.7417530038010182 0.647061319314442
3.471984375 -0.7406473845462866 0.6454896917200974
3.4731328125 -0.7402257869908418 0.6452594560839304
3.47428125 -0.7417773206557232 0.6468099046588032
3.4754296875 -0.7412908574501151 0.6463638332376586
3.476578125 -0.7407618711849351 0.6462798412040504
3.4777265625 -0.7407858025902259 0.6477762295400729
3.478875 -0.7399498250292256 0.6460980030498897
3.4800234375 -0.7397659546994443 0.6473591644269523
3.481171875 -0.7397176803207072 0.6469351156152119
3.4823203125 -0.739152260777522 0.646979016557809
3.48346875 -0.7395331740134957 0.64687074779224
3.4846171875 -0.73946270112235 0.6471560640214377
3.485765625 -0.7390150622887792 0.6464873926261596
3.4869140625 -0.7391078375285152 0.6473734831460731
3.4880625 -0.7390933741459452 0.6472595191438562
3.4892109375 -0.7393759062262089 0.6475802387761258
3.490359375 -0.7393825182372255 0.6475567525208844
3.4915078125 -0.7388776784018435 0.6478898006400903
3.49265625 -0.7387809315399262 0.6477823586612209
3.4938046875 -0.7388202939747472 0.6475532312069805
3.494953125 -0.7386817228691203 0.6482115305224656
3.4961015625 -0.7389070857171546 0.6486690814488573
3.49725 -0.7386062366669355 0.648689065629757
3.4983984375 -0.7394148529726857 0.6493087533093019
3.499546875 -0.7397824833031139 0.6489580500204808
3.5006953125 -0.7393002785754331 0.6501291082200662
3.50184375 -0.7384159105363052 0.6498673946816053
3.5029921875 -0.7390994274100888 0.6497468699182721
3.504140625 -0.7394356940046387 0.6504997308287113
3.5052890625 -0.7383719027405423 0.6506391001188097
3.5064375 -0.737901658285442 0.6494259633680771
3.5075859375 -0.7378325912250547 0.6495615716995662
3.508734375 -0.7372033108914228 0.6510657949287829
3.5098828125 -0.7377343280047385 0.6505503315282599
3.51103125 -0.7374876511512248 0.6515572408975281
3.5121796875 -0.7368094286685924 0.6514498504949151
3.513328125 -0.737216045006862 0.6514151202949409
3.5144765625 -0.7368206875434635 0.6518908642952659
3.515625 -0.7363660731892717 0.6515075092966567
3.5167734375 -0.7355085899516994 0.6518118875020681
3.517921875 -0.7358190710426027 0.6517158419657747
3.5190703125 -0.7356277762510148 0.6528175927147734
3.52021875 -0.7356310513543922 0.6524885906401803
3.5213671875 -0.7352774136944358 0.6521878084303888
3.522515625 -0.7354218422969043 0.6525408988194781
3.5236640625 -0.7355839256318208 0.6527804734982395
3.5248125 -0.7337844130871501 0.6528684011234336
3.5259609375 -0.7345494663383697 0.6530835545578488
3.527109375 -0.7350887454192458 0.6542374858378446
3.5282578125 -0.7347147494288349 0.6542327012105603
3.52940625 -0.73490400306153 0.6547513408280766
3.5305546875 -0.7359861665799965 0.6541440566031286
3.531703125 -0.734442920329697 0.6547401567673232
3.5328515625 -0.7339976433589102 0.6534969507861711
3.534 -0.735683244109064 0.6545200508253227
3.5351484375 -0.7354842508987579 0.6551441545590172
3.536296875 -0.7357976738050391 0.6559465116925405
3.5374453125 -0.7344626730312002 0.655242124421649
3.53859375 -0.7339767804510707 0.6554180227056725
3.5397421875 -0.734714532008342 0.6560078235242879
3.540890625 -0.7340455274321096 0.6555455440676906
3.5420390625 -0.7349519461471143 0.6559407849227631
3.5431875 -0.7347048504992452 0.6563918279298404
3.5443359375 -0.7339178236414541 0.6562326407668362
3.545484375 -0.7336355684845611 0.6571610613458064
3.5466328125 -0.7343004365228244 0.6563998442892891
3.54778125 -0.7336217875374008 0.6566678478530944
3.5489296875 -0.7333285785162511 0.6565702245389657
3.550078125 -0.733564050479796 0.656080781044179
3.5512265625 -0.7330903342175857 0.6549576970221341
3.552375 -0.7330485461081693 0.6561311637967371
3.5535234375 -0.7335647637222266 0.6555194475671529
3.554671875 -0.7336999927098697 0.6565649102421133
3.5558203125 -0.7333986921405914 0.656261267495151
3.55696875 -0.7332625291609555 0.6570627062005556
3.5581171875 -0.7328371623897061 0.6565303100312141
3.559265625 -0.7321578729310763 0.6572253401292537
3.5604140625 -0.7317052379256205 0.6579208143717457
3.5615625 -0.7314037995743851 0.6574078867578954
3.5627109375 -0.7309611074586726 0.657944270936475
3.563859375 -0.7317581662650179 0.6584476669779082
3.5650078125 -0.7318071276776897 0.6582109515128683
3.56615625 -0.7318095176280182 0.6575889303487834
3.5673046875 -0.7305812133736171 0.6583773446950505
3.568453125 -0.7306657876343452 0.6594747526910321
3.5696015625 -0.7303937918664976 0.6588538351135989
3.57075 -0.7298774986792247 0.6585732520819851
3.5718984375 -0.7299223778463431 0.6585725286568997
3.573046875 -0.7295726023815061 0.6584314723732995
3.5741953125 -0.729172557553508 0.6588907513215941
3.57534375 -0.730295783583268 0.6600997303314378
3.5764921875 -0.7293799168465089 0.6600549462075379
3.577640625 -0.7298020511106753 0.6596443375151773
3.5787890625 -0.7290641149125565 0.6595462603006516
3.5799375 -0.729034321110829 0.6601240461914072
3.5810859375 -0.7298564014283427 0.6603850045026923
3.582234375 -0.7297444581687558 0.6607226300126416
3.5833828125 -0.7297164578112054 0.661109414558996
3.58453125 -0.72932710961648 0.6614389607338844
3.5856796875 -0.7293070085488293 0.6607868062883077
3.586828125 -0.7290428772886302 0.6620384613132538
3.5879765625 -0.7282782494237472 0.6613955857016084
3.589125 -0.7277198327327611 0.6624231036711267
3.5902734375 -0.7280036946006407 0.6619525889412892
3.591421875 -0.7275472850893655 0.6618544585566494
3.5925703125 -0.7274500060605071 0.663087171603499
3.59371875 -0.7270091231452928 0.663444680659421
3.5948671875 -0.7271867874804102 0.6633025955730045
3.596015625 -0.7266121057788446 0.664079187377585
3.5971640625 -0.7259940167208585 0.6646240147335246
3.5983125 -0.7262430676697684 0.664301722755184
3.5994609375 -0.726021465702539 0.6644859025031346
3.600609375 -0.7264692926957492 0.6639444611964498
3.6017578125 -0.7268152588724905 0.6653886274550576
3.60290625 -0.7262293740790982 0.6649815058899298
3.6040546875 -0.7260895341374871 0.6649367188429225
3.605203125 -0.7264532692877047 0.6652524564979733
3.6063515625 -0.7264299213398759 0.6654539406423174
3.6075 -0.7260605142437266 0.6653900422119097
3.6086484375 -0.726354799295311 0.6653333217333198
3.609796875 -0.7262617258498483 0.6653907711390146
3.6109453125 -0.7261651987843974 0.6649382444977224
3.61209375 -0.7256967065028168 0.665407036228689
3.6132421875 -0.7257123175701397 0.6662159560886336
3.614390625 -0.7259051865472159 0.6651625021007248
3.6155390625 -0.7260112170514463 0.6652075698584776
3.6166875 -0.7265455777814398 0.6665821118598918
3.6178359375 -0.7266252231457722 0.6662196837143219
3.618984375 -0.7257188961768364 0.6662896334663673
3.6201328125 -0.7258462406466086 0.6661526387199618
3.62128125 -0.7255748434886378 0.6661520964933055
3.6224296875 -0.7256996263942703 0.6654720640786678
3.623578125 -0.7255673308816717 0.6657217052866204
3.6247265625 -0.7253446219007957 0.6662711955490181
3.625875 -0.7251952418626214 0.6662594223161955
3.6270234375 -0.724523123361348 0.665923514659234
3.628171875 -0.7257123703734927 0.6668380129704795
3.6293203125 -0.7251700923680476 0.6674922473521105
3.63046875 -0.7246449929131994 0.6672829795442388
3.6316171875 -0.7249325248468641 0.6676389095550352
3.632765625 -0.725048891212702 0.66740332708718
3.6339140625 -0.7247147243930887 0.6676512051982829
3.6350625 -0.7239810713799018 0.667688280301276
3.6362109375 -0.7240384461670217 0.6681012063002345
3.637359375 -0.7235852457685621 0.6678923606866971
3.6385078125 -0.7228384759222322 0.6667652540447123
3.63965625 -0.7238691042682314 0.6681521437959073
3.6408046875 -0.7240597355550763 0.6672611749543598
3.641953125 -0.7240888733379263 0.6679980418657574
3.6431015625 -0.7236457846860488 0.6687606848640104
3.64425 -0.7238764404939645 0.668800676110202
3.6453984375 -0.7236968664169973 0.6687187035964769
3.646546875 -0.7235412658614854 0.6689510318344982
3.6476953125 -0.7226865873965725 0.6686440098445594
3.64884375 -0.7223393116551817 0.668467956649141
3.6499921875 -0.722853140456306 0.6685353477957174
3.651140625 -0.7223135920713208 0.6689469354553977
3.6522890625 -0.7221629400802518 0.6689695400592301
3.6534375 -0.7224354239791286 0.6691051909101624
3.6545859375 -0.7215379663332222 0.6697785963609963
3.655734375 -0.7231385518927402 0.6696109680988388
3.6568828125 -0.7225519580626693 0.6692079364213275
3.65803125 -0.7234771842578628 0.6707399855031302
3.6591796875 -0.7221900594242908 0.6699097683080606
3.660328125 -0.7213614859249686 0.6700123757909193
3.6614765625 -0.7218589461589102 0.6704471212991154
3.662625 -0.721761257376081 0.6697459961985882
3.6637734375 -0.7208996815547117 0.6692071744840395
3.664921875 -0.7210162403425967 0.6706574069993203
3.6660703125 -0.7212964591140487 0.6703212613366951
3.66721875 -0.722322618915729 0.670745350733063
3.6683671875 -0.7211441676393904 0.6701746116017155
3.669515625 -0.7210534341323982 0.6710565659643098
3.6706640625 -0.7209797940215307 0.6711892743471646
3.6718125 -0.721361252230785 0.6719104076860896
3.6729609375 -0.7217894669455389 0.6708318198238514
3.674109375 -0.7215812758253916 0.6721964126965159
3.6752578125 -0.7218132978872288 0.6720325223063697
3.67640625 -0.722348107744707 0.6717624466984374
3.6775546875 -0.7227769628695085 0.6712086193112683
3.678703125 -0.7223528825763326 0.6731687070556831
3.6798515625 -0.722066874229368 0.6727723696273453
3.681 -0.722186252085076 0.6726906027433588
3.6821484375 -0.721948729587497 0.6726487426204241
3.683296875 -0.7228705016114878 0.6729810170347603
3.6844453125 -0.7222674532547347 0.6734228538805513
3.68559375 -0.72231236084038 0.6735592897133572
3.6867421875 -0.7225493948616648 0.6739813753403163
3.687890625 -0.7227515292439874 0.6741127920605536
3.6890390625 -0.7221930178870551 0.6755169606604742
3.6901875 -0.7216875303319129 0.6747263661410157
3.6913359375 -0.7212066926390166 0.6748756360885265
3.692484375 -0.7215737807553688 0.6749122495794275
3.6936328125 -0.7220017887688914 0.674813084911149
3.69478125 -0.7224151366572209 0.6749475323993622
3.6959296875 -0.7221942522317059 0.675551242043047
3.697078125 -0.7217616809237929 0.6752034116715159
3.6982265625 -0.7212124342784656 0.6759873598428803
3.699375 -0.7212004229394384 0.6768015128071156
3.7005234375 -0.7211467048784521 0.676448093434842
3.701671875 -0.72090575502096 0.6765078185557065
3.7028203125 -0.7208545453486841 0.6769813812855654
3.70396875 -0.720661088731278 0.6771667875140838
3.7051171875 -0.7198248978054437 0.677485352103158
3.706265625 -0.7198042390032933 0.6781318066378681
3.7074140625 -0.7194971773393056 0.6787071295444758
3.7085625 -0.718899484740259 0.6787553280410363
3.7097109375 -0.7186404248471028 0.6784869148642971
3.710859375 -0.7188270465685059 0.6788689276777861
3.7120078125 -0.7173620807338711 0.6789570123586706
3.71315625 -0.7176906568136913 0.6789971971571027
3.7143046875 -0.7172924136255648 0.6785823384453962
3.715453125 -0.7179790228063458 0.6790690118260807
3.7166015625 -0.7171367393144109 0.6785308131530429
3.71775 -0.7164329897443611 0.6787423489999398
3.7188984375 -0.7168786176840658 0.6794655442891014
3.720046875 -0.7161998374550427 0.6792668595460586
3.7211953125 -0.716074245597829 0.6800736778412163
3.72234375 -0.7167831107058168 0.6803100343534147
3.7234921875 -0.716411437482418 0.6803067844711865
3.724640625 -0.7170694330514321 0.6807256679710617
3.7257890625 -0.7173248655737492 0.6818922690335534
3.7269375 -0.7177283007043839 0.680572470544209
3.7280859375 -0.7171898023593051 0.6813659710556149
3.729234375 -0.7162756216626717 0.6819303945615747
3.7303828125 -0.7161265283006898 0.6823662018862791
3.73153125 -0.7158305941402411 0.6806314125567535
3.7326796875 -0.7152745224160141 0.6813658881689216
3.733828125 -0.7157461728672878 0.6817771965640087
3.7349765625 -0.7155001975261703 0.6808063117926545
3.736125 -0.715120989387425 0.6816129440429886
3.7372734375 -0.7152280400240679 0.6817156701818513
3.738421875 -0.7148232176594224 0.6821341134355671
3.7395703125 -0.7140258809589258 0.6814472045346666
3.74071875 -0.7138299210525384 0.6822359525363619
3.7418671875 -0.7140887954723703 0.6826848915895661
3.743015625 -0.713969024089064 0.681997774609087
3.7441640625 -0.7150136412940286 0.6826255676466714
3.7453125 -0.7140811284370283 0.6831113358067171
3.7464609375 -0.7148675077675241 0.6825137001517646
3.747609375 -0.7149123917815317 0.6821579333161452
3.7487578125 -0.7152159527302818 0.6839336528718757
3.74990625 -0.7151556633707219 0.6830853934482609
3.7510546875 -0.7148650077744638 0.6835669377313762
3.752203125 -0.715105432236032 0.6841376665340885
3.7533515625 -0.7144587624468408 0.6845553011596157
3.7545 -0.7145378969053846 0.6838981831988196
3.7556484375 -0.714851618998175 0.6842357806967894
3.756796875 -0.7148557648743692 0.6838784588790014
3.7579453125 -0.7145135207138851 0.6843285742783098
3.75909375 -0.7145345646028178 0.6843403846281035
3.7602421875 -0.7142041060892474 0.6841980721896495
3.761390625 -0.7142123638625537 0.6842343071753713
3.7625390625 -0.7142829466948095 0.6843656697584813
3.7636875 -0.714586671603902 0.6843750496914969
3.7648359375 -0.714030482720698 0.6840240794159409
3.765984375 -0.7138701281209877 0.6850912722861642
3.7671328125 -0.7141350758573527 0.6851473689220475
3.76828125 -0.7138871135927756 0.6851680008319827
3.7694296875 -0.7133594145802562 0.6853071819926644
3.770578125 -0.7134381350789047 0.6853232946968159
3.7717265625 -0.7132252488557813 0.6860702270167726
3.772875 -0.7130920756634297 0.6862175599810189
3.7740234375 -0.7134436748731847 0.68595978549381
3.775171875 -0.7137582604291759 0.6866071300429165
3.7763203125 -0.7130632004027155 0.6867912206529336
3.77746875 -0.7128510004007176 0.6868915917450914
3.7786171875 -0.7128333286148807 0.6880652599799977
3.779765625 -0.7126027632324857 0.6878702215192162
3.7809140625 -0.712713479164812 0.6881718550413305
3.7820625 -0.712224050918487 0.6886592759066605
3.7832109375 -0.7136306478088448 0.6883473998161929
3.784359375 -0.7135915984945045 0.6889864378423063
3.7855078125 -0.7129188928946618 0.6910141199784217
3.78665625 -0.7131666155648335 0.6907242283114639
3.7878046875 -0.7119143443943865 0.6906844787130764
3.788953125 -0.7119549364376994 0.6906330079414149
3.7901015625 -0.7108055036251185 0.6912543607202689
3.79125 -0.7113025802639553 0.6910168866474012
3.7923984375 -0.7100891621523281 0.6903201471285592
3.793546875 -0.7103575184434686 0.6928264607806156
3.7946953125 -0.7114422117235919 0.6924863969046292
3.79584375 -0.709705037259751 0.6909403032183588
3.7969921875 -0.7106265271861847 0.6925732363102417
3.798140625 -0.7106718302225656 0.6925310076537896
3.7992890625 -0.7103546121709439 0.6924480070179511
3.8004375 -0.7099613645937295 0.6930702195943304
3.8015859375 -0.7091338052708627 0.6933184614086785
3.802734375 -0.7096651265540328 0.6938836535632007
3.8038828125 -0.7082580320291055 0.6929732651852278
3.80503125 -0.7086206968611308 0.6933326927565225
3.8061796875 -0.7078384446882615 0.6923995248363949
3.807328125 -0.7094641744362737 0.6934909653184717
3.8084765625 -0.709326894392523 0.6937481430176978
3.809625 -0.7078938577311296 0.6934758390459241
3.8107734375 -0.706995287628346 0.6931592158836954
3.811921875 -0.7080860011121421 0.693369732173652
3.8130703125 -0.7086420901029395 0.693058424680655
3.81421875 -0.7079315968018618 0.6927351952694403
3.8153671875 -0.7084628420244727 0.6931282770834246
3.816515625 -0.7071460056068335 0.693927427206441
3.8176640625 -0.7078410009665156 0.6937781014432318
3.8188125 -0.7081795860928078 0.6934005110043392
3.8199609375 -0.7079608523482921 0.6938715409894269
3.821109375 -0.7077065079748258 0.6940991720848113
3.8222578125 -0.7074527490265786 0.6941277718551471
3.82340625 -0.7077150898945691 0.6944203472166843
3.8245546875 -0.7063576740930095 0.6945385815632905
3.825703125 -0.7072364840884533 0.6940830206943552
3.8268515625 -0.7076472086275589 0.6943153338466036
3.828 -0.7063674853835754 0.6942003498768525
3.8291484375 -0.7063572745814571 0.6949425702299576
3.830296875 -0.7069896049969807 0.695333650860946
3.8314453125 -0.7071531156322187 0.6945978985360032
3.83259375 -0.7068075804857819 0.694082987736696
3.8337421875 -0.7071392934507394 0.6942744840039402
3.834890625 -0.707787732796388 0.6948800265363899
3.8360390625 -0.7083306943409098 0.6946163435594601
3.8371875 -0.7077485008668987 0.6948935479032555
3.8383359375 -0.706588004005924 0.6950424129385044
3.839484375 -0.7066389464514227 0.6944332129333752
3.8406328125 -0.7071184450479383 0.6950245959950883
3.84178125 -0.7074135386368171 0.6952149610892684
3.8429296875 -0.7070175123471653 0.6958767680095467
3.844078125 -0.7058566111961428 0.6960074495615111
3.8452265625 -0.7070464753603464 0.6975446584145528
3.846375 -0.7067064783097156 0.6969905977623887
3.8475234375 -0.7057335913759833 0.6975621587530669
3.848671875 -0.7035787111560157 0.6980711291098596
3.8498203125 -0.704260521134007 0.6966771151340918
3.85096875 -0.7033667937618612 0.6979491516625993
3.8521171875 -0.7044658961593424 0.697904804021205
3.853265625 -0.7047600352766134 0.6996103675469665
3.8544140625 -0.7033146186596538 0.6984875987912469
3.8555625 -0.7043173006619388 0.699090031598472
3.8567109375 -0.7038573903952242 0.6991972238067349
3.857859375 -0.7026748255917374 0.6994087711082415
3.8590078125 -0.702777210189163 0.6987100949833605
3.86015625 -0.7032361027392771 0.6990638549816167
3.8613046875 -0.702316619974396 0.7018635228682635
3.862453125 -0.703635233066069 0.7009036572580638
3.8636015625 -0.7032095691217937 0.7019684055425565
3.86475 -0.7025863821561953 0.701440863397658
3.8658984375 -0.7047559106081941 0.7021675067028179
3.867046875 -0.7046821103450219 0.7028213939044055
3.8681953125 -0.7038830913788042 0.7012783527688069
3.86934375 -0.7030180480916363 0.7034410740419075
3.8704921875 -0.7036736388042313 0.702513902645098
3.871640625 -0.7039961387250152 0.7018756360190015
3.8727890625 -0.7027817449384817 0.7025830404225202
3.8739375 -0.7028548542170736 0.700963070130377
3.8750859375 -0.7038837958020254 0.702477516359792
3.876234375 -0.7031456964993177 0.7032663016258016
3.8773828125 -0.7028253026032052 0.7022112037058104
3.87853125 -0.7026186841579867 0.7021189311381533
3.8796796875 -0.7039480570320922 0.7013351297732444
3.880828125 -0.7022177068668372 0.7011746681546858
3.8819765625 -0.7024432130041391 0.7019720831290424
3.883125 -0.702585148708744 0.7030977180256572
3.8842734375 -0.7025503359092786 0.7025670998548421
3.885421875 -0.702005558481691 0.7016582403868858
3.8865703125 -0.7015332461036304 0.7019398656897078
3.88771875 -0.7018556998697401 0.7031655028812377
3.8888671875 -0.7020214667715936 0.703360637195766
3.890015625 -0.7022355738852526 0.7030595135550737
3.8911640625 -0.7022483281475098 0.7028657898497583
3.8923125 -0.7024929443881212 0.7029025567379774
3.8934609375 -0.7020806199016406 0.7024621503068058
3.894609375 -0.7024007238574519 0.7031843629627671
3.8957578125 -0.7028190658677632 0.70299903122855
3.89690625 -0.7024890692598162 0.7024028658915749
3.8980546875 -0.7019647953956956 0.7039598069116889
3.899203125 -0.7019489414734708 0.7041399008269895
3.9003515625 -0.7022065340134879 0.7042138142867467
3.9015 -0.7019465597014267 0.7044278407434796
3.9026484375 -0.7020210611689975 0.7048447484889938
3.903796875 -0.7020270994513388 0.704347133535617
3.9049453125 -0.7017574171831443 0.7040251695464466
3.90609375 -0.7020214889725513 0.7041342284115727
3.9072421875 -0.7020994784888871 0.7044783224207254
3.908390625 -0.7025557581171902 0.7058283311906401
3.9095390625 -0.7028677384137366 0.7045674013299308
3.9106875 -0.7035462934253587 0.7057088670989226
3.9118359375 -0.7025895888968295 0.7053427647562972
3.912984375 -0.7019137231254139 0.7060812537749706
3.9141328125 -0.7015960301273435 0.7058238369304198
3.91528125 -0.6991787733519649 0.7078301453846731
3.9164296875 -0.7009196613630534 0.7076298158882026
3.917578125 -0.6995191450249874 0.7085524846465334
3.9187265625 -0.7000091760546852 0.7084535788929592
3.919875 -0.6986664103950995 0.7088251370477042
3.9210234375 -0.6979583870903798 0.7095361887146613
3.922171875 -0.6980755847589494 0.7095511548190219
3.9233203125 -0.6986195043348754 0.71007518569317
3.92446875 -0.6976474508591872 0.7101986824345042
3.9256171875 -0.6970379132354236 0.7122771760529496
3.926765625 -0.6966117809959091 0.7121888392419985
3.9279140625 -0.6963351375707915 0.7110556414123652
3.9290625 -0.6970522640380146 0.7122273397749691
3.9302109375 -0.696573289809249 0.7124761726073723
3.931359375 -0.6946382894670505 0.712419887640408
3.9325078125 -0.6971997356864883 0.7133955984735643
3.93365625 -0.697302912592169 0.7118617735803263
3.9348046875 -0.6972224311035018 0.7131410905317614
3.935953125 -0.6966119451358463 0.7149695336826971
3.9371015625 -0.6950426372404379 0.7164209642787632
3.93825 -0.694775863025688 0.7148178995426384
3.9393984375 -0.6952396313900757 0.7146205764051021
3.940546875 -0.6951899092210196 0.7150168262945263
3.9416953125 -0.6945252572934496 0.7157450989114543
3.94284375 -0.6950024295589629 0.7162678566149352
3.9439921875 -0.6947954879583048 0.7155558448922438
3.945140625 -0.6938246118272462 0.7162489001877536
3.9462890625 -0.6955946611050333 0.7149326617814571
3.9474375 -0.6956294168418189 0.7159657327028085
3.9485859375 -0.6962814018685528 0.7159209264263008
3.949734375 -0.6950265692229289 0.716392687737608
3.9508828125 -0.6943225874838787 0.7173081352305615
3.95203125 -0.6938373237909107 0.7163632864450493
3.9531796875 -0.6943761313150785 0.717121592933211
3.954328125 -0.6941756685268459 0.7171309271121387
3.9554765625 -0.6933181724200296 0.718058373215721
3.956625 -0.6933922091660438 0.7175427930421725
3.9577734375 -0.6928196671637102 0.7180097422838616
3.958921875 -0.6927260034355107 0.7192043031045456
3.9600703125 -0.693115931868144 0.7185402832215932
3.96121875 -0.6922122450472412 0.7186042684868313
3.9623671875 -0.6925979241448492 0.7186263720473156
3.963515625 -0.6912169187654211 0.7178193829691539
3.9646640625 -0.6916958476225854 0.7189083756828413
3.9658125 -0.692858819520738 0.7183457764725647
3.9669609375 -0.6926815470656393 0.7185962421718243
3.968109375 -0.6921141965699903 0.7188046607621972
3.9692578125 -0.6917010150519958 0.7184681942729418
3.97040625 -0.6925466738423836 0.7182896959008016
3.9715546875 -0.6926997166377704 0.7197535487900274
3.972703125 -0.6930328826394188 0.7197425009113136
3.9738515625 -0.6930312437986937 0.7193099156622151
3.975 -0.6927798610682896 0.7186075123396263
3.9761484375 -0.6920775628441567 0.7181180210813782
3.977296875 -0.6929950355548881 0.7199960338761988
3.9784453125 -0.6923275822268385 0.7196719664204901
3.97959375 -0.6908910641936455 0.7200888309373115
3.9807421875 -0.6905129030465702 0.7198732010386457
3.981890625 -0.6912135329498208 0.72002690862565
3.9830390625 -0.6911044636282035 0.7193370540691237
3.9841875 -0.6899226177578199 0.7216093109623491
3.9853359375 -0.6896288919951749 0.7204182999971305
3.986484375 -0.6884590314402971 0.7206895451431667
3.9876328125 -0.6881805451898941 0.7195707154697106
3.98878125 -0.6882346075412462 0.720181427678372
3.9899296875 -0.6869779922314329 0.7188312204053489
3.991078125 -0.6887274216645429 0.7195532363489984
3.9922265625 -0.688088290315464 0.7207871869766416
3.993375 -0.6866269233502047 0.7214814973127893
3.9945234375 -0.6853314806932321 0.7189179914583037
3.995671875 -0.6866668113806322 0.7203835485731869
3.9968203125 -0.686260593920589 0.7222817991829991
3.99796875 -0.6861222964649023 0.7211856866873042
3.9991171875 -0.6858340970560446 0.7239440252538698
4.000265625 -0.6858160845662439 0.7226820694904916
4.0014140625 -0.6852506060136369 0.7219549826626181
4.0025625 -0.6840840983887431 0.7220887571045889
4.0037109375 -0.6858881305871705 0.7212320411788067
4.004859375 -0.6854999674706657 0.7227299725491148
4.0060078125 -0.6853436170941537 0.7228106258642164
4.00715625 -0.6855331372849359 0.7238425966007075
4.0083046875 -0.6861437474510501 0.7231659217680682
4.009453125 -0.6853257196164863 0.723327945231377
4.0106015625 -0.6857452772313967 0.7244837465780258
4.01175 -0.6852507174365765 0.7235033555769981
4.0128984375 -0.6868602763582846 0.7242625939566801
4.014046875 -0.6841391962643634 0.7235652618438628
4.0151953125 -0.6854055702027069 0.7241818518046923
4.01634375 -0.6848910258052531 0.7234488192012041
4.0174921875 -0.6847208168086593 0.7234476731311619
4.018640625 -0.6837674898084789 0.7230883264231516
4.0197890625 -0.6835902770650621 0.7230161124105914
4.0209375 -0.6837209384185086 0.7238322657076963
4.0220859375 -0.6828091246528003 0.7232548018334511
4.023234375 -0.6832003027043723 0.7233565983884302
4.0243828125 -0.6838241893771292 0.7248015094002237
4.02553125 -0.6827413358247612 0.7257213827832232
4.0266796875 -0.6837001600350032 0.7255201803771778
4.027828125 -0.6822490926765031 0.7252834472296875
4.0289765625 -0.6819649016482353 0.7251173538589594
4.030125 -0.6826354202447363 0.725423591799264
4.0312734375 -0.6825867305423268 0.7256672991293215
4.032421875 -0.6826375789649499 0.7258573551303195
4.0335703125 -0.6833221691118232 0.7253285035319127
4.03471875 -0.6821303257062342 0.7263080746565519
4.0358671875 -0.682582780977437 0.726832452742245
4.037015625 -0.6832639233854281 0.7269053342225849
4.0381640625 -0.683359820575294 0.7270614894497822
4.0393125 -0.6837697270094352 0.7286884363652809
4.0404609375 -0.6824399818973714 0.727985843757012
4.041609375 -0.6832591060096559 0.7271137806322355
4.0427578125 -0.6835593313251029 0.7276567931577944
4.04390625 -0.6827585498460371 0.7274901385087291
4.0450546875 -0.6838071247780158 0.7277153755487147
4.046203125 -0.6832125641991836 0.7259043598175853
4.0473515625 -0.6819010334088293 0.7257905275029339
4.0485 -0.6833942801590974 0.7265888320138041
4.0496484375 -0.6827947103392593 0.727029871059656
4.050796875 -0.6825384019540017 0.7283790231467426
4.0519453125 -0.6831369944529462 0.7272651124560459
4.05309375 -0.6823970127450588 0.7269996961961878
4.0542421875 -0.6817876146722813 0.7286123727194934
4.055390625 -0.6810043966147368 0.7284392958443351
4.0565390625 -0.681308255209153 0.7284555944758481
4.0576875 -0.6802843417712616 0.7282213276264472
4.0588359375 -0.6808634226006562 0.7278770475434038
4.059984375 -0.6806700014964395 0.728455699982252
4.0611328125 -0.6794981920822951 0.7304690584113872
4.06228125 -0.6793601170327921 0.7305608123876735
4.0634296875 -0.6780216069015078 0.7315117044146813
4.064578125 -0.6780265672502199 0.7300062522792568
4.0657265625 -0.6782608434197572 0.7309370228928137
4.066875 -0.6771218500799419 0.730892614915281
4.0680234375 -0.6762647130122692 0.7305373232859275
4.069171875 -0.6770821256040265 0.7321062650608762
4.0703203125 -0.6752442212425276 0.7309675671833966
4.07146875 -0.6774064567843902 0.7323612038247336
4.0726171875 -0.676682148144691 0.7330486156408942
4.073765625 -0.6760823927654958 0.7323244981606465
4.0749140625 -0.6753165697332589 0.7326526034754494
4.0760625 -0.6742615114367925 0.7314254578109352
4.0772109375 -0.6743983286674737 0.7318550338073717
4.078359375 -0.675722460609778 0.7327099631013364
4.0795078125 -0.6753646338607766 0.7323516692420243
4.08065625 -0.6746607483036055 0.7323246888746486
4.0818046875 -0.673029896432212 0.7337287681119401
4.082953125 -0.674095447139763 0.7318042442911978
4.0841015625 -0.6739345187214454 0.732736760138852
4.08525 -0.6738732422668156 0.7318439837143744
4.0863984375 -0.6727817330499443 0.732659793525444
4.087546875 -0.6732705772869101 0.7324523873723253
4.0886953125 -0.6735647499346842 0.731825373852045
4.08984375 -0.6736623630016199 0.7323562114264648
4.0909921875 -0.6729326283683501 0.7320458642129479
4.092140625 -0.6728977687138722 0.7323683992416119
4.0932890625 -0.6726433483611397 0.7328838672288114
4.0944375 -0.6735972824294651 0.7321386302264623
4.0955859375 -0.6725757900149708 0.732502978200781
4.096734375 -0.6722936165330401 0.7328535817484527
4.0978828125 -0.6732274486724632 0.734803691855668
4.09903125 -0.6721341571871794 0.7347834061674543
4.1001796875 -0.6706035441031925 0.73291443348556
4.101328125 -0.6714800541530503 0.7341813406739697
4.1024765625 -0.6714513879272151 0.7354280505206003
4.103625 -0.6716721078670618 0.7349539217723582
4.1047734375 -0.6725309777224453 0.737030163079626
4.105921875 -0.6720049353157885 0.7358596004106335
4.1070703125 -0.6713174868098603 0.7381342157398054
4.10821875 -0.6718836178589009 0.737440511681992
4.1093671875 -0.6712134466310179 0.7382554668487862
4.110515625 -0.6711041775843825 0.737123127479199
4.1116640625 -0.6708639258245478 0.7370814317525404
4.1128125 -0.6704533549725447 0.7373225124926205
4.1139609375 -0.6708961275515695 0.7365543591814103
4.115109375 -0.6705940912106829 0.738080536856528
4.1162578125 -0.67044025836742 0.7376482562417159
4.11740625 -0.6691951552506847 0.7373217729284146
4.1185546875 -0.6689926428910148 0.7370689690900362
4.119703125 -0.669498038101136 0.737014441609221
4.1208515625 -0.6693431471302377 0.7359626136680445
4.122 -0.6691751064797747 0.7360911039625178
4.1231484375 -0.6702012995919772 0.73675297142057
4.124296875 -0.6668286701590349 0.7360873838647408
4.1254453125 -0.6677296393808171 0.736530248213045
4.12659375 -0.6676260168320478 0.7360799249111917
4.1277421875 -0.6662526313877755 0.7366924619956903
4.128890625 -0.6668931076743414 0.7377876380057602
4.1300390625 -0.6672518559275576 0.7351332255803221
4.1311875 -0.6673472372866474 0.7362415993702587
4.1323359375 -0.6672302891537324 0.7361981849224005
4.133484375 -0.6669964869224354 0.7373748618050411
4.1346328125 -0.6681831924449231 0.7373740240957118
4.13578125 -0.6669721647044292 0.7365397361857913
4.1369296875 -0.6675968271254934 0.736682085804027
4.138078125 -0.6681585342642006 0.7380251660715691
4.1392265625 -0.669029617501001 0.7379482991668709
4.140375 -0.6670824442305051 0.7388053588631239
4.1415234375 -0.6675946413394739 0.7376371626335384
4.142671875 -0.6686157172936097 0.7401701079340207
4.1438203125 -0.6688225376356711 0.7414589387580355
4.14496875 -0.6678293233147807 0.7404198999002485
4.1461171875 -0.66866185692228 0.7385492893710937
4.147265625 -0.6674510679087653 0.7397340822921354
4.1484140625 -0.6685883695375398 0.7386339229533945
4.1495625 -0.6680057726403867 0.7398886115634382
4.1507109375 -0.6678616869063667 0.7407602136032175
4.151859375 -0.6693700422435843 0.7401454847289359
4.1530078125 -0.6673131491554545 0.7395615838567787
4.15415625 -0.6688919292269104 0.7402363759282802
4.1553046875 -0.6703319192992991 0.7401887131147711
4.156453125 -0.6684859995821731 0.7406058884905475
4.1576015625 -0.669463751502136 0.743656165814086
4.15875 -0.6700227732311731 0.7419137971030297
4.1598984375 -0.6672157129023125 0.7416196919722637
4.161046875 -0.6670237011690496 0.7440589767762311
4.1621953125 -0.6667039665278791 0.7443618028121828
4.16334375 -0.6666762247928255 0.7447859342942265
4.1644921875 -0.6665409350378924 0.7445174394356628
4.165640625 -0.6672025462268708 0.7452508596436078
4.1667890625 -0.6669509911093146 0.7439922529864844
4.1679375 -0.6656200044032372 0.7454480926055562
4.1690859375 -0.6658282039088517 0.7488243362493798
4.170234375 -0.6663744300788365 0.747252426819295
4.1713828125 -0.664498338684205 0.7466045944497257
4.17253125 -0.6626913678895684 0.7437442473491058
4.1736796875 -0.6650946149283636 0.7469308836497265
4.174828125 -0.6643286225303399 0.746558622903027
4.1759765625 -0.664522626431412 0.745118094515631
4.177125 -0.662322848549723 0.7461991928802276
4.1782734375 -0.6638681052973476 0.7436153456918422
4.179421875 -0.6645459274816542 0.7462358135085914
4.1805703125 -0.6630083948073138 0.7467974462537583
4.18171875 -0.6620202442994074 0.7473371247096758
4.1828671875 -0.6624994374237076 0.7452230202332488
4.184015625 -0.6648227077852645 0.7425628397309747
4.1851640625 -0.6645838912985312 0.7441472617741871
4.1863125 -0.6620232650564669 0.7467471364612207
4.1874609375 -0.6634579477736375 0.7471706160879508
4.188609375 -0.6652803323357036 0.7434404718866877
4.1897578125 -0.6603768340909816 0.744660956055098
4.19090625 -0.662051173191848 0.7463055011089695
4.1920546875 -0.6622846713930003 0.7459577535140147
4.193203125 -0.6616015865732401 0.7460609490658303
4.1943515625 -0.6614760317035382 0.7464307386050503
4.1955 -0.6611638144711157 0.7474077847440521
4.1966484375 -0.6619130223766523 0.7483788016877059
4.197796875 -0.659599766938561 0.7489446339514637
4.1989453125 -0.6591241580548828 0.7475677516335677
4.20009375 -0.6597088078333152 0.7480770757828521
4.2012421875 -0.6572309947767572 0.7497762258648889
4.202390625 -0.657695460250116 0.751558897689321
4.2035390625 -0.6571174996713283 0.7516276547945512
4.2046875 -0.6578674950384902 0.7506116236619711
4.2058359375 -0.6556280028258749 0.7501513108135842
4.206984375 -0.6553831546729312 0.7510060384415316
4.2081328125 -0.6542128982366944 0.7512385915190753
4.20928125 -0.6570583408585805 0.7498911924659242
4.2104296875 -0.6581233347231265 0.7496187100872964
4.211578125 -0.6582156164549828 0.7497765817164697
4.2127265625 -0.6564178962391539 0.7492979884979811
4.213875 -0.6572545692941774 0.7495044188784604
4.2150234375 -0.6569754208590048 0.7503854702552071
4.216171875 -0.6561347758655913 0.7493554460077774
4.2173203125 -0.6577668008984429 0.7517683922002674
4.21846875 -0.6573060476879247 0.7526288178797538
4.2196171875 -0.6560943074311747 0.7508307427806071
4.220765625 -0.6579482073563048 0.7506187445643147
4.2219140625 -0.6561098281554042 0.7507605989179158
4.2230625 -0.6581648275299984 0.7490605053125086
4.2242109375 -0.6577017970919573 0.7497624531748175
4.225359375 -0.6559912188624393 0.7496696654186119
4.2265078125 -0.6552372502321148 0.7517550934864777
4.22765625 -0.6568035363272936 0.7502586087275662
4.2288046875 -0.656728631608578 0.7496174537814051
4.229953125 -0.6567444986061495 0.7498400057972188
4.2311015625 -0.6564907685238559 0.7487142344267019
4.23225 -0.6563853715499163 0.7504915516551208
4.2333984375 -0.6564739588041394 0.7496462257575698
4.234546875 -0.6568377513635578 0.75045745876212
4.2356953125 -0.6555978955602815 0.751489009318521
4.23684375 -0.6568994544151839 0.7505033652664648
4.2379921875 -0.6562540294901027 0.7495668072116013
4.239140625 -0.655855331609148 0.7494564343571444
4.2402890625 -0.6561488633302865 0.7512122548098232
4.2414375 -0.656650842091147 0.7525908413276865
4.2425859375 -0.6559617639359665 0.7530677503209732
4.243734375 -0.6573440874871828 0.7516859660508766
4.2448828125 -0.6575989413932861 0.7535389495661872
4.24603125 -0.6576490930733893 0.7527709795377006
4.2471796875 -0.6591126183098197 0.7518710321622135
4.248328125 -0.658432042692862 0.7530511164151513
4.2494765625 -0.6598888456026104 0.7513956750896355
4.250625 -0.6584542885917795 0.7526439625690452
4.2517734375 -0.6576010313081162 0.7545468625308843
4.252921875 -0.6585607200918158 0.7534765436524358
4.2540703125 -0.6572730838102866 0.7528661216914019
4.25521875 -0.6564930268847622 0.7547559709271968
4.2563671875 -0.6565192185450781 0.7526372178993478
4.257515625 -0.6582914858681365 0.7523007618695918
4.2586640625 -0.6553549178014595 0.7544675675798234
4.2598125 -0.6558062156201598 0.7540169744742655
4.2609609375 -0.6579907352180681 0.7526713544883099
4.262109375 -0.655619187559437 0.7547815155807946
4.2632578125 -0.6535554521850961 0.7554488047041423
4.26440625 -0.6553393624343011 0.7537674560890149
4.2655546875 -0.654755646951789 0.7550463373200256
4.266703125 -0.6541632708089715 0.7548187074337628
4.2678515625 -0.6551166964312649 0.7555975588263427
4.269 -0.6543723346797559 0.7562970563863937
4.2701484375 -0.6539344489054548 0.7571362375711245
4.271296875 -0.6529004825886161 0.7544826495488155
4.2724453125 -0.6521569783813134 0.7568773851535827
4.27359375 -0.6517038757036813 0.7575316696161941
4.2747421875 -0.6516427115695709 0.7582683090606013
4.275890625 -0.6507047299648889 0.7598466509306869
4.2770390625 -0.6511371761274859 0.7621440431535449
4.2781875 -0.652367931205721 0.7600824007721412
4.2793359375 -0.6525915742497207 0.7601196800085808
4.280484375 -0.6520562859010318 0.759992641907228
4.2816328125 -0.6519154726807217 0.7602935946411821
4.28278125 -0.6513039384568393 0.7611458922292873
4.2839296875 -0.6521448103058026 0.7631684310740197
4.285078125 -0.6513810367674417 0.7621457598188949
4.2862265625 -0.6516661805519653 0.7615731196284745
4.287375 -0.6501750436286408 0.763278958696309
4.2885234375 -0.6495765290969433 0.7618826093850449
4.289671875 -0.6512417173305545 0.7630103238574456
4.2908203125 -0.6508910186581107 0.7648845942058516
4.29196875 -0.6515680227693116 0.7634968968695441
4.2931171875 -0.652153252496256 0.7645040945200796
4.294265625 -0.650274188401627 0.7652414561109286
4.2954140625 -0.6504903046518997 0.7642764920687856
4.2965625 -0.6509334565840079 0.7631662449503579
4.2977109375 -0.6501452778003257 0.7660868301933944
4.298859375 -0.6496577459970834 0.7648375916755237
4.3000078125 -0.6492427624535234 0.7653915885480591
4.30115625 -0.6492177180077857 0.7659850272093662
4.3023046875 -0.6481250454278273 0.7640798071905557
4.303453125 -0.6464866340421255 0.7661052385518375
4.3046015625 -0.6477192093737411 0.7664361566495292
4.30575 -0.6476642290402571 0.7675523688858149
4.3068984375 -0.647430068997931 0.7679240519763378
4.308046875 -0.6482089585651026 0.767744997094565
4.3091953125 -0.6485542619914361 0.7670780851727017
4.31034375 -0.645596021347145 0.7676554169012106
4.3114921875 -0.6453470045488175 0.7681281301502212
4.312640625 -0.6467140325359648 0.7674199274179071
4.3137890625 -0.6478014165924029 0.7672420611347636
4.3149375 -0.6481297883552307 0.7706729625090041
4.3160859375 -0.6488678319198854 0.7717983487705983
4.317234375 -0.6478353314159583 0.7700177016320164
4.3183828125 -0.6483211606309787 0.7735333707115579
4.31953125 -0.6487859828249368 0.7704600071007397
4.3206796875 -0.648376211649298 0.7710152838359574
4.321828125 -0.647474772767165 0.7729619671986121
4.3229765625 -0.6433560527387234 0.7701959277996487
4.324125 -0.6470561594923914 0.7729531170853426
4.3252734375 -0.6464058478129959 0.7742571556552515
4.326421875 -0.6471742010243865 0.7692535376648677
4.3275703125 -0.6469259792069312 0.7709454122114343
4.32871875 -0.6465801290627479 0.7700019712307851
4.3298671875 -0.6456640523288459 0.7713431934978965
4.331015625 -0.6449716538536212 0.7695559850555374
4.3321640625 -0.646581286053173 0.7705394915088548
4.3333125 -0.6443477695269932 0.7714209003783966
4.3344609375 -0.6455895955052313 0.7708776507335966
4.335609375 -0.6467589397553115 0.7705981539125873
4.3367578125 -0.6444017904258078 0.7718077287971761
4.33790625 -0.6448456571035065 0.7711834391142323
4.3390546875 -0.64622712927877 0.7717145576040721
4.340203125 -0.6452147572894844 0.7709549369328653
4.3413515625 -0.6434691953009196 0.7715479902483756
4.3425 -0.6450994879309911 0.7718724686470481
4.3436484375 -0.6421129354680944 0.7730523664841121
4.344796875 -0.6407256070831784 0.7739651943874432
4.3459453125 -0.6399712989548456 0.7751472215416679
4.34709375 -0.6413073919385697 0.7744788893067998
4.3482421875 -0.6397715649745211 0.7746236153114562
4.349390625 -0.6412262961369775 0.7756346046480806
4.3505390625 -0.6401361723597254 0.7740199903473914
4.3516875 -0.6398252886270115 0.7757568412401543
4.3528359375 -0.6392935525942947 0.775811997889396
4.353984375 -0.6403446801121785 0.7748631815701783
4.3551328125 -0.636902843492839 0.7751121834408503
4.35628125 -0.6378141547886234 0.7753272062701999
4.3574296875 -0.6393584713611897 0.7733378998327798
4.358578125 -0.6369578294415121 0.7755249622926695
4.3597265625 -0.6370098723085462 0.7764527099947134
4.360875 -0.6386176692895889 0.7743293141586295
4.3620234375 -0.6373637037221767 0.7746078915185839
4.363171875 -0.6389350527254836 0.7760748885333615
4.3643203125 -0.638594298570561 0.774781549658226
4.36546875 -0.6378499946461222 0.7759422541496466
4.3666171875 -0.6388755660729685 0.777203292581403
4.367765625 -0.6365868004607159 0.7763904821349765
4.3689140625 -0.6366146136504752 0.7776151037798479
4.3700625 -0.6385889568564584 0.7789672275211075
4.3712109375 -0.6380642841601233 0.7786327151981864
4.372359375 -0.6368753797957739 0.7784467451569524
4.3735078125 -0.6373315553573011 0.7800374220446387
4.37465625 -0.6373264934954435 0.7784007651327999
4.3758046875 -0.6378448033728454 0.7800040902887184
4.376953125 -0.6380428116850656 0.7813597043732944
4.3781015625 -0.6373278111203199 0.7803717964725421
4.37925 -0.6363909364484723 0.7806627382282796
4.3803984375 -0.6384070194758812 0.7824058561931948
4.381546875 -0.6374169715859269 0.781053159718293
4.3826953125 -0.6384351864263085 0.7803465420438677
4.38384375 -0.6392975336605589 0.7805684653667425
4.3849921875 -0.638207650733569 0.7799355535285706
4.386140625 -0.6377736892585298 0.7803734987932289
4.3872890625 -0.6366651481289263 0.78256548754423
4.3884375 -0.6394190438562268 0.7794128376968097
4.3895859375 -0.6383606551582668 0.7816396269350818
4.390734375 -0.6383826997221209 0.7816658051011043
4.3918828125 -0.6373060898788797 0.7824465657977308
4.39303125 -0.6380271884654781 0.7827576414195487
4.3941796875 -0.635246536245422 0.7844724287613092
4.395328125 -0.6358113785925867 0.7808398199701337
4.3964765625 -0.6344210806046415 0.7835401722534856
4.397625 -0.6357430485194132 0.7820812258963147
4.3987734375 -0.638295985734058 0.7801234902751473
4.399921875 -0.6349585551084692 0.7840606459546046
4.4010703125 -0.6357621741511432 0.7831265631111753
4.40221875 -0.6357655589709872 0.7823642472686361
4.4033671875 -0.6352845052584339 0.7825598471261752
4.404515625 -0.6328147629602834 0.7843185569355314
4.4056640625 -0.6351861672895476 0.7801138622470939
4.4068125 -0.6333060199836088 0.782903098244752
4.4079609375 -0.6326865310087209 0.7833311677917993
4.409109375 -0.6333759575838906 0.7821336700757133
4.4102578125 -0.632985491564187 0.7836065504378578
4.41140625 -0.6318178761949409 0.7856886753607052
4.4125546875 -0.6317447527351578 0.7835221086142695
4.413703125 -0.6314506630670891 0.7849802800355482
4.4148515625 -0.6295721579058045 0.7840339431000692
4.416 -0.6307362536275931 0.7833405074203614
4.4171484375 -0.6303236518571878 0.7852696525739694
4.418296875 -0.6275177290279594 0.7862063954119727
4.4194453125 -0.6278606584700683 0.7839160519945376
4.42059375 -0.6276713522661272 0.7849583926746242
4.4217421875 -0.6266068175512003 0.7848889555906082
4.422890625 -0.627689641404792 0.7848110535621085
4.4240390625 -0.6271551082066416 0.785296726882519
4.4251875 -0.6279088872895731 0.7858443491652966
4.4263359375 -0.6267997048794642 0.7859997833344196
4.427484375 -0.6257176564247202 0.7837260012414146
4.4286328125 -0.626509627007962 0.7849415454050728
4.42978125 -0.6248653644335733 0.7845135467463633
4.4309296875 -0.6246898226227504 0.7855455783127266
4.432078125 -0.6244698954732365 0.7861291066683911
4.4332265625 -0.6248143096851122 0.7858140051708764
4.434375 -0.6255935274877005 0.7864617355815211
4.4355234375 -0.6244784635981564 0.7860180653035951
4.436671875 -0.6237620306815035 0.7864745534081394
4.4378203125 -0.6238730709513278 0.7885559284626
4.43896875 -0.6236673994845547 0.7878008583611625
4.4401171875 -0.6234405717152012 0.7882967965869052
4.441265625 -0.6230891209402463 0.7899705083416239
4.4424140625 -0.6235687671536883 0.7886767309347222
4.4435625 -0.6229601946157697 0.7899789546093278
4.4447109375 -0.6233799912049001 0.7912139448492241
4.445859375 -0.6233477860030463 0.7896954439317616
4.4470078125 -0.6222698072286642 0.7909113714447675
4.44815625 -0.622974875937925 0.7913607885744133
4.4493046875 -0.6232122472231085 0.79128008562744
4.450453125 -0.6212155636225909 0.7924126001329392
4.4516015625 -0.6225597256879155 0.7933245770514847
4.45275 -0.62367156287836 0.7937710406943588
4.4538984375 -0.621558140716618 0.7932960935309362
4.455046875 -0.6229807161690493 0.7944898567656808
4.4561953125 -0.6227692912186075 0.7941132916505839
4.45734375 -0.6224399048964597 0.7940557832696089
4.4584921875 -0.6232634375764026 0.7958615255369962
4.459640625 -0.6230716983070984 0.794861514535988
4.4607890625 -0.6230510475269967 0.7951641252168249
4.4619375 -0.6234487861691436 0.7949284923353703
4.4630859375 -0.6235202676863294 0.7937769506089162
4.464234375 -0.6229380854268217 0.7943410420642638
4.4653828125 -0.6225209260733421 0.7950910488875874
4.46653125 -0.622755421879513 0.7950247733656011
4.4676796875 -0.6230436958680392 0.7945403027234071
4.468828125 -0.6232718941635597 0.7928265115058434
4.4699765625 -0.6218578967079377 0.7941358764810036
4.471125 -0.6226318915069367 0.7923408318595585
4.4722734375 -0.622861784957943 0.7928731266523197
4.473421875 -0.6214666083282594 0.7936866557632839
4.4745703125 -0.6199318620184391 0.7948363640289043
4.47571875 -0.6194799220752343 0.7941031274815968
4.4768671875 -0.6198016561670009 0.7950096571189189
4.478015625 -0.6189841753470815 0.7951017546689119
4.4791640625 -0.6194031400808333 0.7946756414892633
4.4803125 -0.6197624386731145 0.7942877094850488
4.4814609375 -0.6200903227518504 0.7956007917803862
4.482609375 -0.619334723484921 0.7965405534704736
4.4837578125 -0.6200411439831248 0.7965498502550886
4.48490625 -0.6196622001523068 0.7981173690150558
4.4860546875 -0.6191307352169961 0.7977719860216694
4.487203125 -0.6192773199082633 0.7970283197539996
4.4883515625 -0.618122101744002 0.7989229928195637
4.4895 -0.6177788736772644 0.7985952170618734
4.4906484375 -0.6178811866486477 0.798928882796293
4.491796875 -0.6170799093473087 0.7985507207579566
4.4929453125 -0.6178158451626453 0.7995753445223501
4.49409375 -0.6175576179259794 0.7991390776300463
4.4952421875 -0.617091116074044 0.8002030401371202
4.496390625 -0.6168844736978577 0.7997171280615747
4.4975390625 -0.6147979318728698 0.8002550906959794
4.4986875 -0.6156531647175844 0.7999306823976303
4.4998359375 -0.6158611343603544 0.799922868831674
4.500984375 -0.6156161834158069 0.7994687712419999
4.5021328125 -0.6150946673987218 0.7989126705259578
4.50328125 -0.6134387158328349 0.8005581959783952
4.5044296875 -0.6133752380802984 0.7994082801323539
4.505578125 -0.6129117188727657 0.7980190340474566
4.5067265625 -0.6128166328597596 0.7995434409828814
4.507875 -0.6115785795555587 0.8006609137660304
4.5090234375 -0.6124774782624303 0.8008943478699028
4.510171875 -0.6098898313382572 0.8025378512348071
4.5113203125 -0.6102826764916748 0.8021494846051929
4.51246875 -0.6098819595509359 0.8020049166187676
4.5136171875 -0.6080845901129444 0.8012935666028298
4.514765625 -0.6096777317090181 0.8028083146583775
4.5159140625 -0.6079883701354785 0.8026459688587914
4.5170625 -0.6088620889139352 0.8040544079756917
4.5182109375 -0.6095859392444378 0.8050431862301468
4.519359375 -0.6110832695647539 0.8042515281353091
4.5205078125 -0.608755716311869 0.8064455609446112
4.52165625 -0.608085319069761 0.8063330317791981
4.5228046875 -0.6078201666650938 0.8057580987440747
4.523953125 -0.6081743941504811 0.8072429067332244
4.5251015625 -0.6069421221175231 0.8067785842678725
4.52625 -0.6080543993304217 0.8061900344357551
4.5273984375 -0.6079078027352505 0.8062562730127798
4.528546875 -0.6074554559593738 0.8071769179084913
4.5296953125 -0.607864310559376 0.8069013286870679
4.53084375 -0.6068205975135105 0.8058579973589459
4.5319921875 -0.6068328253144148 0.8066970271049174
4.533140625 -0.6076607089316144 0.8064775484135414
4.5342890625 -0.6080643442635345 0.8058177335359331
4.5354375 -0.6076838363017439 0.8064221236058806
4.5365859375 -0.6072818569761518 0.80595416373815
4.537734375 -0.6068291648639976 0.8058642235005179
4.5388828125 -0.6066195123035134 0.8045305919459382
4.54003125 -0.6056324728457109 0.8065009249211961
4.5411796875 -0.6067970093051236 0.8066044825289649
4.542328125 -0.6064305736594889 0.8045522457130506
4.5434765625 -0.6054111643119378 0.8054308475497587
4.544625 -0.60604116369455 0.8057538718235866
4.5457734375 -0.6058232141334363 0.8056822917171128
4.546921875 -0.6031747880733824 0.8053757306548047
4.5480703125 -0.6031118301880395 0.8064917333821359
4.54921875 -0.6025313108717734 0.8067279969851014
4.5503671875 -0.6024149653588242 0.8066861010918249
4.551515625 -0.6027590966530273 0.8056683552783728
4.5526640625 -0.6023004311956988 0.8068295542389923
4.5538125 -0.6024354183359848 0.8062663345808456
4.5549609375 -0.6021645884335466 0.8068134612732817
4.556109375 -0.6017721438149548 0.8082251201087667
4.5572578125 -0.6025227382568437 0.8074725549637944
4.55840625 -0.6029246010640206 0.8077796455930663
4.5595546875 -0.602543882837993 0.8079675792013755
4.560703125 -0.6026378089111188 0.8063150127181555
4.5618515625 -0.602047791967556 0.806336429796016
4.563 -0.6018195918271401 0.80793472151056
4.5641484375 -0.6009169276929102 0.8075506466035468
4.565296875 -0.6011405221327605 0.8076502993938593
4.5664453125 -0.6013434872368877 0.8071580489700656
4.56759375 -0.6006084785510404 0.8076625814642082
4.5687421875 -0.6014772176168047 0.8076303541402092
4.569890625 -0.6016898351065139 0.8084496741322285
4.5710390625 -0.6005964282164868 0.8098840146932735
4.5721875 -0.60102797508765 0.8089395919530119
4.5733359375 -0.6014669162893325 0.8078216214675309
4.574484375 -0.6010543970037938 0.8084416723861717
4.5756328125 -0.5999534573060676 0.8081444736282126
4.57678125 -0.6001619859204024 0.8094421792986105
4.5779296875 -0.5993091362820818 0.8084274488050975
4.579078125 -0.5980180477581498 0.8077073868239208
4.5802265625 -0.5971366323806435 0.8077566727247386
4.581375 -0.5978448129604417 0.8088967068367804
4.5825234375 -0.598088166006066 0.8099103684776823
4.583671875 -0.5968350857960969 0.8106296625034048
4.5848203125 -0.5969266420242048 0.8118605362388445
4.58596875 -0.5965850518185407 0.8130343850737556
4.5871171875 -0.5955232866572799 0.812456014968964
4.588265625 -0.5959931395175223 0.8123339655057966
4.5894140625 -0.596054736841668 0.8127262107905562
4.5905625 -0.5960136404795264 0.8123574929691959
4.5917109375 -0.595109333766413 0.8122641238563916
4.592859375 -0.5946464863437724 0.8130367928261646
4.5940078125 -0.5955734173091934 0.8141013606725152
4.59515625 -0.5965458918890999 0.8138398950180408
4.5963046875 -0.594403340668084 0.8139463802387565
4.597453125 -0.5950857356846652 0.814381222519319
4.5986015625 -0.594040432655915 0.8148224492170554
4.59975 -0.5933102751768926 0.8154220924947101
4.6008984375 -0.5932565644180405 0.8152395623063193
4.602046875 -0.5937534201959078 0.8149064683361832
4.6031953125 -0.5926795655664592 0.8146886734071759
4.60434375 -0.5926643527330127 0.8152527867307308
4.6054921875 -0.5933281554497596 0.8139834118755804
4.606640625 -0.592453975673786 0.814189280754062
4.6077890625 -0.5932943720788538 0.8146507634213379
4.6089375 -0.5931153432798499 0.8161037144938962
4.6100859375 -0.5947286824606614 0.8159975288603475
4.611234375 -0.5942171297450926 0.814647138942097
4.6123828125 -0.5943392754752989 0.8155933745130415
4.61353125 -0.5938963298049449 0.8148041260254048
4.6146796875 -0.594022874446184 0.8154865668409819
4.615828125 -0.5934509088770947 0.815453002467719
4.6169765625 -0.5923114208763867 0.8160693352573191
4.618125 -0.5917089886032373 0.815245625496312
4.6192734375 -0.5917784410269344 0.8149729320423647
4.620421875 -0.5910543565293852 0.8161223478733948
4.6215703125 -0.5900470923265054 0.8165623481898386
4.62271875 -0.5896165228351686 0.8174414902718578
4.6238671875 -0.5904963180095253 0.8172619026285519
4.625015625 -0.589835547772933 0.8173586399276592
4.6261640625 -0.5894145892741313 0.8180388507951543
4.6273125 -0.5889500148620308 0.8178841996920396
4.6284609375 -0.5887777231077639 0.8185555254879028
4.629609375 -0.5880860923828126 0.8186038808761092
4.6307578125 -0.587162812730784 0.8189181589994313
4.63190625 -0.5878837532788627 0.8198435175890748
4.6330546875 -0.5882239018528144 0.8187410687292996
4.634203125 -0.58759895996562 0.8189415718085646
4.6353515625 -0.5870230273566408 0.819232284914285
4.6365 -0.5864960716470198 0.8197781359985794
4.6376484375 -0.5866117066925021 0.8193003348017788
4.638796875 -0.586829893445054 0.8190228063559118
4.6399453125 -0.5865367183717389 0.8193736505708511
4.64109375 -0.5862018621399924 0.8192736844376899
4.6422421875 -0.584640524804597 0.8202658944192001
4.643390625 -0.5841950218119105 0.8198070693767665
4.6445390625 -0.5840117062437107 0.8194064157001966
4.6456875 -0.5843012871474065 0.8185352811177179
4.6468359375 -0.5836765033792204 0.8198837436245519
4.647984375 -0.5843480677084272 0.8197933793757401
4.6491328125 -0.5839396627544551 0.8198783241393643
4.65028125 -0.5830042363191759 0.8192936107952284
4.6514296875 -0.5831839316215905 0.8195700982400064
4.652578125 -0.5830142442496459 0.8198232145515519
4.6537265625 -0.582444265122821 0.820724992239943
4.654875 -0.5834961099511441 0.8209372726213141
4.6560234375 -0.581461703633421 0.8208887026258384
4.657171875 -0.581754438376162 0.8210832172451035
4.6583203125 -0.5819531204111871 0.8207957952568948
4.65946875 -0.5815060229822342 0.8214152016424051
4.6606171875 -0.5800859427988242 0.8220373576678955
4.661765625 -0.5814549231449924 0.8212647400212469
4.6629140625 -0.580907791468591 0.8216029773518365
4.6640625 -0.5806920296256046 0.8225543514758812
4.6652109375 -0.57884639052478 0.823596928927186
4.666359375 -0.5787331165032401 0.8229404148310917
4.6675078125 -0.5784795929140627 0.8235392440504643
4.66865625 -0.5791242635937413 0.8231193580312192
4.6698046875 -0.5793392461017033 0.8240081090064499
4.670953125 -0.5779510989644023 0.8243575861809973
4.6721015625 -0.578621518743308 0.8240855219033377
4.67325 -0.5785593941219344 0.8243340699534722
4.6743984375 -0.5785700751165967 0.8240544617080798
4.675546875 -0.5781736219542335 0.8242714041284126
4.6766953125 -0.5792760685025626 0.8246210566230818
4.67784375 -0.578560487093442 0.8251388123590402
4.6789921875 -0.5785789239001748 0.8258298584145686
4.680140625 -0.5786835105834347 0.8245696825138041
4.6812890625 -0.5786061330099309 0.8252644396428886
4.6824375 -0.5782150393138153 0.8251706401646874
4.6835859375 -0.5783732297911519 0.8246996786210864
4.684734375 -0.5779009353726418 0.825853426756571
4.6858828125 -0.5769309079724785 0.8254504854472214
4.68703125 -0.5764625889889453 0.8254628008328347
4.6881796875 -0.5774501003992809 0.8259905469345235
4.689328125 -0.5769263610961244 0.8258772057958323
4.6904765625 -0.5758877281806185 0.8257076888515671
4.691625 -0.5756856686982731 0.8259473909589098
4.6927734375 -0.5765016863346819 0.8270388706587406
4.693921875 -0.5746119206498459 0.8263257159191899
4.6950703125 -0.5731351928459759 0.826807068408818
4.69621875 -0.5724221707459997 0.8268464820190479
4.6973671875 -0.573136397652068 0.827426798620352
4.698515625 -0.5729805510984983 0.8270549844464045
4.6996640625 -0.5727716288267657 0.8291415414123984
4.7008125 -0.5737850284204276 0.8281286345222715
4.7019609375 -0.5725882185649649 0.8281340958279806
4.703109375 -0.5722141976447866 0.8278195994522559
4.7042578125 -0.5718754336052948 0.8281217295794298
4.70540625 -0.5723438681220293 0.8286651739225801
4.7065546875 -0.5715634470721132 0.8275966587667116
4.707703125 -0.5714243740258141 0.8288933773510975
4.7088515625 -0.5718629569689688 0.8282022112813933
4.71 -0.571259169567105 0.8286965544990005
4.7111484375 -0.5725327697963887 0.8274645706748236
4.712296875 -0.5718202546157627 0.8285351113472117
4.7134453125 -0.5721763053457367 0.8289871793595036
4.71459375 -0.572046113323436 0.8286491313750295
4.7157421875 -0.5714454116078923 0.8291080507079275
4.716890625 -0.5720531378891747 0.8281584672549898
4.7180390625 -0.5705150676590187 0.8276734748421479
4.7191875 -0.5709539493147795 0.8297665769926386
4.7203359375 -0.5706454185659148 0.829400950398141
4.721484375 -0.5704949668538863 0.8293389320084382
4.7226328125 -0.5698487839359764 0.8297169981750526
4.72378125 -0.5694856716137593 0.8309673408726496
4.7249296875 -0.5687426187386153 0.8299105521211098
4.726078125 -0.5689013112584588 0.8316214369830406
4.7272265625 -0.5685437542460019 0.830691517803337
4.728375 -0.5681649893947941 0.8318729667949957
4.7295234375 -0.5683277978794854 0.832744605417386
4.730671875 -0.5682933371389385 0.832267435379172
4.7318203125 -0.5672388830085863 0.8319139489623828
4.73296875 -0.5667353197458225 0.8326098432568374
4.7341171875 -0.5665951646597914 0.8318725153089288
4.735265625 -0.5670423626321232 0.8324025334047388
4.7364140625 -0.5661407576365534 0.8325479913375573
4.7375625 -0.5661336477425924 0.8328995150649301
4.7387109375 -0.5658140515265894 0.8327727450700497
4.739859375 -0.5649618061340013 0.8321698196345647
4.7410078125 -0.5651254661826184 0.832414817180293
4.74215625 -0.5651931717700901 0.8329439780695015
4.7433046875 -0.5654313334838608 0.8326802768086321
4.744453125 -0.5651142539676981 0.8337965150443132
4.7456015625 -0.564395625593294 0.8326230976465148
4.74675 -0.5634136706000067 0.8323405882093904
4.7478984375 -0.5639504089944838 0.8325006407629251
4.749046875 -0.5633754335850325 0.8323729228590457
4.7501953125 -0.563805642732134 0.8316270873298107
4.75134375 -0.5642960300688991 0.8314050008867994
4.7524921875 -0.5643575064097357 0.8328018267470302
4.753640625 -0.5634088111617133 0.832542099025724
4.7547890625 -0.5631349516443478 0.8327436102577063
4.7559375 -0.5631286972095908 0.8329463575056578
4.7570859375 -0.5625846290288217 0.8327379774234722
4.758234375 -0.5623063189142543 0.832770600335972
4.7593828125 -0.5629415296524498 0.8331986177124627
4.76053125 -0.5635117629516297 0.8326072407861793
4.7616796875 -0.5635137693265093 0.8325069113140737
4.762828125 -0.5633030852885518 0.8323693265561731
4.7639765625 -0.5630797789742267 0.8337817548581826
4.765125 -0.5626987604371081 0.8343729300768538
4.7662734375 -0.5622436667171662 0.8343207650433927
4.767421875 -0.5619295635075477 0.8339917415331926
4.7685703125 -0.5622567878265952 0.8349157319488034
4.76971875 -0.5623004833388254 0.8347647537617151
4.7708671875 -0.5620518611600986 0.834637491926123
4.772015625 -0.5621341477812252 0.8353878989587362
4.7731640625 -0.5608755439877304 0.8357011778264849
4.7743125 -0.5600764125540245 0.8361906620436867
4.7754609375 -0.5598702371864804 0.8365467501708608
4.776609375 -0.5599682994193775 0.8366406886691024
4.7777578125 -0.5596253663788701 0.8356476138023168
4.77890625 -0.5595662488656815 0.8363117950626395
4.7800546875 -0.5601544376897429 0.8367497396619122
4.781203125 -0.5600684107173941 0.8368417188773164
4.7823515625 -0.5596586883240069 0.8373523339526243
4.7835 -0.5601693034333879 0.8363499502244119
4.7846484375 -0.559384312329708 0.8359610500825727
4.785796875 -0.5596346552380693 0.8370966944602873
4.7869453125 -0.5603627994375963 0.8363535872756668
4.78809375 -0.5601505061425315 0.8362705379163368
4.7892421875 -0.559935064922312 0.83789987426401
4.790390625 -0.5600659772226074 0.8367017438806225
4.7915390625 -0.5594179297551977 0.8364648239841033
4.7926875 -0.5591553705909986 0.8367486371485704
4.7938359375 -0.5593963554173884 0.8378284242766265
4.794984375 -0.5581347482102953 0.8378337967743603
4.7961328125 -0.5581840628746308 0.8380938375950937
4.79728125 -0.5586583384945043 0.8382193572849514
4.7984296875 -0.5587995745229936 0.8380086176969077
4.799578125 -0.5582837719694698 0.8376514425473914
4.8007265625 -0.5576298193877618 0.838306675636139
4.801875 -0.5574495216474967 0.8389810017253163
4.8030234375 -0.5569875572138288 0.8399495170578504
4.804171875 -0.556037137797884 0.8388404310994977
4.8053203125 -0.5563700942624472 0.8387850048887471
4.80646875 -0.5556305914083739 0.8400695596096965
4.8076171875 -0.5556358706188129 0.8406485890254097
4.808765625 -0.5559196815472325 0.8402965875106159
4.8099140625 -0.5563237574425546 0.8405824066817212
4.8110625 -0.5551834898463583 0.8412454553037959
4.8122109375 -0.5544275152707145 0.8413564213689156
4.813359375 -0.5544031709103544 0.8416525696140635
4.8145078125 -0.5552070124373298 0.8417468467389118
4.81565625 -0.5551963471229646 0.84107318624865
4.8168046875 -0.5554854218870489 0.8417698572214729
4.817953125 -0.5546688366247439 0.841297711431693
4.8191015625 -0.5536887509444827 0.842833717337934
4.82025 -0.5545883956155284 0.841847620377964
4.8213984375 -0.554125086932064 0.8419237998277884
4.822546875 -0.554118815391063 0.8423396983844379
4.8236953125 -0.5541498406092483 0.8419230521640132
4.82484375 -0.5537148085017548 0.8417091995625408
4.8259921875 -0.5540400369743554 0.8429634389173613
4.827140625 -0.5533777414548887 0.8440012479099255
4.8282890625 -0.5536932108436922 0.8449363897006374
4.8294375 -0.5526602981869093 0.8444758395200825
4.8305859375 -0.5531067375043478 0.8445672439718037
4.831734375 -0.5532559866021516 0.8443577465993576
4.8328828125 -0.5532743561236171 0.8444092040944063
4.83403125 -0.5525587743045657 0.8446737684990417
4.8351796875 -0.5523954452990081 0.8451837906384324
4.836328125 -0.5516499780794193 0.8451705435914735
4.8374765625 -0.5512108465533279 0.8462141912269525
4.838625 -0.5512838406787907 0.8468593829037656
4.8397734375 -0.5508875683330001 0.8467724049830169
4.840921875 -0.5504979351195082 0.847070601934057
4.8420703125 -0.5506674398283746 0.8470280911336739
4.84321875 -0.5504323918762797 0.846400307691127
4.8443671875 -0.549766542082077 0.847340418126564
4.845515625 -0.5507749007558285 0.8476437584927674
4.8466640625 -0.549692842638828 0.8485165510547081
4.8478125 -0.5487942402233481 0.8481881146941125
4.8489609375 -0.5496222626550034 0.8478084509206807
4.850109375 -0.5494893847341591 0.84805431760298
4.8512578125 -0.5492494175341287 0.8488922766271154
4.85240625 -0.5494359522133718 0.8486456467473004
4.8535546875 -0.5484768395503277 0.8480567131404303
4.854703125 -0.549441842017063 0.84881266993863
4.8558515625 -0.5478183934236067 0.8491228563163012
4.857 -0.5495978966176958 0.8489180999346206
4.8581484375 -0.5490079316958552 0.8498863676054363
4.859296875 -0.5492002537753458 0.8501627737784656
4.8604453125 -0.5495128936900426 0.8508265804732684
4.86159375 -0.5485942146746111 0.8504773139318873
4.8627421875 -0.5480090096508574 0.8511211916565293
4.863890625 -0.5484655140085809 0.8518761001076829
4.8650390625 -0.5490187675338299 0.8524989525695497
4.8661875 -0.547974228981152 0.8508360850642659
4.8673359375 -0.5472450663156774 0.8516255209128353
4.868484375 -0.5462630062044843 0.8515842097314426
4.8696328125 -0.5466566290280404 0.8525621069787651
4.87078125 -0.5458333190362107 0.8529141745935016
4.8719296875 -0.546237968382794 0.8519235547327653
4.873078125 -0.54581977523757 0.8527993174674213
4.8742265625 -0.5455130975739384 0.8538525320795929
4.875375 -0.5456054501162965 0.852513257306299
4.8765234375 -0.5448812676826602 0.8537673117131218
4.877671875 -0.544915036007602 0.8548917950931021
4.8788203125 -0.5437857839156542 0.8556853130300913
4.87996875 -0.544098122363508 0.8557030553764666
4.8811171875 -0.5431078369970879 0.8557795505848536
4.882265625 -0.5426212752095517 0.8568468625638469
4.8834140625 -0.5415971687318369 0.8576385982248037
4.8845625 -0.540886646318713 0.8576376544831817
4.8857109375 -0.5392975449515764 0.8579483849920748
4.886859375 -0.5392383560697733 0.8573818129166878
4.8880078125 -0.5378744572853087 0.8575846236243232
4.88915625 -0.5373704609613559 0.8573663288952753
4.8903046875 -0.5377299917955355 0.8578872759982542
4.891453125 -0.5384488405384315 0.8587382015088065
4.8926015625 -0.5380060414489076 0.8580452698645031
4.89375 -0.5370031005379324 0.8582339464626535
4.8948984375 -0.5366998002250428 0.8601865773485362
4.896046875 -0.5364501866701818 0.8588772430966842
4.8971953125 -0.536431224046874 0.8594261519893498
4.89834375 -0.5366115276501915 0.8601834529481098
4.8994921875 -0.5371471249848333 0.8598349433548511
4.900640625 -0.5338912316165192 0.8608327862819776
4.9017890625 -0.5348976634557441 0.8604655246468014
4.9029375 -0.5341133485388331 0.860241393083921
4.9040859375 -0.5346839813718269 0.8592095031990022
4.905234375 -0.5329046277020463 0.8593871214864494
4.9063828125 -0.5343789278462105 0.859588280655828
4.90753125 -0.5323625494794731 0.859557184370932
4.9086796875 -0.5324851284965805 0.8597135443839553
4.909828125 -0.5321241004499262 0.8603083029774706
4.9109765625 -0.5331362011599459 0.8600550673134573
4.912125 -0.5318397181708844 0.8598097282555288
4.9132734375 -0.5311601815243907 0.860504227888366
4.914421875 -0.532172960271184 0.8609184810579676
4.9155703125 -0.5308104327620233 0.8609750348007308
4.91671875 -0.5309833996640707 0.8598967505488117
4.9178671875 -0.5303450844878008 0.861508363170312
4.919015625 -0.5299014870772945 0.8600911633070616
4.9201640625 -0.5305983663931051 0.8614048280012973
4.9213125 -0.5306375574020665 0.8617993452193292
4.9224609375 -0.5303531900059433 0.8622383605038874
4.923609375 -0.5304502321646712 0.8613593613178826
4.9247578125 -0.5294467339081269 0.8627040833619124
4.92590625 -0.53044546810494 0.8618168167591853
4.9270546875 -0.5311007047134858 0.8618549054642481
4.928203125 -0.5297217421539743 0.8624809175962582
4.9293515625 -0.5300170832864747 0.862829342207243
4.9305 -0.5288824324081274 0.8642666353378143
4.9316484375 -0.5291165434970481 0.8637238226179366
4.932796875 -0.5282721881897237 0.864944993911802
4.9339453125 -0.5285001039064132 0.8642341199967476
4.93509375 -0.5289328987778644 0.8633961832617092
4.9362421875 -0.5266607004125121 0.8653799466090832
4.937390625 -0.5264053060789724 0.8645983687628794
4.9385390625 -0.5267797047678247 0.8647628358948896
4.9396875 -0.5266923165903019 0.8650825787440225
4.9408359375 -0.5260579933002019 0.8644887366334256
4.941984375 -0.526136401369645 0.8649541179321629
4.9431328125 -0.5270251358589431 0.8649671254497515
4.94428125 -0.5268296951514044 0.8655415006036369
4.9454296875 -0.5262648216975245 0.8659633817068493
4.946578125 -0.5258679972575642 0.8648522085965111
4.9477265625 -0.5260455811179265 0.8665433440955123
4.948875 -0.5255815558564092 0.8673729993775444
4.9500234375 -0.5246931136284925 0.8674602554825563
4.951171875 -0.5233862154350071 0.8680129394960424
4.9523203125 -0.52463339744881 0.8677078653797331
4.95346875 -0.5229761094276595 0.8690890268871042
4.9546171875 -0.5212998748611819 0.8692430782774728
4.955765625 -0.5218728504095056 0.8674313196577381
4.9569140625 -0.5207330627731109 0.8685841829099104
4.9580625 -0.5203366354405331 0.86847865457802
4.9592109375 -0.5206459569391156 0.8684646496863089
4.960359375 -0.5183616628936147 0.8695007255859685
4.9615078125 -0.5174527694041147 0.8691883123144961
4.96265625 -0.5175048048722379 0.86937033182269
4.9638046875 -0.5172069061549719 0.8695263145531373
4.964953125 -0.5162903410947121 0.8692882130275583
4.9661015625 -0.516175428503518 0.8694920388090529
4.96725 -0.5159763177816568 0.8687948695178629
4.9683984375 -0.5164174541089177 0.8682697506851154
4.969546875 -0.515398321731686 0.8683291150044968
4.9706953125 -0.5147972981452767 0.8679555739337987
4.97184375 -0.5142515950836163 0.8681254203968347
4.9729921875 -0.5141993666872209 0.8672488312488006
4.974140625 -0.5126129440857801 0.8672896641089377
4.9752890625 -0.5132325044517088 0.8667193962323336
4.9764375 -0.5140390572983204 0.8675367696125001
4.9775859375 -0.5128140005534001 0.8676957827759203
4.978734375 -0.5119994891022845 0.8671693449127199
4.9798828125 -0.511490765759048 0.8675139924672166
4.98103125 -0.5115004623714896 0.867543484032979
4.9821796875 -0.5121597266284004 0.8667487269289198
4.983328125 -0.5125394273801307 0.8677701267710694
4.9844765625 -0.5104394232905544 0.8666134688555358
4.985625 -0.5098732925076042 0.8668611964500678
4.9867734375 -0.5096294200142464 0.8669262149174334
4.987921875 -0.5090751400128608 0.8662040761709591
4.9890703125 -0.5091951367935257 0.8680303740419093
4.99021875 -0.5082970667847628 0.8686852483284151
4.9913671875 -0.5094417737512604 0.867706929282609
4.992515625 -0.5081199432896243 0.8677969919587286
4.9936640625 -0.5082693136234797 0.8680934937463051
4.9948125 -0.5088169866075092 0.8681981213708808
4.9959609375 -0.5070708620514137 0.8694642397223417
4.997109375 -0.5085078694603367 0.8696867914015687
4.9982578125 -0.5081033304439215 0.8686895661220584
4.99940625 -0.5084286984461597 0.8690541387574376
5.0005546875 -0.507052887399048 0.8678150918652899
5.001703125 -0.5067335206764241 0.8690251188801793
5.0028515625 -0.5072972227930653 0.868433359704244
5.004 -0.5078523984679397 0.8680488752774403
5.0051484375 -0.508135924269448 0.8664128648645198
5.006296875 -0.5067018090455979 0.8666391072474982
5.0074453125 -0.5057738453758062 0.8671305668892323
5.00859375 -0.5058838330218177 0.8668921271189478
5.0097421875 -0.5057647118600201 0.8667549222265
5.010890625 -0.5054679538703787 0.8666960696906494
5.0120390625 -0.5050598907228583 0.8659269709045178
5.0131875 -0.505491460754823 0.8673520429725592
5.0143359375 -0.5036886460633678 0.8671862083961425
5.015484375 -0.5046152032774032 0.8675181956597052
5.0166328125 -0.5055000734553923 0.8661739912990457
5.01778125 -0.5045603675412131 0.8663547936658096
5.0189296875 -0.504257026823872 0.8675787631482763
5.020078125 -0.5040948074274645 0.8666316272988218
5.0212265625 -0.505000423376724 0.8661683426767244
5.022375 -0.504004948009895 0.8663272081789605
5.0235234375 -0.5039896049121895 0.8669359790148792
5.024671875 -0.504018888044592 0.8669653076208306
5.0258203125 -0.50322433428994 0.8672383012490714
5.02696875 -0.5041340998135762 0.8679277545800027
5.0281171875 -0.50376648093407 0.8671455631182771
5.029265625 -0.5045228514376432 0.8666145990014718
5.0304140625 -0.5038574608003632 0.8667426865908514
5.0315625 -0.5019905082801963 0.8670007145957257
5.0327109375 -0.5023113761485145 0.8666091207183337
5.033859375 -0.5028261867232633 0.8661293942103563
5.0350078125 -0.5022723201267146 0.8662371898793401
5.03615625 -0.5019935523476642 0.8666154277020683
5.0373046875 -0.5019093733925444 0.8668722490157074
5.038453125 -0.5016498092186755 0.8663337093131139
5.0396015625 -0.5004252399536908 0.8675961235370061
5.04075 -0.5001929029481788 0.8680605835082646
5.0418984375 -0.5020606346972805 0.8678713345086149
5.043046875 -0.5007976829099878 0.868790218392598
5.0441953125 -0.5002991212317851 0.8668479450009814
5.04534375 -0.5010255590374806 0.866963479637282
5.0464921875 -0.5002117614460907 0.8667155062420248
5.047640625 -0.5007373172058966 0.8674664806490604
5.0487890625 -0.49972321516131546 0.8676156912910614
5.0499375 -0.5000343491329469 0.8675981438242837
5.0510859375 -0.5004245608641744 0.8674750983105574
5.052234375 -0.5001689221345922 0.8670671000581038
5.0533828125 -0.5013509575548011 0.8678017632424708
5.05453125 -0.5008221946184178 0.8691497916411066
5.0556796875 -0.499409373021266 0.8690961167157392
5.056828125 -0.4992757505911134 0.8677756348397825
5.0579765625 -0.4991462212474796 0.8683595602180274
5.059125 -0.49949665121088277 0.867705421309301
5.0602734375 -0.4988184903907408 0.8698167862027819
5.061421875 -0.4967733910868966 0.8688454023063648
5.0625703125 -0.4983540364269471 0.8692400967855273
5.06371875 -0.49874732852990267 0.8697864978171329
5.0648671875 -0.4975219623899296 0.871267748916725
5.066015625 -0.49558497762027914 0.8700449021371395
5.0671640625 -0.4961843381455258 0.8697783102223061
5.0683125 -0.49669380750168995 0.8698059131634335
5.0694609375 -0.4979347139275604 0.8696140069592084
5.070609375 -0.49701009546335967 0.8693906871616061
5.0717578125 -0.4972110562198785 0.8710477802317698
5.07290625 -0.49575354027457036 0.8718396306404829
5.0740546875 -0.49567715278293956 0.8713745315805034
5.075203125 -0.4968677489080697 0.8709009012203248
5.0763515625 -0.4975306717467519 0.8706081964728702
5.0775 -0.4973208466644774 0.8714768960334868
5.0786484375 -0.4963206296869025 0.8729350853713208
5.079796875 -0.4961181424028238 0.8727459166695253
5.0809453125 -0.49639656475515403 0.8703116307641964
5.08209375 -0.49548736046757713 0.8725551155195472
5.0832421875 -0.4962051689733704 0.8721495203828017
5.084390625 -0.49590006420247995 0.8722679540589433
5.0855390625 -0.49411979684017815 0.8724546552712139
5.0866875 -0.49390115146681957 0.871648407894615
5.0878359375 -0.49424942458348387 0.8715986153228581
5.088984375 -0.49402425970450403 0.8734966044827535
5.0901328125 -0.4947961082395756 0.8723628795110154
5.09128125 -0.4939141335517431 0.8736073849448154
5.0924296875 -0.4940645083556799 0.8719256505590951
5.093578125 -0.4938628094247428 0.8731213138397682
5.0947265625 -0.4930017614117183 0.8718900279189515
5.095875 -0.49382707747819055 0.8726433071358046
5.0970234375 -0.49203767847712737 0.8734685647042023
5.098171875 -0.4921958816851751 0.8736184156495936
5.0993203125 -0.49296900333905325 0.8734395944469846
5.10046875 -0.4922441710747167 0.8738815209393191
5.1016171875 -0.4918326295618214 0.8735308287754125
5.102765625 -0.491946135118038 0.8741267901405676
5.1039140625 -0.4917198628950511 0.872130506776249
5.1050625 -0.4919889114228851 0.8736584057916723
5.1062109375 -0.49171782673310704 0.8732243218738475
5.107359375 -0.49137480434764924 0.8725184636490483
5.1085078125 -0.4902929225325354 0.8742072571082926
5.10965625 -0.4889708936307424 0.874463052644596
5.1108046875 -0.48928572511191215 0.8744828631568683
5.111953125 -0.4886607102053147 0.8747374864115249
5.1131015625 -0.4892677916336271 0.8751142149466685
5.11425 -0.4886987273248182 0.8741468611078298
5.1153984375 -0.48727531854925094 0.8742296412137571
5.116546875 -0.48794706324684056 0.874170418840652
5.1176953125 -0.48722570969831386 0.8729162168242749
5.11884375 -0.4880644301943997 0.8730381603864581
5.1199921875 -0.48802652569607036 0.8731692443187651
5.121140625 -0.48718432591936073 0.8742865974657241
5.1222890625 -0.48673204264984726 0.8739353559100996
5.1234375 -0.48689140841499545 0.8745161850678308
5.1245859375 -0.48661281503983195 0.8752605460491404
5.125734375 -0.4874135751160558 0.874643788788319
5.1268828125 -0.4855869750852141 0.8753257602982976
5.12803125 -0.4858950807486935 0.8752219922037315
5.1291796875 -0.48636689609023354 0.8752916612436611
5.130328125 -0.4858166053710814 0.8744813537023565
5.1314765625 -0.48600864867059085 0.8753506039941268
5.132625 -0.4847219193821425 0.8760116714917136
5.1337734375 -0.48588843254581054 0.8750856335753521
5.134921875 -0.48506508382924285 0.8758179575226099
5.1360703125 -0.48579508237088354 0.8757238008525727
5.13721875 -0.4855021928369314 0.8763310822382278
5.1383671875 -0.4849194551312641 0.8768629903724285
5.139515625 -0.4851006860822596 0.8761124813682001
5.1406640625 -0.4847798009200934 0.8776384503055656
5.1418125 -0.48449412112101187 0.8766300208609048
5.1429609375 -0.4845115675310433 0.8777141497292339
5.144109375 -0.48265702197406596 0.8775694791943969
5.1452578125 -0.4835135981208156 0.8770443556903923
5.14640625 -0.48299106223536603 0.8775309203545474
5.1475546875 -0.4831738450704779 0.8786730900073505
5.148703125 -0.482125997838305 0.8788552564673322
5.1498515625 -0.4835287586024656 0.8796348690620579
5.151 -0.48329860080593023 0.880562223547211
5.1521484375 -0.48247155788561547 0.8802241287902076
5.153296875 -0.4833192374834756 0.8798821057033923
5.1544453125 -0.4821036309313341 0.8804705402452311
5.15559375 -0.4818041535741726 0.8798519250676361
5.1567421875 -0.4807110458843262 0.8784785825875622
5.157890625 -0.48231539604907275 0.8799771176255481
5.1590390625 -0.48354114847854246 0.8807425842784099
5.1601875 -0.48197156015179304 0.8808667682795684
5.1613359375 -0.48197196756054317 0.8814437963763346
5.162484375 -0.48120174839619356 0.8808318707447264
5.1636328125 -0.48187661081407657 0.8806334293818615
5.16478125 -0.4817047638131618 0.8796043229844874
5.1659296875 -0.4810220231721246 0.880769891784818
5.167078125 -0.48103578247963097 0.8808132811748938
5.1682265625 -0.479384876719655 0.8812089861433446
5.169375 -0.4794162634506165 0.8805514116815285
5.1705234375 -0.4796588128413491 0.8805676189186366
5.171671875 -0.4798952230903376 0.879681524764961
5.1728203125 -0.4797691127566873 0.8819479990055894
5.17396875 -0.47901145580248494 0.8816791491936139
5.1751171875 -0.4787238114141257 0.881064501990609
5.176265625 -0.47939690718128763 0.8806659974255888
5.1774140625 -0.48019806557200184 0.8821305040440269
5.1785625 -0.4798143164179294 0.8799227538916136
5.1797109375 -0.47995581283303557 0.8799491806657982
5.180859375 -0.4777374373342825 0.88096576732097
5.1820078125 -0.4791595186478172 0.8813155861266219
5.18315625 -0.4787837157935136 0.8806154860989712
5.1843046875 -0.47845174667865487 0.8818632282526322
5.185453125 -0.47850145593413396 0.8809322960440553
5.1866015625 -0.4779541735073452 0.8813013377122243
5.18775 -0.4777595496525328 0.8812423187812914
5.1888984375 -0.4797025125588244 0.8811136653444621
5.190046875 -0.47895268185399853 0.8820573781006157
5.1911953125 -0.4785703355833846 0.8825096775629535
5.19234375 -0.47683730507984984 0.8823526192327044
5.1934921875 -0.4763232232777927 0.8827682041750945
5.194640625 -0.47623159078563077 0.8830781314652247
5.1957890625 -0.47655115192760117 0.8836984633783614
5.1969375 -0.47528843282197664 0.8831926892325433
5.1980859375 -0.4748217557434572 0.884640010485599
5.199234375 -0.4756562222673525 0.8842256554383361
5.2003828125 -0.47543452768198274 0.883553346076211
5.20153125 -0.4758169590701131 0.8841884449495573
5.2026796875 -0.47521962575990273 0.8853386593899889
5.203828125 -0.4749958461488469 0.8848993478786604
5.2049765625 -0.47363978655444383 0.8837946472270412
5.206125 -0.47337787180136265 0.8831561718223906
5.2072734375 -0.4739024902526455 0.8848776734403777
5.208421875 -0.47416458498802716 0.8837180213730685
5.2095703125 -0.47184326501419727 0.8865834401651234
5.21071875 -0.4709283441882332 0.8861495608618377
5.2118671875 -0.47126985602064914 0.8855684978517142
5.213015625 -0.47285517895628965 0.8874339950663173
5.2141640625 -0.4720323053177523 0.8876430336941341
5.2153125 -0.47132826948865747 0.8869601177583257
5.2164609375 -0.47037738270422264 0.8862958180931766
5.217609375 -0.469676573508732 0.8859376035928229
5.2187578125 -0.468773286631856 0.8870598439541783
5.21990625 -0.4679170766432902 0.88724390427458
5.2210546875 -0.4679671352355352 0.8869402362378366
5.222203125 -0.4665746228519563 0.8880677068960714
5.2233515625 -0.4668842940035025 0.8877772012992842
5.2245 -0.4659830265821077 0.8867887785136019
5.2256484375 -0.46669338457487597 0.8871613979350251
5.226796875 -0.46650958681647037 0.8870758136628066
5.2279453125 -0.46570946703046057 0.8883030093580351
5.22909375 -0.4665901708861475 0.8880821979430686
5.2302421875 -0.4665747838900212 0.8866032851302639
5.231390625 -0.46683369375839356 0.8867404073711371
5.2325390625 -0.46623758579868224 0.8869521242188203
5.2336875 -0.4650284243301217 0.8887752877381222
5.2348359375 -0.4658514088531052 0.8869097171489634
5.235984375 -0.46569061015357105 0.8865196308466113
5.2371328125 -0.4658556049850206 0.8857211876114244
5.23828125 -0.46502045137926823 0.8863578806760991
5.2394296875 -0.46418763909834004 0.8867568268847986
5.240578125 -0.46464592466385113 0.8863759207857557
5.2417265625 -0.46460229555856275 0.886219427738864
5.242875 -0.46426373172755075 0.8872454161283938
5.2440234375 -0.4635584203750933 0.887103478419294
5.245171875 -0.46170151456837194 0.8875443434260286
5.2463203125 -0.4623368372280576 0.8867348900958005
5.24746875 -0.46367919825926723 0.8868865732493925
5.2486171875 -0.4631947522838817 0.8883492698886437
5.249765625 -0.4628976023993793 0.8889337049166586
5.2509140625 -0.4632445867230505 0.8882422288684465
5.2520625 -0.462420423622775 0.8881490630163712
5.2532109375 -0.46325790774162456 0.8881659160940407
5.254359375 -0.4638415472914177 0.8888717029222426
5.2555078125 -0.46293220459363404 0.8887038372520634
5.25665625 -0.4626062313477827 0.8895391046103495
5.2578046875 -0.4613000629796227 0.8893902764776414
5.258953125 -0.4620906854136731 0.888782000206354
5.2601015625 -0.46157657970521926 0.8898395654461505
5.26125 -0.4624819465686054 0.889587585961632
5.2623984375 -0.46230591785631203 0.8901936612016962
5.263546875 -0.4602826429158441 0.891007880698265
5.2646953125 -0.46130324779087495 0.8898274537139916
5.26584375 -0.4600644112953477 0.8893201957111221
5.2669921875 -0.45943053414486495 0.8905040113174143
5.268140625 -0.45927928980374755 0.8904911911726531
5.2692890625 -0.4587102222421854 0.8905606490787621
5.2704375 -0.4590134734845402 0.8892304321182243
5.2715859375 -0.4584920682058195 0.8902300093070843
5.272734375 -0.4588140626638736 0.8911430420125113
5.2738828125 -0.45838368308723343 0.8908945040629795
5.27503125 -0.4581139597148285 0.891158535289576
5.2761796875 -0.4564733534237112 0.8906486336513645
5.277328125 -0.45773041558226124 0.8901847469284334
5.2784765625 -0.4572154742053802 0.8905053336615734
5.279625 -0.45798215338924164 0.8910465062544424
5.2807734375 -0.4566402175876559 0.8912318501536123
5.281921875 -0.4556308795219123 0.8904471688401865
5.2830703125 -0.4554569191833765 0.8908088910562203
5.28421875 -0.45563203152968257 0.8909018001952089
5.2853671875 -0.45597914349310054 0.8916271679367598
5.286515625 -0.45526430464898976 0.8923451869091656
5.2876640625 -0.45452004818483316 0.8921142756292191
5.2888125 -0.45564787140403057 0.8912066907897036
5.2899609375 -0.45582920893919576 0.8929875370986431
5.291109375 -0.45540223830499815 0.8921737940269987
5.2922578125 -0.45498123027171267 0.8925077544066548
5.29340625 -0.45293413156154594 0.893672837241015
5.2945546875 -0.4521904933299276 0.893363803123158
5.295703125 -0.4528729235220476 0.8923867090810432
5.2968515625 -0.45412797442713504 0.8944730877722393
5.298 -0.4543580746559456 0.892702230789339
5.2991484375 -0.45282908844697567 0.8940704052698728
5.300296875 -0.4518639010618364 0.893926926862611
5.3014453125 -0.4518271761233259 0.8929786687911272
5.30259375 -0.45128628776868696 0.8935969317116667
5.3037421875 -0.4515187305846096 0.8933698898649157
5.304890625 -0.45096752627401876 0.8938102295615297
5.3060390625 -0.45063329926591905 0.8937776960147215
5.3071875 -0.4501519215709887 0.8949020842190298
5.3083359375 -0.4510984894315681 0.8936506702740566
5.309484375 -0.4513679640471796 0.8930628417765698
5.3106328125 -0.44934865555121367 0.894043057321543
5.31178125 -0.44842867523515123 0.8936893784631653
5.3129296875 -0.4496107326467794 0.8946888679105979
5.314078125 -0.450606197170921 0.8950595822637385
5.3152265625 -0.4486439015076074 0.8947652701128381
5.316375 -0.44846733551624596 0.8945082896853392
5.3175234375 -0.44758127306856926 0.8938158278798427
5.318671875 -0.4484050755474378 0.8928028161600134
5.3198203125 -0.44676559449060765 0.8947421701413582
5.32096875 -0.4490552512523769 0.8930797662639819
5.3221171875 -0.44827407188751445 0.8938348242141296
5.323265625 -0.446671339625915 0.8937749184325029
5.3244140625 -0.44682795946656384 0.8951212439752714
5.3255625 -0.4470764309683424 0.8944216446817368
5.3267109375 -0.44676916273961387 0.8934347506670608
5.327859375 -0.44533501340469084 0.8949322875704693
5.3290078125 -0.44560992044513065 0.8939556669243086
5.33015625 -0.44487040794130267 0.8942814173214274
5.3313046875 -0.4447757766926403 0.8938652560324221
5.332453125 -0.4468684833223055 0.8941829288791109
5.3336015625 -0.44532887024176027 0.8947743058030889
5.33475 -0.44463353931097715 0.8938805243424408
5.3358984375 -0.44411836593374954 0.8946521537777219
5.337046875 -0.44458543992798716 0.8934210084676101
5.3381953125 -0.44409160955813515 0.8940940298806458
5.33934375 -0.4440304124212508 0.894421652259385
5.3404921875 -0.4437375100906532 0.8941749256225937
5.341640625 -0.44267361442722675 0.8937271611391435
5.3427890625 -0.4446052813702522 0.8942800712888948
5.3439375 -0.4431802567697912 0.8952113989815415
5.3450859375 -0.44264384246094 0.8952836727373585
5.346234375 -0.44204090615892855 0.8952778212997132
5.3473828125 -0.4415661801768369 0.8948655771497966
5.34853125 -0.44189309112234026 0.895669976901717
5.3496796875 -0.4419023222447478 0.8958530848936053
5.350828125 -0.442911763828404 0.8950067556578001
5.3519765625 -0.44149042125323007 0.8958975693099349
5.353125 -0.4400069234372507 0.8968243173652473
5.3542734375 -0.44039263085072694 0.8954660154918225
5.355421875 -0.4403656775023826 0.8952292573062858
5.3565703125 -0.43955059166248556 0.8960518544102608
5.35771875 -0.4405330081689757 0.8963283014591638
5.3588671875 -0.4386234163966117 0.8965455267712226
5.360015625 -0.43903638334082673 0.8965595132199864
5.3611640625 -0.43943220115587495 0.8968840232847989
5.3623125 -0.43941920481447605 0.896361637567285
5.3634609375 -0.43969065696159476 0.8957795680680921
5.364609375 -0.43747303968526663 0.8960048255078257
5.3657578125 -0.43897449341218786 0.8964011868423616
5.36690625 -0.4384562746843883 0.8964097411007643
5.3680546875 -0.4385243545066968 0.8968012938214456
5.369203125 -0.4389996476616021 0.8982773562706534
5.3703515625 -0.4379951964386181 0.8977111057968544
5.3715 -0.4375284748035146 0.8980251893456463
5.3726484375 -0.43783056730742065 0.8986304687587566
5.373796875 -0.4378125887638256 0.8982033754323133
5.3749453125 -0.43706804649647024 0.8967022876744722
5.37609375 -0.4377165967839904 0.8983990439828806
5.3772421875 -0.4378341579191592 0.8983038182348242
5.378390625 -0.4373260562724957 0.8983356144142993
5.3795390625 -0.4374743242124962 0.8987043189746636
5.3806875 -0.4367619259331926 0.8998056681318481
5.3818359375 -0.43702651286601946 0.8992368045203781
5.382984375 -0.43534589172829424 0.8989387375352639
5.3841328125 -0.4362390617506729 0.8987900129640978
5.38528125 -0.4368769065601368 0.8996469670277016
5.3864296875 -0.43645330949980243 0.8993572925146398
5.387578125 -0.43566614798859277 0.900001371369565
5.3887265625 -0.4345490030180191 0.8993795909359982
5.389875 -0.43442096104929584 0.8994356826254614
5.3910234375 -0.43501705852357375 0.8994540393837519
5.392171875 -0.4345719320478638 0.89891259237416
5.3933203125 -0.4344094417682286 0.899291479037549
5.39446875 -0.43358198557467115 0.8993565126350631
5.3956171875 -0.43383291900124527 0.8992727546211429
5.396765625 -0.43314445446428534 0.8995144532161996
5.3979140625 -0.43301773742017424 0.8999022405324862
5.3990625 -0.4322219633845705 0.8998122031456192
5.4002109375 -0.43181926086342515 0.8985785724937931
5.401359375 -0.4316106439363358 0.8996726178838396
5.4025078125 -0.4317673688696385 0.9000684330015205
5.40365625 -0.4317682989856738 0.8992906976286237
5.4048046875 -0.43222202757668926 0.898694199094504
5.405953125 -0.4311718825934231 0.8994457592130881
5.4071015625 -0.4294827163704474 0.8982820502266678
5.40825 -0.43147621441011497 0.8983606016488932
5.4093984375 -0.4293559359659051 0.8989346103221475
5.410546875 -0.4307671908237144 0.8999130376726564
5.4116953125 -0.42949925090928665 0.9003641068126036
5.41284375 -0.4286408833737109 0.8994331780192066
5.4139921875 -0.42933423259826226 0.8989757776925071
5.415140625 -0.4294662366988934 0.8988409514607656
5.4162890625 -0.4284725149180966 0.8992281417743309
5.4174375 -0.4286745387700458 0.8995489265377464
5.4185859375 -0.4283019198792539 0.8989300386091608
5.419734375 -0.42852557888563947 0.898889608996317
5.4208828125 -0.42873250113154676 0.9005590560800761
5.42203125 -0.4284277132302696 0.8997593876746804
5.4231796875 -0.4279754312008275 0.900877559952975
5.424328125 -0.4266626988696365 0.9013394635958758
5.4254765625 -0.4273968264381343 0.9000498449720383
5.426625 -0.4272695697318987 0.9002905072353768
5.4277734375 -0.4272424728678514 0.9002475850825443
5.428921875 -0.4277063008128245 0.9007340878459896
5.4300703125 -0.4269972347918744 0.900827888144314
5.43121875 -0.42784737430690056 0.9021413524833091
5.4323671875 -0.426607861580898 0.9013138117758432
5.433515625 -0.42559928736613484 0.9020132726359497
5.4346640625 -0.4261070857110012 0.9017918697359631
5.4358125 -0.4248440431274057 0.901791474039246
5.4369609375 -0.4257872619824929 0.9006005024707234
5.438109375 -0.42655644544895316 0.8997778712621679
5.4392578125 -0.42547022672505197 0.9007407830940397
5.44040625 -0.4253789703736889 0.9011297729396699
5.4415546875 -0.42446741258991827 0.9014979262483186
5.442703125 -0.4233484583269649 0.901969375164248
5.4438515625 -0.4241880225940733 0.9007683299969742
5.445 -0.4252657750135265 0.8999395396457063
5.4461484375 -0.42433049032600256 0.9012743122028682
5.447296875 -0.42346946236714134 0.9018007621325116
5.4484453125 -0.4229637889527581 0.9021824689142246
5.44959375 -0.4230657261425578 0.9019887801871632
5.4507421875 -0.42282880395783085 0.9025988807965988
5.451890625 -0.4231153306697683 0.9026613985123706
5.4530390625 -0.4237176090058818 0.9017234986749698
5.4541875 -0.4222802310188365 0.9013019040301753
5.4553359375 -0.42275623987264577 0.9015583690594366
5.456484375 -0.4234882631433447 0.9015278530461238
5.4576328125 -0.4234904925557215 0.9016952332425293
5.45878125 -0.42337280592114046 0.9014606751708668
5.4599296875 -0.42274384972389667 0.9029696614679404
5.461078125 -0.4229490687323462 0.9022634413298226
5.4622265625 -0.42366630343053935 0.9028530734720445
5.463375 -0.4244688478116813 0.9029851106355704
5.4645234375 -0.42396727782154 0.9031379809577167
5.465671875 -0.4233419898499886 0.903847583724398
5.4668203125 -0.42256849829130333 0.9033839929466522
5.46796875 -0.4228925652536897 0.9034661515185085
5.4691171875 -0.42250984296161376 0.9031997465371755
5.470265625 -0.42269419879046843 0.903729183319332
5.4714140625 -0.4215922843018405 0.904152627023069
5.4725625 -0.42162673859054617 0.904374646440878
5.4737109375 -0.42156795384751633 0.904287644142487
5.474859375 -0.42100861170410386 0.9043961655932905
5.4760078125 -0.42121231859270647 0.9048022034886983
5.47715625 -0.4199327163672399 0.9053582743455557
5.4783046875 -0.41900238599555406 0.9045669897991345
5.479453125 -0.4199379239569471 0.9047606736918585
5.4806015625 -0.418397385314521 0.9050705935233406
5.48175 -0.41796888090299433 0.9043264453004247
5.4828984375 -0.418167300285196 0.9047199575938565
5.484046875 -0.4171168356769603 0.9056014701989622
5.4851953125 -0.41739122722436484 0.9052545786883014
5.48634375 -0.4167456589098242 0.9044846727680479
5.4874921875 -0.4168098113660222 0.9046896761321953
5.488640625 -0.4173063074109484 0.9046209213241179
5.4897890625 -0.41592105355616105 0.9047568670741757
5.4909375 -0.4164162790187075 0.9046295021133712
5.4920859375 -0.41626417490480827 0.9057241100744964
5.493234375 -0.4168452857533424 0.9069004218595813
5.4943828125 -0.416521759699147 0.906711825495148
5.49553125 -0.41682286989333284 0.9075908949702365
5.4966796875 -0.4148953088169798 0.9076632967516426
5.497828125 -0.41518240002958995 0.9061789602603731
5.4989765625 -0.415231849515958 0.9075978410891106
5.500125 -0.415535194243458 0.9069608446855858
5.5012734375 -0.41337395208820005 0.9076274595608356
5.502421875 -0.41382443158149124 0.9064169759577364
5.5035703125 -0.41318587006673246 0.9073812645664248
5.50471875 -0.413406544474909 0.9079069704447982
5.5058671875 -0.4129292306298161 0.9073674586066408
5.507015625 -0.4121558145188219 0.9071240073370151
5.5081640625 -0.4125682254396926 0.9077514001646065
5.5093125 -0.4125227833667838 0.9065765483273968
5.5104609375 -0.4131118520663979 0.9060621548292556
5.511609375 -0.41196377681485685 0.9071361001181135
5.5127578125 -0.4104465505578711 0.9072917424668194
5.51390625 -0.41027296090494547 0.9067466324728315
5.5150546875 -0.4102809616535942 0.9065295956821281
5.516203125 -0.41000262566878926 0.9071608432519301
5.5173515625 -0.40965893291735045 0.9065745698459303
5.5185 -0.40964754341763276 0.9068356509453662
5.5196484375 -0.4094949401240079 0.9057662546021654
5.520796875 -0.40807958479305617 0.9065479072532433
5.5219453125 -0.4096720449663716 0.9054075756158863
5.52309375 -0.40855028593578024 0.9071321226428017
5.5242421875 -0.40756621981110763 0.9079372004541927
5.525390625 -0.4070289419909414 0.907920531687537
5.5265390625 -0.4085156172857242 0.9072465855876461
5.5276875 -0.4082629141997845 0.9070533357818278
5.5288359375 -0.40872577441986796 0.9081832594860416
5.529984375 -0.4089907731845379 0.9081670466319738
5.5311328125 -0.40841378444709375 0.9086863722553499
5.53228125 -0.4076331458157102 0.9092740554558958
5.5334296875 -0.4076629844587027 0.9098752101962627
5.534578125 -0.40747620013718117 0.9087230121188021
5.5357265625 -0.4056017679868913 0.9077358289824542
5.536875 -0.4044376147452453 0.908578883845531
5.5380234375 -0.40520174737391745 0.9090057431155018
5.539171875 -0.40628831752755745 0.9082625327260562
5.5403203125 -0.406730388725001 0.9080288589602095
5.54146875 -0.4060867604686073 0.9082557741736379
5.5426171875 -0.4067679784819061 0.9091803398424604
5.543765625 -0.40522362017226427 0.9085506825730683
5.5449140625 -0.4049838514259859 0.9085545105522919
5.5460625 -0.40528553521957944 0.9090686181853784
5.5472109375 -0.4049793579739254 0.9078002270186978
5.548359375 -0.40579782088928396 0.9075761824545038
5.5495078125 -0.4045902619180543 0.9077364247967504
5.55065625 -0.4053786298642231 0.9080255951263418
5.5518046875 -0.4048186958170622 0.9074779249128035
5.552953125 -0.4044257501182308 0.9083860077148163
5.5541015625 -0.40372365785460634 0.9083961779896207
5.55525 -0.4028434426744165 0.908319526369778
5.5563984375 -0.40452953453638085 0.908230246502369
5.557546875 -0.40404857084540236 0.9086973595225847
5.5586953125 -0.4051556927017331 0.9088332487059424
5.55984375 -0.40393521399137583 0.9100838534638698
5.5609921875 -0.40280440906568943 0.9105301110819249
5.562140625 -0.40252943938559216 0.9097404323561729
5.5632890625 -0.40308825334444387 0.9103057097493654
5.5644375 -0.40292665312208 0.9114576971990181
5.5655859375 -0.40315986068381826 0.9107869272501158
5.566734375 -0.40248250955239456 0.9118228153937903
5.5678828125 -0.4026757418622739 0.9113861723387784
5.56903125 -0.4023713438745591 0.9117438052977653
5.5701796875 -0.40213908075757804 0.9110757275973657
5.571328125 -0.40062937923761005 0.9114194817749497
5.5724765625 -0.4005039690543972 0.9112065535944148
5.573625 -0.40160579446761574 0.9119634281909885
5.5747734375 -0.4004738786738823 0.9105149402343027
5.575921875 -0.3999344547186164 0.9109683062612347
5.5770703125 -0.40069693217692687 0.910125190663104
5.57821875 -0.4007069668045412 0.9100489208514866
5.5793671875 -0.3989017384872407 0.9115025513021855
5.580515625 -0.3981782379251257 0.9115208493861909
5.5816640625 -0.3984212969333921 0.911917849966437
5.5828125 -0.3999312049650422 0.9113540143739529
5.5839609375 -0.3992698932630128 0.9111104221886889
5.585109375 -0.39905897190041634 0.9116955981593428
5.5862578125 -0.3978998831132612 0.9133033090113839
5.58740625 -0.39855518000350465 0.9130511124463494
5.5885546875 -0.3978377721236179 0.9127470684546323
5.589703125 -0.3967207822135631 0.9126527240477825
5.5908515625 -0.3974898373161425 0.9114907688178386
5.592 -0.3965707585358094 0.9120915166050858
5.5931484375 -0.39707206187459176 0.9106423978376177
5.594296875 -0.3974965455977034 0.9122288215649018
5.5954453125 -0.3966591243964619 0.9127583133047908
5.59659375 -0.3957183792629517 0.911848436498273
5.5977421875 -0.39598887586288073 0.9121295624431841
5.598890625 -0.39720803640364066 0.9119088027809235
5.6000390625 -0.3975495155465507 0.9113883662488715
5.6011875 -0.3978274647038492 0.9118709273355932
5.6023359375 -0.39623883885175226 0.912043029774189
5.603484375 -0.3957078613308723 0.9117006610076371
5.6046328125 -0.3952915815731306 0.91219534967481
5.60578125 -0.39651657435683507 0.9128535632675527
5.6069296875 -0.3962678433452177 0.9128805296763112
5.608078125 -0.3957223240405048 0.9121581496344544
5.6092265625 -0.39599469492704525 0.9123027912444526
5.610375 -0.3967736711985681 0.9129042471433253
5.6115234375 -0.3953558266855925 0.9131607391135914
5.612671875 -0.395836259602868 0.9148091209151124
5.6138203125 -0.39399037329627473 0.9144152926417779
5.61496875 -0.3940348318206583 0.9149043606162062
5.6161171875 -0.3934847652773773 0.9145277421649877
5.617265625 -0.3939496442527396 0.9153925925816733
5.6184140625 -0.3932604576905054 0.9143667780429539
5.6195625 -0.3927721224154929 0.9142632286779526
5.6207109375 -0.39310492851985657 0.9140581649758881
5.621859375 -0.39217745991190633 0.9141778858368754
5.6230078125 -0.3917194037106161 0.9145596583620621
5.62415625 -0.39201390118165463 0.9146049991886496
5.6253046875 -0.39164129271518966 0.9148094329553575
5.626453125 -0.3913605158657102 0.9139850774942725
5.6276015625 -0.3911542322021633 0.9150972786434943
5.62875 -0.3916925742601751 0.9150005766864374
5.6298984375 -0.3916414333249608 0.9155189318440446
5.631046875 -0.3913347059865077 0.915892847913738
5.6321953125 -0.3904959197777058 0.9162886005099239
5.63334375 -0.39009164522944767 0.9158749270324966
5.6344921875 -0.38990055893270203 0.9164740466666011
5.635640625 -0.3898901030805326 0.9162423301916901
5.6367890625 -0.3894777896817533 0.916430743661576
5.6379375 -0.3889952665770808 0.9160928474503077
5.6390859375 -0.3891656471038289 0.9164076388876382
5.640234375 -0.38873585221494666 0.9162867084805357
5.6413828125 -0.3891010253879263 0.9172816749557333
5.64253125 -0.38921024692797224 0.9178704666479099
5.6436796875 -0.38913690937455614 0.9173883692967395
5.644828125 -0.3886097856342547 0.916876703855052
5.6459765625 -0.3885329651186802 0.9163448536545593
5.647125 -0.38895339299289045 0.9168083335639369
5.6482734375 -0.38830439459513816 0.9171313018751788
5.649421875 -0.38836750044427537 0.916812598755748
5.6505703125 -0.38802669971857007 0.9179236518956241
5.65171875 -0.38767888978655696 0.9173283408202766
5.6528671875 -0.38731540072818466 0.917057005531406
5.654015625 -0.3866819635812923 0.9173540583469516
5.6551640625 -0.3872761108676498 0.9182433025375799
5.6563125 -0.38624478817732233 0.9179229380212598
5.6574609375 -0.38617549214462976 0.918258490062492
5.658609375 -0.3855454402081882 0.9184218746406098
5.6597578125 -0.384846702721182 0.9189755500388148
5.66090625 -0.38420328960528694 0.9194013119881432
5.6620546875 -0.38457372360788133 0.9186889185735235
5.663203125 -0.38491187423700535 0.918411826598108
5.6643515625 -0.38457491259538346 0.9177216402891579
5.6655 -0.3844632099666859 0.9183949485523248
5.6666484375 -0.38439851236247435 0.91889208175625
5.667796875 -0.38387479309994976 0.9187656661207206
5.6689453125 -0.3837602065861443 0.9195642015877049
5.67009375 -0.38378708440651316 0.9200241152173216
5.6712421875 -0.38366090964582 0.9195058942797234
5.672390625 -0.3833997624045879 0.9195963814422816
5.6735390625 -0.3828963766665202 0.9199377592279779
5.6746875 -0.3832707871971037 0.9197992180926446
5.6758359375 -0.38247745406096395 0.9204340502485762
5.676984375 -0.3820272263338829 0.92069158451931
5.6781328125 -0.3821169518726725 0.9205722230520826
5.67928125 -0.3809690090767383 0.9199967027065976
5.6804296875 -0.3810889466374465 0.920723091890153
5.681578125 -0.38114195071305634 0.9200096209534808
5.6827265625 -0.3803187831650433 0.9202415077398144
5.683875 -0.38055093312207616 0.9200415698674261
5.6850234375 -0.381218087132012 0.9202589964383139
5.686171875 -0.3806332473824312 0.9207004364770344
5.6873203125 -0.38081144317492255 0.9204094083257719
5.68846875 -0.38082192992377845 0.9207398884882437
5.6896171875 -0.3801508348423119 0.9205060951611275
5.690765625 -0.37950277948229927 0.9204483715688196
5.6919140625 -0.379790450220725 0.9199947122103967
5.6930625 -0.3792587152869033 0.9202882504359122
5.6942109375 -0.3801746653501403 0.9214883195616321
5.695359375 -0.3790021250461178 0.9219490222108733
5.6965078125 -0.3800580771878079 0.9218752697670458
5.69765625 -0.3800529434745538 0.9218592412614557
5.6988046875 -0.37868698418153635 0.9215611027460273
5.699953125 -0.3791154317287937 0.9215968774336443
5.7011015625 -0.3796050835294149 0.9212104821962653
5.70225 -0.37780588107944757 0.9210281092217434
5.7033984375 -0.37939129114803477 0.9224024403961772
5.704546875 -0.378358671838037 0.923056659515984
5.7056953125 -0.3777120607197667 0.9224117868569169
5.70684375 -0.3784673129294668 0.9221211384720666
5.7079921875 -0.3787208542887594 0.9228613861748148
5.709140625 -0.3789564106839874 0.9226205903957998
5.7102890625 -0.37791202949143554 0.9224059634806144
5.7114375 -0.3771677540595084 0.9215033580673525
5.7125859375 -0.3763325659794058 0.9228336574947505
5.713734375 -0.37704497487031385 0.9229468273186417
5.7148828125 -0.37715811311250974 0.9228060298891786
5.71603125 -0.3771681462428733 0.922535092546029
5.7171796875 -0.37707249539383453 0.9221795317183559
5.718328125 -0.3770551006707682 0.9223044568875143
5.7194765625 -0.3772873207682076 0.9228428734450573
5.720625 -0.37748272173452513 0.9243454258711977
5.7217734375 -0.377290154630081 0.9233946634185622
5.722921875 -0.37669203611792546 0.9243359300932533
5.7240703125 -0.3762751801247496 0.9232552297596648
5.72521875 -0.3773603865018552 0.9240283513786849
5.7263671875 -0.37576729291143085 0.9235426640738336
5.727515625 -0.37652623809371366 0.9241311808735655
5.7286640625 -0.3762226174311454 0.9247999988651645
5.7298125 -0.3751735671225093 0.9248628320462933
5.7309609375 -0.3754637434331429 0.9270157936650605
5.732109375 -0.37505652732906913 0.9263044383234451
5.7332578125 -0.3748438930759844 0.9265807208883942
5.73440625 -0.3747014766898229 0.9276940104141459
5.7355546875 -0.37427474382335774 0.9278068562077405
5.736703125 -0.37383319501802675 0.9275824077434274
5.7378515625 -0.3730287219217293 0.9286744413185521
5.739 -0.3715881164341094 0.9286808413333019
5.7401484375 -0.37193714378076875 0.9297335384788903
5.741296875 -0.3713131646307521 0.9290705950662836
5.7424453125 -0.3706054394987133 0.9293131449718113
5.74359375 -0.3694525725604819 0.9283932931271324
5.7447421875 -0.37008147226863675 0.9288491565811965
5.745890625 -0.3704721973493065 0.9288946014645105
5.7470390625 -0.3684403836642546 0.9290095466583653
5.7481875 -0.36894794022540756 0.9291474041164772
5.7493359375 -0.3690667770228172 0.9300691183782817
5.750484375 -0.36779441218100506 0.9291158383757031
5.7516328125 -0.3681761459164412 0.9297899051695042
5.75278125 -0.366847022267219 0.9304636344773998
5.7539296875 -0.36782923512062154 0.9302508448414972
5.755078125 -0.36698459804029165 0.9290222079050279
5.7562265625 -0.3679537955301207 0.9293681382914013
5.757375 -0.36671877872040454 0.9299574132003972
5.7585234375 -0.366087651893114 0.9295055006346423
5.759671875 -0.36569139969268455 0.929717245266351
5.7608203125 -0.3656411798567231 0.9294401856200897
5.76196875 -0.3660534246758097 0.9290264734682223
5.7631171875 -0.3653919204275276 0.9301945419587776
5.764265625 -0.3656454299106925 0.928851723196043
5.7654140625 -0.36536644874694596 0.9289528518220246
5.7665625 -0.364234330440658 0.9294684101280891
5.7677109375 -0.3647733112401497 0.9297149244080414
5.768859375 -0.3651990857910603 0.9300958585136855
5.7700078125 -0.3638375643454259 0.9298235507807096
5.77115625 -0.3629248323756348 0.9305083777364647
5.7723046875 -0.3627398721452661 0.9295074896330631
5.773453125 -0.3629267766525642 0.9287064201679228
5.7746015625 -0.3627852744925904 0.9302978031736935
5.77575 -0.36281442133610764 0.9305594507902532
5.7768984375 -0.3619456833076009 0.9303579901459145
5.778046875 -0.36264846269595474 0.9302697717668278
5.7791953125 -0.3626132155826207 0.9308226621853263
5.78034375 -0.36295058427786364 0.9302628860346861
5.7814921875 -0.3614176996774042 0.930536497020754
5.782640625 -0.36153385034107816 0.9307770570036796
5.7837890625 -0.36072650124203437 0.9312018262786456
5.7849375 -0.36005240650018344 0.9304512904649712
5.7860859375 -0.35992048703419877 0.9306681379125057
5.787234375 -0.36056556263996214 0.9308350101771459
5.7883828125 -0.3602305845447012 0.9306425801914
5.78953125 -0.3603618284191151 0.9306832129943307
5.7906796875 -0.359939079860112 0.9300749181197644
5.791828125 -0.3599168153228052 0.9309661552336096
5.7929765625 -0.3592797201620085 0.9315148846793382
5.794125 -0.3581518933976671 0.9309091697535143
5.7952734375 -0.35860885380668905 0.9309588587356503
5.796421875 -0.3576441803827827 0.9304807819473899
5.7975703125 -0.3577436693647938 0.9308664622919199
5.79871875 -0.35838001014514304 0.9310927879040013
5.7998671875 -0.3572591964771279 0.9314171346284942
5.801015625 -0.35663268273507354 0.9324553716367545
5.8021640625 -0.3553666413081866 0.9322559893736658
5.8033125 -0.35526026936236726 0.9315895836358401
5.8044609375 -0.3554847997986161 0.93239062902396
5.805609375 -0.3548314097227001 0.932373218115525
5.8067578125 -0.3546351969789779 0.9313842106802811
5.80790625 -0.35565205036803754 0.9316888439670028
5.8090546875 -0.35527147390538555 0.9321573182253906
5.810203125 -0.3546103150701866 0.9332593344500255
5.8113515625 -0.3543741493442339 0.933421461742912
5.8125 -0.35389080093752656 0.9331288699693016
5.8136484375 -0.3536268324735552 0.9325487031791757
5.814796875 -0.35312856383940927 0.9328180831634166
5.8159453125 -0.35407080906254507 0.9327926279479102
5.81709375 -0.3541396560400062 0.9332765787560932
5.8182421875 -0.3525124086937878 0.9327847544181671
5.819390625 -0.3514767432350038 0.9329426132564484
5.8205390625 -0.3527910340345487 0.9334199804228462
5.8216875 -0.353302945865355 0.9333973819367416
5.8228359375 -0.35208288485921346 0.9327629415501429
5.823984375 -0.3515832889761765 0.9325088162408264
5.8251328125 -0.3511445595724208 0.9320045753832907
5.82628125 -0.35139920389886187 0.9318228929859731
5.8274296875 -0.3513911527180506 0.9329670230022351
5.828578125 -0.35082765388024006 0.9340167127255887
5.8297265625 -0.3501244747351972 0.9324841534432282
5.830875 -0.34889687864819063 0.9332543488997276
5.8320234375 -0.349399333720241 0.9329589252770217
5.833171875 -0.34847060977658584 0.9326916910795754
5.8343203125 -0.3485179059422433 0.9335917490015834
5.83546875 -0.348762220470126 0.9338032863625526
5.8366171875 -0.3484553638267264 0.9329718255681815
5.837765625 -0.34742524898954247 0.9324575486030972
5.8389140625 -0.3468417260585385 0.9342629481579705
5.8400625 -0.3469656498981465 0.9343975270474033
5.8412109375 -0.34658604627148726 0.933903479302881
5.842359375 -0.3471081008318817 0.9332023063805456
5.8435078125 -0.3471244976131183 0.9336564773308259
5.84465625 -0.34758932043847623 0.9341454465268346
5.8458046875 -0.34798733910550533 0.9347600214678121
5.846953125 -0.3472022604559585 0.9350933697481317
5.8481015625 -0.34646890515358175 0.9351174657066663
5.84925 -0.3455051481801698 0.9355856537651098
5.8503984375 -0.3464835973190351 0.935533747917188
5.851546875 -0.34615771892243824 0.9347545799413993
5.8526953125 -0.3451427250476306 0.9344657945708367
5.85384375 -0.34475306789815124 0.9350675559215316
5.8549921875 -0.3452881498475929 0.9340647718240169
5.856140625 -0.3450663291223668 0.9337194871475376
5.8572890625 -0.34549451944279175 0.9348855504414706
5.8584375 -0.3456706386801658 0.9342755007076383
5.8595859375 -0.34471462496344885 0.9346689904783675
5.860734375 -0.34372885820946264 0.9349204761165155
5.8618828125 -0.3439828328674831 0.9344283416346242
5.86303125 -0.3442360264752556 0.9342434594489308
5.8641796875 -0.34377230807256 0.9353691870207844
5.865328125 -0.3438014836643438 0.9347751685877617
5.8664765625 -0.34327788658882025 0.9338537146063619
5.867625 -0.3432011135016032 0.9337407946541293
5.8687734375 -0.3426824399919548 0.9347830174162587
5.869921875 -0.34323659700774833 0.9349793000712607
5.8710703125 -0.34204161384216186 0.9357272166358025
5.87221875 -0.3415591359272888 0.9345838435839332
5.8733671875 -0.34066661002285464 0.9344892898852536
5.874515625 -0.34043119507080505 0.9345410449205406
5.8756640625 -0.3407886730672013 0.9355904256019947
5.8768125 -0.33961809555135125 0.9356558492053083
5.8779609375 -0.3395614928027874 0.9349750584126962
5.879109375 -0.3396114223595701 0.9349668701113877
5.8802578125 -0.34020974496192335 0.9340649040318596
5.88140625 -0.3394869516556158 0.9341387452206845
5.8825546875 -0.33998627429688333 0.934027108933336
5.883703125 -0.339050558477505 0.9350328852488611
5.8848515625 -0.3393927446220682 0.9343932484143853
5.886 -0.3388622175767241 0.9345266528110516
5.8871484375 -0.3388826831140257 0.9342450372407622
5.888296875 -0.3384517472609898 0.9357810268240447
5.8894453125 -0.336874770060977 0.935726479897395
5.89059375 -0.3356256114133719 0.9357460315571686
5.8917421875 -0.33654128512356396 0.9355929060251583
5.892890625 -0.3371546580322188 0.9349116937740092
5.8940390625 -0.3377601922091741 0.9358917967082111
5.8951875 -0.3374798682417597 0.9361700878375983
5.8963359375 -0.33607370232193323 0.9356431900778058
5.897484375 -0.3363972067258738 0.9352915944717557
5.8986328125 -0.33682509228661583 0.9342325650096074
5.89978125 -0.33840449685296414 0.9360000433985585
5.9009296875 -0.33655873356674526 0.9351130709994807
5.902078125 -0.3359950977447418 0.9350324070609608
5.9032265625 -0.3354293489473169 0.9355636680361804
5.904375 -0.3339548306157361 0.9359480946112108
5.9055234375 -0.33521453060478884 0.9361061275524576
5.906671875 -0.3347697167805907 0.9359275549551619
5.9078203125 -0.3332478282192195 0.9359944587004476
5.90896875 -0.3319587388276623 0.9349910954079218
5.9101171875 -0.33307341698374093 0.9366395330993551
5.911265625 -0.3339556312349915 0.9366209860708755
5.9124140625 -0.33312283627877354 0.9366132509287499
5.9135625 -0.33248210035423165 0.9357631390447496
5.9147109375 -0.3328436861133319 0.9365890498874003
5.915859375 -0.33284144656329395 0.9364789912221633
5.9170078125 -0.33367398415436456 0.9362341640595786
5.91815625 -0.33283362377589143 0.9377341002563593
5.9193046875 -0.3332163981064832 0.9370667094145869
5.920453125 -0.3315725828448791 0.937296978586503
5.9216015625 -0.3320514775481772 0.9374636812942323
5.92275 -0.33291939858872394 0.937202370912146
5.9238984375 -0.3329414950439422 0.9365089329489997
5.925046875 -0.3325106446908743 0.936260999779015
5.9261953125 -0.3331150979134754 0.9363638184064327
5.92734375 -0.33252458153557535 0.9366058134699269
5.9284921875 -0.3323702696661863 0.9367119510975099
5.929640625 -0.3334258873135665 0.9375680546401257
5.9307890625 -0.33205452216506953 0.9362133227144279
5.9319375 -0.3321686475651033 0.9372350090609467
5.9330859375 -0.331422699914191 0.9369275488459157
5.934234375 -0.3319329079444354 0.9373638980357376
5.9353828125 -0.3338598919587722 0.9358947606930783
5.93653125 -0.3319119568791083 0.9348100349530263
5.9376796875 -0.3321289960950822 0.9350835625945014
5.938828125 -0.33077721369080204 0.9363361117233201
5.9399765625 -0.33174569691308403 0.9348999607974167
5.941125 -0.331508118319865 0.9372334161699305
5.9422734375 -0.33029295656116253 0.9365070851594159
5.943421875 -0.3298934637858213 0.9368293368545078
5.9445703125 -0.3310129548522957 0.9373045079122775
5.94571875 -0.3301175239587205 0.9372015169784775
5.9468671875 -0.3306357214637454 0.9370175896800815
5.948015625 -0.3300828883690058 0.9371203444227225
5.9491640625 -0.3284474895423948 0.9367105988970272
5.9503125 -0.32841058635564974 0.9366911387118775
5.9514609375 -0.32829380378937334 0.9375618603304924
5.952609375 -0.3286933972132566 0.9370082021302395
5.9537578125 -0.329050358400013 0.9370717058937462
5.95490625 -0.32858967993013655 0.9379474516223812
5.9560546875 -0.3272966180339263 0.9375969192299358
5.957203125 -0.3265967181570202 0.9379489210725553
5.9583515625 -0.32619506206030957 0.9381470403292307
5.9595 -0.3260656041245459 0.9387779761541271
5.9606484375 -0.3251565013153122 0.938518189292909
5.961796875 -0.3258618829042251 0.9374877090639164
5.9629453125 -0.3248955807332475 0.9377059974554853
5.96409375 -0.3248626813303213 0.9380272388054545
5.9652421875 -0.3259434480550695 0.9384666833587724
5.966390625 -0.32486857750014897 0.9384782445123299
5.9675390625 -0.32406538541125934 0.9392347271719335
5.9686875 -0.3244095431484251 0.9375547803280784
5.9698359375 -0.32444985511436 0.9367017155820756
5.970984375 -0.3255075898316236 0.9367386473863455
5.9721328125 -0.32341530138690633 0.9368338755194712
5.97328125 -0.3234245359032506 0.9379050658492959
5.9744296875 -0.3234342243889879 0.9372000450341875
5.975578125 -0.32214212771878625 0.937607357040842
5.9767265625 -0.3237543430967736 0.9383619060617121
5.977875 -0.32330269402852274 0.9378310771610481
5.9790234375 -0.3235952444700326 0.9376127823446261
5.980171875 -0.3242927580278189 0.9381242303141968
5.9813203125 -0.32443500681926646 0.9371650020012835
5.98246875 -0.32529022609359803 0.9370056727394414
5.9836171875 -0.3246735294559201 0.937158039940754
5.984765625 -0.3250312226937853 0.9366569554418329
5.9859140625 -0.3243795337358548 0.9377135450204529
5.9870625 -0.3244790387306129 0.9390834763957581
5.9882109375 -0.32575046392714124 0.937643983863628
5.989359375 -0.3255410989840489 0.9389390117000868
5.9905078125 -0.32580337136194937 0.9399249578812298
5.99165625 -0.3254364082682954 0.9384073067175903
5.9928046875 -0.3251395951049453 0.9399616733470221
5.993953125 -0.325375464820145 0.9389587467977805
5.9951015625 -0.325560524727314 0.9391340819992
5.99625 -0.325136122616265 0.9391180899430324
5.9973984375 -0.32555133604217884 0.9401429452883902
5.998546875 -0.3254691186425681 0.9421752172472928
5.9996953125 -0.32648686189377346 0.9415248759220707
6.00084375 -0.3262236357817887 0.9422180566003017
6.0019921875 -0.3258365147342435 0.9424643943941534
6.003140625 -0.3261056860431179 0.9423135977677186
6.0042890625 -0.32618307057839707 0.942538881098532
6.0054375 -0.3266697582923164 0.9428631455150661
6.0065859375 -0.32457522388758786 0.942378557213696
6.007734375 -0.32451902902330526 0.9442099801949277
6.0088828125 -0.3249820563486952 0.9453792088164881
6.01003125 -0.32458947145103306 0.9449516604807848
6.0111796875 -0.3253109726002274 0.9445561759600944
6.012328125 -0.32472446942614575 0.9460247112065084
6.0134765625 -0.3245576683944396 0.945371651142231
6.014625 -0.3231755336792394 0.9466087979475779
6.0157734375 -0.32265192938387344 0.9475613597837829
6.016921875 -0.32349252516774785 0.9472730145901261
6.0180703125 -0.3226855109110576 0.9468016977147549
6.01921875 -0.32156827565113566 0.9474132110014193
6.0203671875 -0.3211224361056899 0.9471884748981872
6.021515625 -0.320411192665094 0.947081966440687
6.0226640625 -0.3221344179154707 0.9477824803347826
6.0238125 -0.32060024722517977 0.9485305503219967
6.0249609375 -0.3200427391072654 0.9477670842284369
6.026109375 -0.3204025140673935 0.9483884354700326
6.0272578125 -0.3188589044834505 0.9485210584381468
6.02840625 -0.3210390989724844 0.949351266559411
6.0295546875 -0.31961300754097394 0.9491224167703813
6.030703125 -0.3190936474799212 0.9487026678468464
6.0318515625 -0.3189225209015666 0.9475607063448195
6.033 -0.31806656338378825 0.9475717345924677
6.0341484375 -0.31888440540741486 0.9481444338871676
6.035296875 -0.319098009409252 0.9484525764935093
6.0364453125 -0.31818537907469885 0.9481477891256548
6.03759375 -0.3175198609906401 0.9477283357145758
6.0387421875 -0.3165501801679208 0.9475000152864091
6.039890625 -0.317681228073894 0.9483603171759524
6.0410390625 -0.3173460802157478 0.9483537256751454
6.0421875 -0.3171676577130085 0.9487732340499875
6.0433359375 -0.3167393329332062 0.9495675751154359
6.044484375 -0.3144805724271351 0.9498392003903604
6.0456328125 -0.314823402549716 0.949183960907452
6.04678125 -0.3157986306049082 0.9490398970272719
6.0479296875 -0.3149157382446839 0.9495278680634437
6.049078125 -0.3145972868012843 0.949738335623541
6.0502265625 -0.315129576232402 0.9499855942459674
6.051375 -0.31464706953843324 0.9503008302053669
6.0525234375 -0.3148420949077344 0.9517308334234098
6.053671875 -0.3128067761023302 0.951627832962286
6.0548203125 -0.3133317083677864 0.9510940412026408
6.05596875 -0.3130922211946305 0.9509913341718285
6.0571171875 -0.31209034967232435 0.9512054221592794
6.058265625 -0.31429215707335073 0.951669530761455
6.0594140625 -0.31292156578096153 0.9514714786567889
6.0605625 -0.31307760226841036 0.9514377317527163
6.0617109375 -0.3122449063423304 0.9513976595588782
6.062859375 -0.3117509929776232 0.9529703454202013
6.0640078125 -0.3121600440081466 0.953244592295922
6.06515625 -0.31214426038351667 0.9535052055126508
6.0663046875 -0.3106721809167009 0.953313234862377
6.067453125 -0.31026348042911844 0.9537415567525092
6.0686015625 -0.3101629804761636 0.9536356159469641
6.06975 -0.3114353969071065 0.9528546209671969
6.0708984375 -0.3113744496488517 0.9538543170450405
6.072046875 -0.3103322832360807 0.9541772375006871
6.0731953125 -0.30997123731709697 0.954579330936129
6.07434375 -0.3090295933353162 0.9538099378432701
6.0754921875 -0.30876498613026915 0.9541814339968654
6.076640625 -0.30897750890487286 0.955480716067715
6.0777890625 -0.30944998805635154 0.9543221816612817
6.0789375 -0.3082299311521148 0.954433959973475
6.0800859375 -0.3081070961842386 0.9545441664081168
6.081234375 -0.3067263240236972 0.9548512999285057
6.0823828125 -0.3076499194914525 0.9560106032247616
6.08353125 -0.30642759513507634 0.9560646588810149
6.0846796875 -0.305779842339199 0.9547055804114354
6.085828125 -0.3056641455817061 0.9546963860039426
6.0869765625 -0.3051617448235051 0.955452423566099
6.088125 -0.30647473269110276 0.9563617267034983
6.0892734375 -0.3049745676555816 0.9564068715120505
6.090421875 -0.30563175862976155 0.9550327170644707
6.0915703125 -0.30530262094837385 0.9563266383450835
6.09271875 -0.30486772097867865 0.9557041843925344
6.0938671875 -0.30692772081048975 0.9564817090884018
6.095015625 -0.30591709067101625 0.9555808133955477
6.0961640625 -0.30640983239841435 0.9559553223829125
6.0973125 -0.30566081027470776 0.9568522749788285
6.0984609375 -0.30507569411234403 0.9589327894311659
6.099609375 -0.3057431124522646 0.9579262625021826
6.1007578125 -0.3049762226530087 0.9589335916247445
6.10190625 -0.3041330175765867 0.9577161438181397
6.1030546875 -0.30416409425592417 0.9587710867802431
6.104203125 -0.303258348621119 0.9582828254975625
6.1053515625 -0.3040935942148608 0.9586161684606379
6.1065 -0.30387453480677573 0.9583864023199893
6.1076484375 -0.3021083354849985 0.959149804377973
6.108796875 -0.301905648041042 0.9589826888291818
6.1099453125 -0.30095016225840376 0.9583120142184378
6.11109375 -0.3006888164879438 0.9585543732802689
6.1122421875 -0.3014345196147027 0.9591120701273704
6.113390625 -0.3007694100682177 0.9590351191009475
6.1145390625 -0.29977438164570924 0.9591508830910497
6.1156875 -0.2988819866773803 0.9592360880254716
6.1168359375 -0.29889187457645416 0.9592306411801196
6.117984375 -0.29940118157493445 0.9605975848526302
6.1191328125 -0.2976694963096506 0.9606819754098676
6.12028125 -0.29687431513812823 0.9600611730213126
6.1214296875 -0.29493370431015103 0.9603885691885268
6.122578125 -0.2954877002605007 0.9599190026104861
6.1237265625 -0.2957900965827262 0.9598043747327825
6.124875 -0.2951556333508652 0.959903398723162
6.1260234375 -0.2954539824614411 0.9589898178742706
6.127171875 -0.29455209793707327 0.9590974395491194
6.1283203125 -0.2948962541376564 0.9592524011990562
6.12946875 -0.2958549315639055 0.9603636597090695
6.1306171875 -0.29528287710884116 0.9597821649299791
6.131765625 -0.29461691971500886 0.9589384923505638
6.1329140625 -0.29359473869006486 0.960402761739551
6.1340625 -0.2929323695126147 0.961226960772856
6.1352109375 -0.2944259395826116 0.9601643707250411
6.136359375 -0.29387019650424845 0.9608499970350403
6.1375078125 -0.2929481992260371 0.9601252106275857
6.13865625 -0.29386917389371603 0.961037169447235
6.1398046875 -0.29291277075426 0.9608071034925603
6.140953125 -0.2936310777302951 0.9609446213965481
6.1421015625 -0.2928275688365639 0.9613408083495849
6.14325 -0.2921236719409014 0.9609830587488454
6.1443984375 -0.2920544798858484 0.9617965538812322
6.145546875 -0.29251117118538944 0.9610097479007433
6.1466953125 -0.29259773611215606 0.9616244011057807
6.14784375 -0.293667237620852 0.9614754787002135
6.1489921875 -0.29068533782627515 0.9615377789678672
6.150140625 -0.2905049348282458 0.9618166571761263
6.1512890625 -0.29092417895275485 0.9615630438318697
6.1524375 -0.2898823255744843 0.9615240507403569
6.1535859375 -0.2915115465809196 0.961991309849761
6.154734375 -0.2914575144456888 0.9616592864684528
6.1558828125 -0.2908371014041405 0.9609001688093458
6.15703125 -0.28996631131136896 0.9613404527571457
6.1581796875 -0.29012405957093496 0.9622848864995647
6.159328125 -0.29212949832390367 0.9629399511397561
6.1604765625 -0.2897165596583011 0.9626063084921695
6.161625 -0.28959101294433925 0.9626105328435252
6.1627734375 -0.2898949018402811 0.9625712588447023
6.163921875 -0.28911160893668925 0.9626372425395737
6.1650703125 -0.2900590455980465 0.9643932815860862
6.16621875 -0.28882115197295277 0.9642675033461577
6.1673671875 -0.2881351614979603 0.9632898305123936
6.168515625 -0.2884168723998993 0.9627657816200005
6.1696640625 -0.2875132153221409 0.9638994983095251
6.1708125 -0.28831963439009634 0.9641903020955453
6.1719609375 -0.287266372625124 0.9646940796609534
6.173109375 -0.2867597788445847 0.9645553049594595
6.1742578125 -0.2870818350318458 0.9647456541615254
6.17540625 -0.28593308632910436 0.9653239822643757
6.1765546875 -0.28633248042461407 0.9644964508164113
6.177703125 -0.28607434353269845 0.9646141472346844
6.1788515625 -0.28428458712517984 0.9654903335272524
6.18 -0.2837959123249539 0.9652226151642255
6.1811484375 -0.28359016700094863 0.964873745728548
6.182296875 -0.2829118792686378 0.9646700891646278
6.1834453125 -0.283326047360496 0.9656851700288084
6.18459375 -0.28300375212223894 0.9644048852301262
6.1857421875 -0.28290881490060876 0.965328612100248
6.186890625 -0.281357442773149 0.9642518285249515
6.1880390625 -0.2801934252085321 0.9659149482540053
6.1891875 -0.2810149773165662 0.9663968831652424
6.1903359375 -0.2805011530718012 0.9659075414360815
6.191484375 -0.27934803808923037 0.9647094071206765
6.1926328125 -0.27935560029215095 0.9652279057796302
6.19378125 -0.2786749194920843 0.9660261979172707
6.1949296875 -0.2799104180939863 0.9662962217401312
6.196078125 -0.27831484661388445 0.9659198841974341
6.1972265625 -0.27739243895391164 0.9654582634566224
6.198375 -0.27727987680480265 0.9659194370873649
6.1995234375 -0.27795807458358324 0.9654477519582778
6.200671875 -0.27846492652213173 0.9658801679105095
6.2018203125 -0.2780041512807173 0.9668390604285991
6.20296875 -0.277336502841165 0.9655209585668997
6.2041171875 -0.27695772934527746 0.966025263484678
6.205265625 -0.277001979418168 0.9664860170004099
6.2064140625 -0.27770236662916825 0.9675567121866242
6.2075625 -0.2763648530231901 0.966831108852081
6.2087109375 -0.2766588012716132 0.9660919770428483
6.209859375 -0.27640163197117257 0.9659995212722994
6.2110078125 -0.27534475099709155 0.9667021469280098
6.21215625 -0.2763010391588824 0.9659286529999636
6.2133046875 -0.2757362295437743 0.9672920253933421
6.214453125 -0.2747902330733053 0.9681650054365147
6.2156015625 -0.2741491471845478 0.9670695981294166
6.21675 -0.2743311558896574 0.9669711639031353
6.2178984375 -0.27314451698842124 0.967342569163429
6.219046875 -0.2747595094846428 0.9685311528333138
6.2201953125 -0.27315981678688095 0.9674220524796849
6.22134375 -0.27176001241420333 0.9675679965858661
6.2224921875 -0.2711988230455553 0.9683687003161899
6.223640625 -0.27050100945818767 0.9681370930017129
6.2247890625 -0.2711432381605924 0.9684824352223838
6.2259375 -0.27026459834576055 0.9681355016130717
6.2270859375 -0.2693746243022427 0.9675137263788853
6.228234375 -0.2689426499352645 0.968050198755911
6.2293828125 -0.27032057213186056 0.9680619522620558
6.23053125 -0.27098464747732515 0.9688037779137249
6.2316796875 -0.2704328446559773 0.9689842453141719
6.232828125 -0.26949406263062725 0.9684561580300305
6.2339765625 -0.2695295797518916 0.9684520095723409
6.235125 -0.2688509504536054 0.9684484348998209
6.2362734375 -0.26996037222228053 0.9680545699247072
6.237421875 -0.2680605203678493 0.9684224160674361
6.2385703125 -0.2689097133761268 0.9675469676294722
6.23971875 -0.2679663306313717 0.9671990361749406
6.2408671875 -0.2679984937885334 0.9665975589159055
6.242015625 -0.26775900807236 0.9665568718563263
6.2431640625 -0.26805135173634886 0.9667545191053868
6.2443125 -0.2660784047938301 0.9677122260589426
6.2454609375 -0.2660520959655477 0.9671782864877807
6.246609375 -0.2651941129579108 0.9671747055698668
6.2477578125 -0.2648260566367228 0.9668778281642801
6.24890625 -0.2646775381285973 0.9668804888119765
6.2500546875 -0.2646201543924348 0.9665723973148515
6.251203125 -0.26318041528486547 0.9662369915467706
6.2523515625 -0.2627748542070619 0.9651496192047696
6.2535 -0.2619443047853388 0.9659362405200604
6.2546484375 -0.26416256657200277 0.9658322711579559
6.255796875 -0.2631023696526096 0.9653961638609017
6.2569453125 -0.26190904296006545 0.9658685206465841
6.25809375 -0.26181491543500335 0.966347645804504
6.2592421875 -0.26257545206395033 0.9660040754541686
6.260390625 -0.2633493558502166 0.9656618266714928
6.2615390625 -0.26359471025597586 0.9655094699654154
6.2626875 -0.2626161924838886 0.9662404829176487
6.2638359375 -0.26233736576119626 0.9663750543707035
6.264984375 -0.26199342515562785 0.9665456745525448
6.2661328125 -0.2623962335580468 0.967841839087763
6.26728125 -0.261552376608435 0.9668790836166425
6.2684296875 -0.26101676420573916 0.9662545598274658
6.269578125 -0.26214809071896555 0.9662738936210757
6.2707265625 -0.26054602913850883 0.9663133636186175
6.271875 -0.262291314319716 0.9667065788243032
6.2730234375 -0.2619308136809222 0.967061682906051
6.274171875 -0.26210644503654157 0.9672003534087272
6.2753203125 -0.2607099043594722 0.9652004210904993
6.27646875 -0.260214306885522 0.9652102495234615
6.2776171875 -0.26199262547028057 0.9653686178311349
6.278765625 -0.26319571583170237 0.9657070964151664
6.2799140625 -0.2625145548391877 0.9658798227187757
6.2810625 -0.2622122397396614 0.9649749770261988
6.2822109375 -0.26291798993748533 0.965309246298892
6.283359375 -0.2632658093039504 0.96424457294403
6.2845078125 -0.26393142088537896 0.9656495085602186
6.28565625 -0.2630482892268163 0.9656414364329305
6.2868046875 -0.26289312466947934 0.9666101139370046
6.287953125 -0.2626115965745463 0.9662577083902941
6.2891015625 -0.2630930775367025 0.966693380959898
6.29025 -0.2637101885178418 0.9688150439477482
6.2913984375 -0.2633860156100299 0.9687366015833824
6.292546875 -0.26230760427549726 0.9679796769788016
6.2936953125 -0.26042931851205836 0.9694759216982387
6.29484375 -0.2612146013556105 0.9688014509420741
6.2959921875 -0.2620339017120249 0.9698341334543172
6.297140625 -0.2607322349157679 0.9701617034762515
6.2982890625 -0.2602753676192076 0.9688581392058842
6.2994375 -0.260716945244425 0.9695977214452367
6.3005859375 -0.2600793822527959 0.9699594562525373
6.301734375 -0.2609890235251017 0.9700594577090602
6.3028828125 -0.26042660767914705 0.9706140946158421
6.30403125 -0.2589533642326896 0.9714876678862825
6.3051796875 -0.2587048280284425 0.9705770386990309
6.306328125 -0.259313164632565 0.969328744385733
6.3074765625 -0.2601361384448013 0.9687357947273366
6.308625 -0.2617868241058875 0.9699367967931011
6.3097734375 -0.2615062642479803 0.9708419516989759
6.310921875 -0.2609231798972407 0.971359964897246
6.3120703125 -0.2612595348322432 0.9709140392981506
6.31321875 -0.2611963524820142 0.9708834900947702
6.3143671875 -0.26023463747014003 0.9723403044220591
6.315515625 -0.258865968579922 0.9724059702118638
6.3166640625 -0.2589660280264868 0.9716567504216922
6.3178125 -0.2590156748132201 0.9722510993661438
6.3189609375 -0.2580385876480765 0.9726021079736136
6.320109375 -0.2597039973509162 0.973943164358304
6.3212578125 -0.2577990687192765 0.97406579868006
6.32240625 -0.25711057935141446 0.973353235210999
6.3235546875 -0.25707640386369623 0.9726733386491034
6.324703125 -0.25582845323497044 0.9720346294616915
6.3258515625 -0.2564102970395527 0.9740266585873476
6.327 -0.2550566657645701 0.973545244547729
6.3281484375 -0.2552290689862806 0.9735090092886147
6.329296875 -0.2543225358882559 0.9732947376737139
6.3304453125 -0.25347530907137267 0.973563829621022
6.33159375 -0.25389418674076825 0.9735218394103385
6.3327421875 -0.25310919069409726 0.973563198331577
6.333890625 -0.2524039926319712 0.9726563898201428
6.3350390625 -0.2524469783322715 0.9721830620836645
6.3361875 -0.2513555206897613 0.9733392337532885
6.3373359375 -0.25250394061577475 0.9730053763830484
6.338484375 -0.2527683259599667 0.9738383610931448
6.3396328125 -0.2519013326804931 0.9730875895629836
6.34078125 -0.25116787621621295 0.9725217814416637
6.3419296875 -0.2511826525279157 0.9731447580820156
6.343078125 -0.25072606219608307 0.9744629779500368
6.3442265625 -0.250404462470664 0.9736540298839621
6.345375 -0.2501269523529868 0.9736421701093944
6.3465234375 -0.25016470350961767 0.9738725540129572
6.347671875 -0.24922727115877352 0.9734147062874456
6.3488203125 -0.24862465969847344 0.9725683521887378
6.34996875 -0.249770558889729 0.9733333086432788
6.3511171875 -0.2496348359251611 0.9733620380032862
6.352265625 -0.24900677424023165 0.9729452075865478
6.3534140625 -0.24995510861911846 0.9728529634156
6.3545625 -0.24960105524802412 0.973357885127042
6.3557109375 -0.24963213993557726 0.9736442549520197
6.356859375 -0.24859388844175132 0.9732385061356863
6.3580078125 -0.248445570084392 0.9735250385604053
6.35915625 -0.2490685238973058 0.973437025864115
6.3603046875 -0.2493976484976364 0.972578342838812
6.361453125 -0.2503580465358898 0.9744829580964297
6.3626015625 -0.24954889423237614 0.9736492858535832
6.36375 -0.2494251102706947 0.9737991182347632
6.3648984375 -0.24968536822802195 0.9735583828605386
6.366046875 -0.2501013370507316 0.9744529144958686
6.3671953125 -0.2511679322495243 0.9742845100966346
6.36834375 -0.2503502379747994 0.9751272434341721
6.3694921875 -0.2497538103291135 0.9758611029229586
6.370640625 -0.24897162527847874 0.9751223871093976
6.3717890625 -0.2485553527867854 0.9751868636341064
6.3729375 -0.2484874093826141 0.9756900366374801
6.3740859375 -0.2493057186160134 0.9757255682980812
6.375234375 -0.2479264213953363 0.9756869942390394
6.3763828125 -0.24784161561500825 0.9758936801564803
6.37753125 -0.24841263772280603 0.9764486286889121
6.3786796875 -0.24879279141808322 0.9764537478026322
6.379828125 -0.2494513930907969 0.9762311955704351
6.3809765625 -0.2488269886423708 0.9764509206129109
6.382125 -0.24915470462990041 0.9754886119172202
6.3832734375 -0.24817063051946392 0.9764682128812084
6.384421875 -0.2474895211351629 0.9769935186864246
6.3855703125 -0.24841883618037788 0.9773058263321541
6.38671875 -0.24753447886479685 0.978356853944849
6.3878671875 -0.24677223997320097 0.9785884371294593
6.389015625 -0.24625672188843672 0.9786143486577792
6.3901640625 -0.24669830407075022 0.9796724446290854
6.3913125 -0.24705840928826484 0.9805061818106606
6.3924609375 -0.24729731897738663 0.9811327898935706
6.393609375 -0.24558324762407668 0.9803415983509168
6.3947578125 -0.2468006888825213 0.9798592161556134
6.39590625 -0.24473170026652669 0.9808859689286785
6.3970546875 -0.2459049880684075 0.9813799134072381
6.398203125 -0.2450009722701414 0.9811842588767021
6.3993515625 -0.24422443970892202 0.9815105663085908
6.4005 -0.24477002668334352 0.9809325906229145
6.4016484375 -0.24473861684888476 0.9813532900745795
6.402796875 -0.2436055669508147 0.9819831499828934
6.4039453125 -0.24340685413910068 0.9815508565817324
6.40509375 -0.24468675685549945 0.982297479580941
6.4062421875 -0.2441835973613033 0.9825175982153911
6.407390625 -0.24342139623572787 0.9830336537715996
6.4085390625 -0.24277704938282868 0.9843335673790206
6.4096875 -0.24086808922147906 0.9843080920412943
6.4108359375 -0.2421264434220976 0.9848550459840058
6.411984375 -0.2413200559753558 0.9846861233858475
6.4131328125 -0.24063558176693872 0.9849304712096555
6.41428125 -0.23997939823387215 0.9854923178755262
6.4154296875 -0.23965210420367206 0.9862141132763868
6.416578125 -0.24090773427704174 0.9856257734781672
6.4177265625 -0.24009152663652622 0.9861549363550095
6.418875 -0.2393429583571462 0.9865591768718783
6.4200234375 -0.2385923286454309 0.9871488648885655
6.421171875 -0.23786197232940726 0.9874623284895461
6.4223203125 -0.23739919671494944 0.9886959161715422
6.42346875 -0.23649981738253034 0.9889089654021195
6.4246171875 -0.23491745701083383 0.9887742343147177
6.425765625 -0.23523652877426204 0.9880555245870353
6.4269140625 -0.234240268877363 0.9876684076986886
6.4280625 -0.2356604955947039 0.9867227896468203
6.4292109375 -0.23583489576459302 0.9869444266069571
6.430359375 -0.2348185944374295 0.9875657189700968
6.4315078125 -0.23415542751052915 0.9884672239349142
6.43265625 -0.23321664886792293 0.9892777051392551
6.4338046875 -0.23343825617868086 0.9881606772633148
6.434953125 -0.23361982779781704 0.9887468449319428
6.4361015625 -0.23416432076218652 0.9881205412202673
6.43725 -0.2335180212370038 0.9890216770232032
6.4383984375 -0.23208994786659737 0.988718709090332
6.439546875 -0.23147228280963647 0.9884795959079841
6.4406953125 -0.23093107034722993 0.9885013577238593
6.44184375 -0.23071989562047562 0.9901317286251551
6.4429921875 -0.23101902748894396 0.9903085914822238
6.444140625 -0.23099222053432122 0.990836127078403
6.4452890625 -0.23005387957661497 0.9898815569519375
6.4464375 -0.23143517660758967 0.9889889778389074
6.4475859375 -0.22897135027949123 0.9893551851420395
6.448734375 -0.2285051568463773 0.9904377830766926
6.4498828125 -0.226985602660488 0.9893493218053316
6.45103125 -0.22638522933516328 0.9890243442047457
6.4521796875 -0.22566156938485363 0.9895096023447517
6.453328125 -0.2261352504651706 0.9894809936575099
6.4544765625 -0.22596939171657354 0.9883784160490527
6.455625 -0.2255569909924569 0.9898678358469128
6.4567734375 -0.226235757313334 0.9889718444917623
6.457921875 -0.22611045545081282 0.9897453870059513
6.4590703125 -0.22625211916709223 0.9898941107234718
6.46021875 -0.22572605009386215 0.9895962190339951
6.4613671875 -0.22493562018042781 0.9887884531463844
6.462515625 -0.22409345160851257 0.9890104809340655
6.4636640625 -0.22406453766908377 0.9899096714530244
6.4648125 -0.2248103716575915 0.9891346310802661
6.4659609375 -0.22498873028839123 0.9889240649441924
6.467109375 -0.22377345044119148 0.9887774060552748
6.4682578125 -0.2237444248142333 0.9892601887219921
6.46940625 -0.22350784799154702 0.9891229170365508
6.4705546875 -0.2229414724248069 0.9904022837418109
6.471703125 -0.22241904970604504 0.9913864578788731
6.4728515625 -0.22215304273594175 0.9911592513985776
6.474 -0.22145178320643227 0.991631585120307
6.4751484375 -0.2208776211251999 0.9924302987607112
6.476296875 -0.22074159767393076 0.9919731019153017
6.4774453125 -0.22063663409546874 0.9913091931103963
6.47859375 -0.21996819990773497 0.9910080344655652
6.4797421875 -0.22009196449376126 0.9908730892552526
6.480890625 -0.21859010355112257 0.9907075168274925
6.4820390625 -0.21932082889106583 0.991519599571869
6.4831875 -0.2186979391910022 0.9927767637132758
6.4843359375 -0.21726870034532925 0.9939605107236116
6.485484375 -0.21719278545157522 0.9938378585417246
6.4866328125 -0.21713732480813505 0.9931327734872383
6.48778125 -0.21822074610756534 0.9923226296115673
6.4889296875 -0.21684025773593313 0.9931407664152003
6.490078125 -0.21648311930728756 0.992042501418356
6.4912265625 -0.21731704038533484 0.9913582752289737
6.492375 -0.21664300368093176 0.991945792405398
6.4935234375 -0.21502089593130078 0.9923282989419909
6.494671875 -0.21353472986407718 0.9927686000958795
6.4958203125 -0.2142601604959307 0.9923944857226916
6.49696875 -0.21404079925425096 0.992571511118238
6.4981171875 -0.21366920984098708 0.9919649438127036
6.499265625 -0.21321151349361023 0.990839296327974
6.5004140625 -0.2138376394170621 0.9899480939306143
6.5015625 -0.21306832401779413 0.9912262950875002
6.5027109375 -0.21338407015240643 0.9912664843954171
6.503859375 -0.21298647416771782 0.9914279282464282
6.5050078125 -0.21259031278259935 0.9911326039074784
6.50615625 -0.21260216175332727 0.9914311862001831
6.5073046875 -0.2122829047084553 0.9901353372266921
6.508453125 -0.21319052630194588 0.9907856723006342
6.5096015625 -0.21243984422452142 0.9911234019213448
6.51075 -0.21198473656464817 0.9903993424126103
6.5118984375 -0.21223993655775283 0.99208250388775
6.513046875 -0.21070005752888998 0.992513737758418
6.5141953125 -0.21023212268000632 0.9922549456672163
6.51534375 -0.21035931907596883 0.9923542424684672
6.5164921875 -0.21013408129143316 0.9920502914930028
6.517640625 -0.20922608724261257 0.9917490511699771
6.5187890625 -0.2076796816374309 0.9918436981204347
6.5199375 -0.20834277035227616 0.9920320184294595
6.5210859375 -0.20842045200877654 0.9908442525047259
6.522234375 -0.20819625907389722 0.9912613104864443
6.5233828125 -0.20696236011646585 0.9912987723093643
6.52453125 -0.20680681726148564 0.9916171730032949
6.5256796875 -0.20665562525998188 0.9907775046880706
6.526828125 -0.20629946373965524 0.9906369086690765
6.5279765625 -0.20639888842204535 0.9906844934851262
6.529125 -0.2059188685895809 0.9905973205206666
6.5302734375 -0.20565549262508864 0.9904369220046927
6.531421875 -0.20506147124130925 0.9900121931752144
6.5325703125 -0.20449825645068517 0.9898865829934885
6.53371875 -0.2041855760048931 0.9884662563357322
6.5348671875 -0.20573390840406303 0.9893064868904737
6.536015625 -0.2056690672794689 0.9883876984068758
6.5371640625 -0.20528566502222795 0.9882929580257025
6.5383125 -0.20485833136211115 0.989037343671427
6.5394609375 -0.20558804375615156 0.9884063699324441
6.540609375 -0.20552660516515942 0.9885075214970848
6.5417578125 -0.20585569885565905 0.9881207593348361
6.54290625 -0.2056312490936244 0.988335574278193
6.5440546875 -0.20552085551663477 0.9890126787977018
6.545203125 -0.20550933343286168 0.9884421391527526
6.5463515625 -0.20597789100571806 0.9904370845076991
6.5475 -0.20608992086882783 0.9905579348446698
6.5486484375 -0.20581033963387416 0.9915360325128889
6.549796875 -0.20445390145989156 0.9913491841845752
6.5509453125 -0.204392986192782 0.9903823211072044
6.55209375 -0.2032443468518665 0.9906485729984277
6.5532421875 -0.20390308629928316 0.9905593942190113
6.554390625 -0.2026527765867896 0.9915512970520356
6.5555390625 -0.20228723176189628 0.9917881311217454
6.5566875 -0.20280263746330107 0.9917766399243689
6.5578359375 -0.20255876773480216 0.9915266370489896
6.558984375 -0.2022907096543885 0.9924187239433712
6.5601328125 -0.20197606142726934 0.9913310218271113
6.56128125 -0.20149169520037627 0.9912905883351336
6.5624296875 -0.20193257972134443 0.9911287094054001
6.563578125 -0.20156782696882844 0.9915044714958408
6.5647265625 -0.20039177723082108 0.9922237210932493
6.565875 -0.20040256347816057 0.9923330395175666
6.5670234375 -0.2005710961970213 0.9916882181935033
6.568171875 -0.20026021800577126 0.9923611268331539
6.5693203125 -0.19963037788237828 0.9933023446247085
6.57046875 -0.20015274042891212 0.9928073926301053
6.5716171875 -0.19951038003562083 0.9919219043430283
6.572765625 -0.1994730771589341 0.9930031860352413
6.5739140625 -0.1985545196053838 0.992234659773118
6.5750625 -0.1981193538773862 0.9926418982933032
6.5762109375 -0.1977708949409721 0.993000328283338
6.577359375 -0.1972717101144527 0.9936924657355226
6.5785078125 -0.19759724928622605 0.9933327119962937
6.57965625 -0.1970272549378044 0.9933729276154145
6.5808046875 -0.19735546412795693 0.9936111963236185
6.581953125 -0.19697936982432754 0.9941022110151376
6.5831015625 -0.19602706217026836 0.993464720063904
6.58425 -0.19634801868947493 0.9942181121807847
6.5853984375 -0.19523269642540353 0.9941918473871871
6.586546875 -0.19534452641548405 0.9939691344564552
6.5876953125 -0.19546721772161638 0.9933982628927962
6.58884375 -0.19447880195757394 0.992430913440441
6.5899921875 -0.19370272690977594 0.9936310339752703
6.591140625 -0.1933649700336558 0.9940384319989038
6.5922890625 -0.1937055064450229 0.9937557990164223
6.5934375 -0.1938259930625022 0.994108219119612
6.5945859375 -0.19374953444863494 0.9926756503914307
6.595734375 -0.19241180880647799 0.9935132468667748
6.5968828125 -0.1918601172028945 0.9940367283352859
6.59803125 -0.19173756877655854 0.9943826260646775
6.5991796875 -0.19149138590501455 0.9945101517509908
6.600328125 -0.191186362756636 0.9938547359395127
6.6014765625 -0.19092687236389605 0.993779332762582
6.602625 -0.19162351161632551 0.9953767342041162
6.6037734375 -0.18989070957348833 0.9941554229611386
6.604921875 -0.18948582125029756 0.9935016355225261
6.6060703125 -0.18948466351004772 0.9940958618767923
6.60721875 -0.18946369168829205 0.9937653655116714
6.6083671875 -0.18968015548857237 0.9943074135050983
6.609515625 -0.18884535693255022 0.9934835996177823
6.6106640625 -0.18878950760670515 0.99432377015176
6.6118125 -0.1889804993704483 0.9938724921214086
6.6129609375 -0.18955111348017334 0.9938035139619583
6.614109375 -0.18903159175801063 0.994832532693769
6.6152578125 -0.18869602829576865 0.9944100981969469
6.61640625 -0.18815764544962307 0.9939818850356567
6.6175546875 -0.1879169202275658 0.9943221322431128
6.618703125 -0.18727292228089937 0.9938710772731605
6.6198515625 -0.1876116969853383 0.993409027100915
6.621 -0.18661417110216605 0.9935190094193556
6.6221484375 -0.18677696659346624 0.992733577835387
6.623296875 -0.18603393608009522 0.9931266593065484
6.6244453125 -0.1863576425155356 0.9931829539930878
6.62559375 -0.18721841922653704 0.9940947755199185
6.6267421875 -0.187442194399794 0.9948489961725857
6.627890625 -0.18698162762406972 0.9936019922507855
6.6290390625 -0.18688538537600535 0.9939664022473756
6.6301875 -0.18434623488518337 0.99288278124884
6.6313359375 -0.18492986253392388 0.9918943026422401
6.632484375 -0.18438409531069497 0.9931627240928953
6.6336328125 -0.18439455109280847 0.9940406889914489
6.63478125 -0.18306690969893696 0.9933525940966996
6.6359296875 -0.18504706680188227 0.9931713390713435
6.637078125 -0.18278391702176142 0.9928461329936968
6.6382265625 -0.18333896591184873 0.9942553701425743
6.639375 -0.1842088477165818 0.9944666211698574
6.6405234375 -0.1834809405778508 0.9940833946058635
6.641671875 -0.18290958831887794 0.9927343967122233
6.6428203125 -0.1823227305293368 0.9939208177513783
6.64396875 -0.18292706864143501 0.9924620360947959
6.6451171875 -0.18291172633178102 0.99299187188583
6.646265625 -0.1821304803409453 0.9929892340985714
6.6474140625 -0.18327551154688404 0.9932981603750831
6.6485625 -0.18194851045600852 0.9915224794941833
6.6497109375 -0.18253434106421484 0.9919227763570595
6.650859375 -0.18174039226854843 0.9933786395146432
6.6520078125 -0.18241096629897458 0.9927497904464464
6.65315625 -0.18255114740288053 0.9928269888424819
6.6543046875 -0.18200983365553147 0.9926301217446236
6.655453125 -0.1825826490124774 0.9937883252595197
6.6566015625 -0.18162086616231288 0.9929332442235539
6.65775 -0.18111660198369273 0.9934222703850972
6.6588984375 -0.18199651705761277 0.9928775791612057
6.660046875 -0.1807575089556538 0.9930437284280424
6.6611953125 -0.1813890783776025 0.993640412459583
6.66234375 -0.17968781595421202 0.9940935296420692
6.6634921875 -0.1804464813673825 0.994483563940415
6.664640625 -0.1792624716050597 0.9929152213469685
6.6657890625 -0.17848797056001514 0.9942400537531797
6.6669375 -0.17830910662507515 0.9944459655343533
6.6680859375 -0.17857018902958943 0.993182476398563
6.669234375 -0.1784132987679769 0.9935019864045124
6.6703828125 -0.1784499164645046 0.9941508507963731
6.67153125 -0.17883284834313434 0.9945050382340023
6.6726796875 -0.17840133371762112 0.9937629780277399
6.673828125 -0.1784361723621466 0.9952828716180806
6.6749765625 -0.17863696322771322 0.9938488113786829
6.676125 -0.17731054695932158 0.9936651934719616
6.6772734375 -0.17764815345892987 0.9929867903475715
6.678421875 -0.17497410872509517 0.9927275649339022
6.6795703125 -0.17606375345366015 0.993360891613744
6.68071875 -0.17633390379857206 0.9936279355230432
6.6818671875 -0.17722730379930868 0.993691520784839
6.683015625 -0.17640262809193397 0.9950820853884232
6.6841640625 -0.17569180274223883 0.9945475069898245
6.6853125 -0.17781641294640738 0.9946600571074322
6.6864609375 -0.17580814012033602 0.9955454892449829
6.687609375 -0.17680913591105263 0.9944327425063114
6.6887578125 -0.17578835034917156 0.9950299889180022
6.68990625 -0.1757513996194956 0.9949792843996117
6.6910546875 -0.17510306380477497 0.9954093559199768
6.692203125 -0.1757290831595903 0.9959731225249879
6.6933515625 -0.1750464379894237 0.9954548146814725
6.6945 -0.17427485006737325 0.9949234704110714
6.6956484375 -0.17587477544347951 0.9957923507061838
6.696796875 -0.17570069555481554 0.9951819105367479
6.6979453125 -0.1747675549897379 0.9949207505802959
6.69909375 -0.1745206169961374 0.9950841795141726
6.7002421875 -0.1743664323205933 0.9952811426698244
6.701390625 -0.1738376999334288 0.9962188875018495
6.7025390625 -0.17365509592355666 0.9957487162500592
6.7036875 -0.17283413015654986 0.9961224134627011
6.7048359375 -0.17287766496814932 0.9966699942917655
6.705984375 -0.17268711515173019 0.9967250455926588
6.7071328125 -0.1728966802613799 0.9962480057744494
6.70828125 -0.17171627392702554 0.9949643101016173
6.7094296875 -0.1725826421621947 0.9957567792761467
6.710578125 -0.17233461565905617 0.9952917961375559
6.7117265625 -0.17146706656916683 0.996003562685343
6.712875 -0.17119762615479012 0.9957351707849675
6.7140234375 -0.1710625072972447 0.9948325775208559
6.715171875 -0.17074184389755542 0.9948403975719109
6.7163203125 -0.17112314787289146 0.9953601467490925
6.71746875 -0.17071128405660096 0.9957846483765213
6.7186171875 -0.17075927741201347 0.9947685850047007
6.719765625 -0.16967299454858717 0.9949719133641813
6.7209140625 -0.1692296726114373 0.9958559023363857
6.7220625 -0.16877053226271482 0.9954993032626362
6.7232109375 -0.16963464380975493 0.9959944689482352
6.724359375 -0.1698104140344472 0.995271418994992
6.7255078125 -0.16949021805872888 0.9957073264169898
6.72665625 -0.16834121502237026 0.9958845604468972
6.7278046875 -0.16895158507248537 0.9950696468488913
6.728953125 -0.16855021589263455 0.9957185499926536
6.7301015625 -0.16775379119909245 0.9966917940587253
6.73125 -0.16770632509624375 0.9960614457473242
6.7323984375 -0.16763004760916705 0.9960908388629582
6.733546875 -0.16786593012009898 0.996200669298814
6.7346953125 -0.1679250313365746 0.9959665250026333
6.73584375 -0.16725452543731295 0.9962564411510644
6.7369921875 -0.1669998719178949 0.9965360169186143
6.738140625 -0.16607023739492768 0.9952529688566538
6.7392890625 -0.16722924080204757 0.9963422806118505
6.7404375 -0.167493808698051 0.997020363554165
6.7415859375 -0.1672625691548924 0.9973903453539288
6.742734375 -0.16747691391370365 0.9977066363990009
6.7438828125 -0.16628542344476327 0.9977662748072286
6.74503125 -0.1654889851780137 0.9984405517039717
6.7461796875 -0.16617749226200457 0.9981250478420082
6.747328125 -0.16685623950092304 0.9986129191036837
6.7484765625 -0.16485688174002364 1.0003392790373016
6.749625 -0.16354153985992553 0.9993356900052178
6.7507734375 -0.16304809699401693 0.9998940952061849
6.751921875 -0.16228178243066463 0.9994464798604686
6.7530703125 -0.16262315318539444 1.000432388410681
6.75421875 -0.16292819344052692 0.9999081128132835
6.7553671875 -0.1635265849557856 0.9992368445648885
6.756515625 -0.16262543120614498 0.9997977285088127
6.7576640625 -0.16291181362332124 0.9997044962750181
6.7588125 -0.16226525346715445 1.0002882576380296
6.7599609375 -0.16301056583204068 0.9995281973892267
6.761109375 -0.16211451015452966 0.9988162514937361
6.7622578125 -0.1609137555669572 0.998662713629888
6.76340625 -0.16125110517216315 0.9991058229216405
6.7645546875 -0.16057905145417556 0.9999409161359464
6.765703125 -0.16142875368053317 0.9995391986922334
6.7668515625 -0.16142254719711222 0.9992666003781422
6.768 -0.16139270817900647 1.0001517365092651
6.7691484375 -0.16149270784199135 0.9989377435558708
6.770296875 -0.16129098645520262 1.0003990574602206
6.7714453125 -0.16098416267754576 1.0012693378812425
6.77259375 -0.16068223438474263 1.0018385515324073
6.7737421875 -0.1589377118975333 1.0012124004035834
6.774890625 -0.15909853631433693 1.0023096557063276
6.7760390625 -0.15794720437457282 1.0021791490675682
6.7771875 -0.15708143350874543 1.0019632495190194
6.7783359375 -0.15772406572052544 1.0021465735554445
6.779484375 -0.15570512848862472 1.001325488758595
6.7806328125 -0.1559253745291697 1.0011547172721793
6.78178125 -0.15620246887134406 1.0011049271193315
6.7829296875 -0.15455073002329858 1.0003723013625545
6.784078125 -0.1553198111939822 1.0006221728337155
6.7852265625 -0.15368840419229954 0.9999133281014689
6.786375 -0.15376522328097697 0.9991563517762981
6.7875234375 -0.15398283988427322 0.999154812295248
6.788671875 -0.15478857958945041 0.9996205286005251
6.7898203125 -0.15407680923747022 0.999690315443724
6.79096875 -0.1535397418479093 0.9988089201248448
6.7921171875 -0.15408819933485415 0.9983963265140499
6.793265625 -0.1538504654034931 0.998743275847731
6.7944140625 -0.153802411920339 0.9982731495196362
6.7955625 -0.1538905045588644 0.9992204339688895
6.7967109375 -0.15271037035781398 0.9995443664597269
6.797859375 -0.15225358809852718 0.9994089111749331
6.7990078125 -0.15270365888398635 0.9992259457810639
6.80015625 -0.15306531834352216 0.9989539436289451
6.8013046875 -0.15242517813621106 0.9974124293495952
6.802453125 -0.15322540199281098 0.9987107000769369
6.8036015625 -0.1517870124718373 0.9977263210864906
6.80475 -0.15215244121808918 0.9981424395238676
6.8058984375 -0.15046635556160237 0.9991695359225599
6.807046875 -0.15061703534414012 0.9986257298393596
6.8081953125 -0.15100574258136917 0.9987529916810733
6.80934375 -0.14972033034857132 0.9984583954916697
6.8104921875 -0.15086258025559077 0.9997321953277184
6.811640625 -0.14964733878094172 1.0001488842828294
6.8127890625 -0.14908713374020435 1.0014016123098834
6.8139375 -0.14924598921872545 1.0006881988912726
6.8150859375 -0.14788320351708045 1.0003856760682142
6.816234375 -0.1474488632548282 1.0011170868564025
6.8173828125 -0.14752859273966046 1.0017625113108846
6.81853125 -0.1468178588370983 1.0018248550789373
6.8196796875 -0.14738895197666962 1.0019549595702937
6.820828125 -0.1457707454276015 1.0014567295424617
6.8219765625 -0.14711020851892165 1.00084059435822
6.823125 -0.14727597163462086 1.0019252231456788
6.8242734375 -0.1471172978671007 1.0022666806059282
6.825421875 -0.14641782015566462 1.0023247306334653
6.8265703125 -0.14622055753626356 1.001347382373539
6.82771875 -0.1461427799719534 1.0029687749861464
6.8288671875 -0.1474049925329891 1.0021448041316865
6.830015625 -0.14687542125201963 1.0028629631235007
6.8311640625 -0.14608670125202794 1.0026296342279386
6.8323125 -0.14473430052863395 1.0026869497724826
6.8334609375 -0.1442848347299156 1.0015561341733912
6.834609375 -0.14575420279082402 1.002588974551506
6.8357578125 -0.14425945046403593 1.0032947247973067
6.83690625 -0.14430870665142426 1.0040329017518426
6.8380546875 -0.14594141591611504 1.002467788014238
6.839203125 -0.1440969251674396 1.0023330647263684
6.8403515625 -0.1450368446990019 1.0024438738803851
6.8415 -0.14401411872819414 1.0016044964453827
6.8426484375 -0.14215091366044608 1.0024031252591044
6.843796875 -0.14265979970664117 1.0021637253297666
6.8449453125 -0.13995747363599526 1.0013941023943873
6.84609375 -0.14194470552268246 1.0023223182749161
6.8472421875 -0.1409528025753476 1.001717566431734
6.848390625 -0.1418042283360484 1.0008282465797662
6.8495390625 -0.1426692415335707 1.0000103384014487
6.8506875 -0.141595579543902 0.9994836271731304
6.8518359375 -0.14276106400290667 0.9989870640367653
6.852984375 -0.14284296664507168 1.0001841653846109
6.8541328125 -0.14277371355860063 0.9996886649673224
6.85528125 -0.14360530133896965 0.999747546686175
6.8564296875 -0.1430586980244294 1.0005965081402808
6.857578125 -0.14281438580528272 0.9999769410334871
6.8587265625 -0.14315018819321057 1.0002531455798505
6.859875 -0.1438169974054555 1.0011440156453664
6.8610234375 -0.1424892253220198 1.0022706754105164
6.862171875 -0.14182012909883052 1.0026730412031584
6.8633203125 -0.13993906073847334 1.0028148252685378
6.86446875 -0.14022178795468554 1.0036262734419465
6.8656171875 -0.13971251486889935 1.0034257707610241
6.866765625 -0.14014096757708489 1.0033064655595612
6.8679140625 -0.13996116856256668 1.003786430964681
6.8690625 -0.13728680668364424 1.0039079803484654
6.8702109375 -0.13864789043284326 1.0036886796854025
6.871359375 -0.1385959397226066 1.0030862361642354
6.8725078125 -0.13980884073897593 1.0035397678117073
6.87365625 -0.1393757196442711 1.004267572571591
6.8748046875 -0.13758064544459592 1.0035217289260099
6.875953125 -0.1384445915872296 1.003746198277833
6.8771015625 -0.13774081448975506 1.0052638545950257
6.87825 -0.13900810197596963 1.0053548313540568
6.8793984375 -0.13756274471500174 1.0057695028422713
6.880546875 -0.13536232070277976 1.0066024135982614
6.8816953125 -0.13541978518147652 1.0072886424152667
6.88284375 -0.13406278968680924 1.0070813065547446
6.8839921875 -0.13282098679242998 1.0070168812878768
6.885140625 -0.1314578181829123 1.0069732463678662
6.8862890625 -0.12819497640604 1.0063691682395997
6.8874375 -0.12839752695415302 1.005457491353199
6.8885859375 -0.12705793967351658 1.0062004165915925
6.889734375 -0.12633089036766337 1.004877128558946
6.8908828125 -0.1252932547436808 1.0047209298318986
6.89203125 -0.12589866288742235 1.0015392953387412
6.8931796875 -0.12586119255750416 1.0010371086571759
6.894328125 -0.12537938831540374 1.0022776873950832
6.8954765625 -0.12520529866106672 1.0020269107007167
6.896625 -0.1258345441369102 1.0018713221643156
6.8977734375 -0.12496436955883494 1.0012063698403666
6.898921875 -0.1251121955970031 1.00042835926927
6.9000703125 -0.1250508852909416 1.0009974968155797
6.90121875 -0.12489047139900367 1.0004139180832028
6.9023671875 -0.12629858366600177 1.000606208513357
6.903515625 -0.12623479566244888 1.0000359034197217
6.9046640625 -0.12504639261974704 1.0005371466157835
6.9058125 -0.1258376724859402 0.9999838087225607
6.9069609375 -0.12629872789734828 1.000792376344827
6.908109375 -0.12632613232027645 0.9995658087823074
6.9092578125 -0.12704023372919496 0.9994378497290628
6.91040625 -0.12583518940563224 1.0006834487635987
6.9115546875 -0.12679996541206645 1.000418914273817
6.912703125 -0.1263111723665409 1.0001797572611928
6.9138515625 -0.12604040256271065 1.0002023765575319
6.915 -0.1252742203661802 1.0001457901283672
6.9161484375 -0.12293547414875125 0.997969725657045
6.917296875 -0.12371617546856001 0.9975423055628995
6.9184453125 -0.12361244637623026 0.9977403694465659
6.91959375 -0.12514708970847913 0.9980239244599447
6.9207421875 -0.12479856101773895 0.9981205903495779
6.921890625 -0.12407141431359442 0.9969127403352107
6.9230390625 -0.12471722351543721 0.9975157731523103
6.9241875 -0.12680720009592122 0.9979906781051057
6.9253359375 -0.1275449390807762 0.9991602045944072
6.926484375 -0.12746370433932064 0.9995228099828218
6.9276328125 -0.12622091919113276 0.9991323539098569
6.92878125 -0.12768114636425992 0.9993215164591734
6.9299296875 -0.1279366582633252 0.9998312767166796
6.931078125 -0.12789468418269678 0.9996554399124435
6.9322265625 -0.12876926509964207 1.001260479714589
6.933375 -0.12784691709142088 1.0016215778488493
6.9345234375 -0.12727216596179358 1.0032309220235536
6.935671875 -0.12723933728278836 1.004385120637594
6.9368203125 -0.12653991065228168 1.0044207673109875
6.93796875 -0.12477927413224811 1.0038641913333346
6.9391171875 -0.12360626732829318 1.0036227762123797
6.940265625 -0.12169621036617242 1.0017351762557087
6.9414140625 -0.12143403571008654 1.0035414066705644
6.9425625 -0.12049285639384566 1.0021456413962542
6.9437109375 -0.12005632249778797 1.0023753674621612
6.944859375 -0.11959521553498897 1.0022425298345832
6.9460078125 -0.11962150847559459 0.9994048418728395
6.94715625 -0.12118664668672577 0.9997667291312589
6.9483046875 -0.12232678377504569 1.000289449425954
6.949453125 -0.12220055407580999 1.0002993940863185
6.9506015625 -0.12252857398265603 1.0003945806047438
6.95175 -0.12093185084625324 1.0006005739693216
6.9528984375 -0.12093655946195653 1.003126100494653
6.954046875 -0.120515902252358 1.002189663325692
6.9551953125 -0.1197186638499268 1.0020647618271608
6.95634375 -0.11926574083446537 1.0028224858160124
6.9574921875 -0.11867364212969356 1.003312036269522
6.958640625 -0.11807549562992192 1.0023090578126912
6.9597890625 -0.11830084965254961 1.0027657734650006
6.9609375 -0.11758881604367669 1.0043982010319714
6.9620859375 -0.1174268292693423 1.00508691926529
6.963234375 -0.11547984301510628 1.00645365093546
6.9643828125 -0.11522857207662954 1.0078401318343924
6.96553125 -0.11406780000617711 1.0068560083198856
6.9666796875 -0.11383680413427938 1.0072411159856736
6.967828125 -0.11337563081767478 1.0069173755892609
6.9689765625 -0.11369104305478778 1.0054871777958503
6.970125 -0.11216668045390314 1.005421878180413
6.9712734375 -0.11229512591253243 1.004550364456474
6.972421875 -0.11260241308266283 1.003992217755447
6.9735703125 -0.11409432600660818 1.0039837088998058
6.97471875 -0.11342767788945812 1.0050158554615962
6.9758671875 -0.11277505117336448 1.0046424409819903
6.977015625 -0.11315487808386104 1.005554826436041
6.9781640625 -0.11250072388371446 1.005921727490385
6.9793125 -0.11286396419399777 1.0062845282118371
6.9804609375 -0.1127733773064234 1.0062794073442736
6.981609375 -0.1099573350420895 1.0048050547941167
6.9827578125 -0.10890368312616586 1.0070745127461234
6.98390625 -0.10994449739771346 1.0063692835961053
6.9850546875 -0.10881198007255122 1.006084734396025
6.986203125 -0.10761053918754336 1.0051838413576095
6.9873515625 -0.10604212472475277 1.0036820044287351
6.9885 -0.10714645723884045 1.0040428888462536
6.9896484375 -0.10721297095457691 1.0036107987576808
6.990796875 -0.10636004875955077 1.003574868868924
6.9919453125 -0.1080955102759968 1.0043205790828926
6.99309375 -0.10691045636291835 1.003250288788289
6.9942421875 -0.10679363591796173 1.0042156039962338
6.995390625 -0.10691011376986567 1.0031007345433272
6.9965390625 -0.10721796577623094 1.002367026967906
6.9976875 -0.10665350324990588 1.0016009633930503
6.9988359375 -0.10573792543680216 0.9995208252079175
6.999984375 -0.10705488478914046 0.9991023194974405
7.0011328125 -0.1066320956049431 0.9998319871290244
7.00228125 -0.10685194168558684 1.0019506830887537
7.0034296875 -0.10683334701078429 1.0009238693528184
7.004578125 -0.10709996815095199 1.00031041192868
7.0057265625 -0.10613013867393636 1.001352521873034
7.006875 -0.10557543668203029 1.00083099147357
7.0080234375 -0.10532598977415092 1.0011635032248296
7.009171875 -0.10403306537231938 1.0017409110639737
7.0103203125 -0.10366601107308127 1.0012837126649323
7.01146875 -0.10239834120453906 0.9999319133037632
7.0126171875 -0.10233020046400043 1.0002220984984298
7.013765625 -0.10317089498929755 1.0004581836789135
7.0149140625 -0.10372301759327862 0.9999467393060436
7.0160625 -0.10318683611302237 1.0000651967978713
7.0172109375 -0.10297387408663095 0.9986086734056167
7.018359375 -0.10265426111115761 0.999609433396592
7.0195078125 -0.10269934381665857 0.9997548929490957
7.02065625 -0.10370179113131811 0.9983976162483397
7.0218046875 -0.10217029723745896 0.9992791305023094
7.022953125 -0.10133586208289047 0.9987486170060147
7.0241015625 -0.10268212625010559 0.9990265139801328
7.02525 -0.10192624099624198 0.9983025684883521
7.0263984375 -0.10169673945180696 0.999471356794608
7.027546875 -0.10162468899023003 0.998116831021066
7.0286953125 -0.09979710178467344 0.997063588428518
7.02984375 -0.09991178200315387 0.997171959946486
7.0309921875 -0.10104787393536763 0.9981307229665923
7.032140625 -0.10030418029669103 0.9981061333024692
7.0332890625 -0.10011495938254439 0.9973480421877988
7.0344375 -0.099075439823047 0.9962406488332068
7.0355859375 -0.09860767803418025 0.9971530373272097
7.036734375 -0.10106561157523025 0.9963571522628439
7.0378828125 -0.09971299991118998 0.9961449976277975
7.03903125 -0.09967239110976955 0.9982210872427291
7.0401796875 -0.0990049924904911 0.9979235332870452
7.041328125 -0.09874224704291024 0.9958772763892727
7.0424765625 -0.09872145625757667 0.9977180325473679
7.043625 -0.09877700751443041 0.996482792277385
7.0447734375 -0.09873314700039115 0.9966391111119246
7.045921875 -0.09859847537021849 0.9968285356132668
7.0470703125 -0.09717895158387868 0.9970217165422626
7.04821875 -0.09688711250894483 0.9972078856886992
7.0493671875 -0.09690334024282038 0.9962905470766793
7.050515625 -0.09716567205759907 0.9967748584954479
7.0516640625 -0.0973368341863583 0.9970036465608616
7.0528125 -0.09617550443925144 0.9964792553247772
7.0539609375 -0.09695770013368205 0.997390309621653
7.055109375 -0.09686936093153703 0.9977208864920056
7.0562578125 -0.09678929123646335 0.9983318393977592
7.05740625 -0.09686767453464468 0.9988814594864053
7.0585546875 -0.09505445690726633 0.9982796147313489
7.059703125 -0.09463347970156372 0.9975688198628996
7.0608515625 -0.09463776843927302 0.9977958831747202
7.062 -0.0952208256570855 0.9982227383425789
7.0631484375 -0.0953752715312775 0.9980751151687159
7.064296875 -0.09439163805794354 0.9973685276285498
7.0654453125 -0.0947823906852992 0.9990820779273026
7.06659375 -0.09415619503555162 0.9991046335953597
7.0677421875 -0.0944481706121903 0.9992595332913397
7.068890625 -0.09405837005867568 0.9998002270431152
7.0700390625 -0.0930162214340981 1.0000497763660965
7.0711875 -0.09229863839886493 0.9996845134580982
7.0723359375 -0.09189198195803627 0.9995006816119336
7.073484375 -0.09274589306118541 0.9993611560194078
7.0746328125 -0.09260788228306815 0.9981786401980983
7.07578125 -0.09185319097965944 0.9983037355935817
7.0769296875 -0.09157040739973488 0.9977204816705139
7.078078125 -0.09129244435937017 0.9981848326866093
7.0792265625 -0.09243719966434405 0.9977766869318409
7.080375 -0.09225434084319567 0.9970225681379105
7.0815234375 -0.09118205357495301 0.9971779804666017
7.082671875 -0.08959519095171939 0.9958295036875611
7.0838203125 -0.0911716783126654 0.9966537615780292
7.08496875 -0.0925987415936047 0.997182403787563
7.0861171875 -0.09373449457801172 0.9964233518722414
7.087265625 -0.09308294097803352 0.9973815188476428
7.0884140625 -0.09086821370757128 0.9960520265113014
7.0895625 -0.09207139707079365 0.997267639343977
7.0907109375 -0.09095780772038473 0.9977663277278022
7.091859375 -0.0909671943882703 0.9975767333136408
7.0930078125 -0.09189901783156976 0.9988200814782775
7.09415625 -0.09042216004534862 0.9975900821565064
7.0953046875 -0.0912790591738308 0.9977572465687006
7.096453125 -0.09218466306204978 0.9983336210222107
7.0976015625 -0.09085069464018149 0.9980715752183322
7.09875 -0.09093343914422089 0.9970753079878429
7.0998984375 -0.09092910967991431 0.9955872666144013
7.101046875 -0.09122717185481236 0.995140067063828
7.1021953125 -0.0909328504131561 0.9958067014624947
7.10334375 -0.09228446595765413 0.9965442037193267
7.1044921875 -0.09144776828050112 0.9979102759597829
7.105640625 -0.09165537533146177 0.9966781601005738
7.1067890625 -0.09187749268236566 0.9970769571835165
7.1079375 -0.0925858738726539 0.9977170740415451
7.1090859375 -0.0933179064974316 0.9989450370355732
7.110234375 -0.09285006262460321 0.9994034758356596
7.1113828125 -0.09299573384907356 1.0002237700229855
7.11253125 -0.09043464862050596 1.0003899580043298
7.1136796875 -0.09135240921053012 0.999683173576672
7.114828125 -0.09026717119072988 1.000572693149231
7.1159765625 -0.09120717640861022 1.001378205344883
7.117125 -0.09072438787858521 1.0014624478776106
7.1182734375 -0.08831337972533354 1.001210929185794
7.119421875 -0.08815529219507598 1.002206776503185
7.1205703125 -0.08799076161882956 1.0014518864944661
7.12171875 -0.08870749645410164 1.002260145112906
7.1228671875 -0.08935048887428536 1.0014039408104933
7.124015625 -0.08755384578213195 1.0033168873060558
7.1251640625 -0.08832978155502384 1.0036104911211017
7.1263125 -0.08815087784400687 1.0048910166047484
7.1274609375 -0.08734529928409993 1.0047258135386818
7.128609375 -0.08623623437022017 1.0057980618813553
7.1297578125 -0.08504486273504255 1.0058366176807363
7.13090625 -0.08296460471087923 1.0054996834006529
7.1320546875 -0.08281639350544105 1.0056926210989217
7.133203125 -0.08179883486021267 1.0062954917733842
7.1343515625 -0.08033135744001424 1.004226153336443
7.1355 -0.08020529345206602 1.0039219783407431
7.1366484375 -0.0806972160499711 1.0034814062451562
7.137796875 -0.08082594596757268 1.002677383956841
7.1389453125 -0.08180539104640275 1.0032708817692515
7.14009375 -0.08302510457544941 1.0037353627463559
7.1412421875 -0.08254701392739586 1.0041029217190194
7.142390625 -0.08227242884701104 1.0033420642741513
7.1435390625 -0.08239382007677767 1.004249367954416
7.1446875 -0.08219430992975274 1.0052558185397706
7.1458359375 -0.08182284618809357 1.00459626960829
7.146984375 -0.08216358144132449 1.0051142595607523
7.1481328125 -0.08093057372180676 1.0046002870761563
7.14928125 -0.08197133389026573 1.004510019744734
7.1504296875 -0.08225665656757182 1.0053911402137414
7.151578125 -0.08147926936811593 1.0065389388347534
7.1527265625 -0.08139865055482702 1.0082456052989963
7.153875 -0.07888307475541767 1.0087529578295686
7.1550234375 -0.07863889940333382 1.0093103250360556
7.156171875 -0.07689715452481746 1.0096225623472166
7.1573203125 -0.07489365041225637 1.0073273829504579
7.15846875 -0.07298482751213417 1.0073479001196086
7.1596171875 -0.07166426055306334 1.0067922939584733
7.160765625 -0.07146852562591252 1.0065072908557544
7.1619140625 -0.07207694689441654 1.0065592985083955
7.1630625 -0.07298229539161397 1.005800060424283
7.1642109375 -0.07216725357535095 1.005851336313277
7.165359375 -0.07045734422279178 1.0064504383681006
7.1665078125 -0.0697628574055364 1.0053009657617458
7.16765625 -0.06929442205783774 1.0049064598447013
7.1688046875 -0.06909994544282619 1.004326859274374
7.169953125 -0.07002904800630079 1.0039524600921552
7.1711015625 -0.07010022779790706 1.0033373455568055
7.17225 -0.06890710400769703 1.0040353169602936
7.1733984375 -0.06903273103234733 1.0042713801286738
7.174546875 -0.0683018315810375 1.0047170834336918
7.1756953125 -0.06741932060369044 1.003330949001875
7.17684375 -0.06682980441786754 1.0027401696890939
7.1779921875 -0.0658678121363526 1.0016716923594875
7.179140625 -0.06704597905964532 1.0004018705572477
7.1802890625 -0.06664242166984657 0.9995444105218033
7.1814375 -0.06685081319092781 0.9993226134662708
7.1825859375 -0.06647002777104899 0.999719673434119
7.183734375 -0.06521896515600645 0.997609050025223
7.1848828125 -0.06665162595333868 0.9979804837468894
7.18603125 -0.0678964424504161 0.9986407112308517
7.1871796875 -0.06846804818689656 0.9989311008067083
7.188328125 -0.06936651012874712 0.9990585278292046
7.1894765625 -0.06767541338130895 0.9993234560112157
7.190625 -0.06891803421397297 0.9989800684321655
7.1917734375 -0.06866711647981899 0.9991190274251858
7.192921875 -0.06889139531015387 0.9992336666050766
7.1940703125 -0.0691399695917766 1.0000900555283943
7.19521875 -0.06807520458951655 0.9997969987335669
7.1963671875 -0.06849205858071894 1.0008627822416354
7.197515625 -0.06859317848858654 1.0006284157871579
7.1986640625 -0.06795690716022168 0.9998912037027489
7.1998125 -0.06823449550735772 1.0008445936652093
7.2009609375 -0.06699172959995725 1.00014579172524
7.202109375 -0.0675107497641963 1.0021573492109093
7.2032578125 -0.0677409223729839 1.0022209420184827
7.20440625 -0.06745330886891604 1.0024478338436604
7.2055546875 -0.06706018357877785 1.004462553064456
7.206703125 -0.06606295627556069 1.0042981147894143
7.2078515625 -0.06513779264575403 1.0034300905327973
7.209 -0.06466829940528684 1.0035157348715662
7.2101484375 -0.0651158608684177 1.0029261971713255
7.211296875 -0.06583044594159404 1.0034688876464195
7.2124453125 -0.06409399674904098 1.0034028962510795
7.21359375 -0.06320135204249994 1.003766776179274
7.2147421875 -0.06276785920246408 1.0029975643328426
7.215890625 -0.06289016442809453 1.0030156025132713
7.2170390625 -0.06306380961022717 1.0030237282527683
7.2181875 -0.06335875521509865 1.0017636576046438
7.2193359375 -0.062117329015711376 1.0018573062194724
7.220484375 -0.061876673718316344 1.002359844100427
7.2216328125 -0.06152942335831679 1.0014657382648842
7.22278125 -0.0619025091048685 1.001655681344122
7.2239296875 -0.06212928319661304 1.001052204167084
7.225078125 -0.0613595294833853 1.0007481122508495
7.2262265625 -0.06154965409124663 1.000432320487569
7.227375 -0.06103743960123276 1.0010024202049381
7.2285234375 -0.060432393784534244 1.000557021896787
7.229671875 -0.0606324697943994 0.9995957731966968
7.2308203125 -0.0594262047465024 1.0000980864979612
7.23196875 -0.06021937058991955 1.0003116472169542
7.2331171875 -0.06206850827480159 1.0008077080384516
7.234265625 -0.061329186747103914 0.9995531401538904
7.2354140625 -0.061711990254983584 1.0011163095896412
7.2365625 -0.0606891351970702 1.0010915977153063
7.2377109375 -0.06074194795603849 1.001672505168598
7.238859375 -0.06212434461165928 1.0022172071009692
7.2400078125 -0.06170180091775507 1.0014606296698427
7.24115625 -0.06187122856201843 1.0013925490374398
7.2423046875 -0.06121248445091654 1.00252692087712
7.243453125 -0.059728965604051665 1.0019975409149382
7.2446015625 -0.060817123786946536 1.0016514464795354
7.24575 -0.060538027021565854 1.0020957937472799
7.2468984375 -0.061127861156989816 1.0034869124746946
7.248046875 -0.059284299290730536 1.0027322379245853
7.2491953125 -0.05816530375720558 1.002946583970223
7.25034375 -0.0598698138210004 1.0036895527782006
7.2514921875 -0.059498062732286444 1.0039184192504722
7.252640625 -0.059961469132222944 1.0042113018252692
7.2537890625 -0.058705142889520556 1.0051299077537328
7.2549375 -0.058360472823793336 1.0059290197408295
7.2560859375 -0.058650414606555734 1.0065935845923968
7.257234375 -0.05848138262860181 1.0078022437899101
7.2583828125 -0.05935200964456505 1.0082321421029425
7.25953125 -0.05906514292916623 1.007626400774115
7.2606796875 -0.057638952230319784 1.007143598521386
7.261828125 -0.057493445988868214 1.0099450488952697
7.2629765625 -0.05754562452161491 1.0099516093223269
7.264125 -0.05699240220565516 1.0092633053873934
7.2652734375 -0.05464511111934919 1.0094175130893164
7.266421875 -0.053106007699930985 1.0092696483730463
7.2675703125 -0.05251369936340694 1.0095959009883986
7.26871875 -0.05197009611258832 1.0107885884327357
7.2698671875 -0.05034621085602774 1.009661294241715
7.271015625 -0.050499380411559214 1.010031277762511
7.2721640625 -0.04897897060033693 1.008561957310268
7.2733125 -0.04803782489042621 1.0076566041008312
7.2744609375 -0.04827947727834574 1.0058108723481336
7.275609375 -0.04821573901656828 1.0064582263403983
7.2767578125 -0.0482868140554612 1.0059498852133075
7.27790625 -0.04787988340800575 1.0057146651458742
7.2790546875 -0.04694096241066523 1.0062300212516684
7.280203125 -0.047689883978772864 1.0070396415687706
7.2813515625 -0.04627548051549138 1.006323504172341
7.2825 -0.045462457869376235 1.0054470413653487
7.2836484375 -0.046050807582721495 1.0057489915110902
7.284796875 -0.045036918755187755 1.004414784023523
7.2859453125 -0.044773047977938574 1.0045496971902521
7.28709375 -0.04516100645651855 1.0044054848041921
7.2882421875 -0.045551070332888965 1.0046222300235053
7.289390625 -0.04515280355599667 1.0032608168013164
7.2905390625 -0.04431632648507449 1.0020956496292415
7.2916875 -0.04562240300629176 1.0028481346727534
7.2928359375 -0.04590874510162704 1.0012380218852783
7.293984375 -0.045585996618951345 1.0014858850394028
7.2951328125 -0.045312886526733445 1.0018632013663733
7.29628125 -0.04430781015162512 1.001865879211203
7.2974296875 -0.04548926008529236 1.0019687787371028
7.298578125 -0.046540979305968774 1.0019484951520559
7.2997265625 -0.0461494523074527 1.0017309066500746
7.300875 -0.045581988945798596 1.0017194981698128
7.3020234375 -0.04414950211694588 1.0020854641101922
7.303171875 -0.04581447765189995 1.0015058084024984
7.3043203125 -0.046498220743299845 1.001169824588155
7.30546875 -0.045533137961064785 1.0003507341755105
7.3066171875 -0.04502880219003484 1.0004736330061912
7.307765625 -0.044011400382152885 1.000149273593104
7.3089140625 -0.045005070932677006 0.999712106938392
7.3100625 -0.044973701932097244 1.000720825506271
7.3112109375 -0.0454206579372634 1.0008566748205774
7.312359375 -0.04408435593013644 1.0020826771640767
7.3135078125 -0.04394753614694906 1.003528975153161
7.31465625 -0.04428472503707698 1.0031815534496094
7.3158046875 -0.044962871211934444 1.0040398782571367
7.316953125 -0.04534893523988055 1.0036934616053137
7.3181015625 -0.04490448304817373 1.0045814060922404
7.31925 -0.044732814461040216 1.004380630201214
7.3203984375 -0.04284817972185241 1.0046656723573342
7.321546875 -0.04375079515950375 1.0054740516409262
7.3226953125 -0.043222695535349596 1.0047199985957989
7.32384375 -0.04271362483354052 1.0058979001645045
7.3249921875 -0.04201023585001448 1.006436374410514
7.326140625 -0.041983732275868685 1.0065461772466275
7.3272890625 -0.04146592124037171 1.005934020103806
7.3284375 -0.04119297207306244 1.0066072642417718
7.3295859375 -0.04117695087526663 1.00687300171199
7.330734375 -0.04225102253055642 1.0067894499367602
7.3318828125 -0.04136559206022908 1.0069888353476213
7.33303125 -0.04133458002820785 1.0077183666984701
7.3341796875 -0.04159275863008574 1.0081985924007595
7.335328125 -0.04041235657524139 1.0079478953745769
7.3364765625 -0.039653693828371334 1.008308120542184
7.337625 -0.03831202073949075 1.007963067034461
7.3387734375 -0.03737739025501399 1.0077552111490686
7.339921875 -0.03801609857931226 1.0078470967092232
7.3410703125 -0.03841509177888863 1.007176925414482
7.34221875 -0.03743574374759956 1.0071935984455427
7.3433671875 -0.03705215986986424 1.0079425354466272
7.344515625 -0.037241270834734885 1.0082357271084743
7.3456640625 -0.03766382179460906 1.008601433165372
7.3468125 -0.03734393875907038 1.0086694074390012
7.3479609375 -0.036966662401251654 1.0087338178052732
7.349109375 -0.03681069254368108 1.0080686662645146
7.3502578125 -0.035615186106444874 1.0087793959255476
7.35140625 -0.03599398642599144 1.0095316571841448
7.3525546875 -0.0361513900867978 1.0085709474198339
7.353703125 -0.03501605408965003 1.0087458071811635
7.3548515625 -0.03496135920471444 1.0079577355133884
7.356 -0.033337010465281536 1.0081242608841945
7.3571484375 -0.03353252692232467 1.0082174863568008
7.358296875 -0.033778306941087355 1.0081356992604062
7.3594453125 -0.03456899079689907 1.0087076803104025
7.36059375 -0.03437739990080102 1.0077568032284847
7.3617421875 -0.03256128576353501 1.0083033969340862
7.362890625 -0.033383097939910344 1.0094168680610112
7.3640390625 -0.03254132924592801 1.0095458242142448
7.3651875 -0.031420246338899005 1.0093713403254843
7.3663359375 -0.03118243229382034 1.0098023406622054
7.367484375 -0.029947286168997056 1.0098803970394628
7.3686328125 -0.02904031389646483 1.009927549912017
7.36978125 -0.02836153600318969 1.0100129012354033
7.3709296875 -0.028157678950337606 1.0101217498891109
7.372078125 -0.028475048656453228 1.00873886706719
7.3732265625 -0.027633547971308514 1.008375167401104
7.374375 -0.026554469208184384 1.008391042376269
7.3755234375 -0.02648507361678487 1.0080268388875626
7.376671875 -0.025107431305554373 1.007783435323161
7.3778203125 -0.02515891933067571 1.0076810923176265
7.37896875 -0.025431327920495406 1.0078373178496012
7.3801171875 -0.02472500358735691 1.007655698296518
7.381265625 -0.02455590607409458 1.0075452434874888
7.3824140625 -0.023740057358212274 1.0071036983257833
7.3835625 -0.02380419651054938 1.0067043457447904
7.3847109375 -0.023332639440455105 1.0056030238480191
7.385859375 -0.02235844714579871 1.0057726454394622
7.3870078125 -0.022125302880963593 1.0051501465723625
7.38815625 -0.02205751041296733 1.0043730364903687
7.3893046875 -0.021740136064834048 1.0041913044725317
7.390453125 -0.0223829374431751 1.0045102363485998
7.3916015625 -0.020604440346360386 1.004004975110182
7.39275 -0.02019814553230509 1.0045064671189807
7.3938984375 -0.020564701867872792 1.00426669076451
7.395046875 -0.02109976124730789 1.0035732632091956
7.3961953125 -0.020426184291368 1.0033444121582207
7.39734375 -0.02023548560249594 1.003941280754017
7.3984921875 -0.020574188960324646 1.0038508572390388
7.399640625 -0.02092211513678577 1.0041071924905827
7.4007890625 -0.020938299737598476 1.0046932433605984
7.4019375 -0.020710198580971118 1.0042054324207101
7.4030859375 -0.02087546902261772 1.0042909288859518
7.404234375 -0.020510413013937412 1.0052099496709823
7.4053828125 -0.02024933329390194 1.004248927481096
7.40653125 -0.0211117154041513 1.0036745447282778
7.4076796875 -0.020788299295414148 1.0044553460525485
7.408828125 -0.02085579479673305 1.0044545978941863
7.4099765625 -0.021100056407740875 1.0034894403735495
7.411125 -0.02137316448810156 1.0034767321414135
7.4122734375 -0.02135748665892323 1.0044634421287144
7.413421875 -0.02134532118201765 1.0047561088288013
7.4145703125 -0.021890743559091708 1.005248751143247
7.41571875 -0.020880050038280362 1.0060923782473121
7.4168671875 -0.021354120356462003 1.005917990899925
7.418015625 -0.02094933093080975 1.006414231019325
7.4191640625 -0.020661897563286874 1.0068793503834186
7.4203125 -0.02119184905595589 1.00691403945068
7.4214609375 -0.020526106435332814 1.0068177956035194
7.422609375 -0.020077568164396264 1.007245370291081
7.4237578125 -0.020022075401021133 1.0064455574375633
7.42490625 -0.01972253047311001 1.0063683717257552
7.4260546875 -0.01920364203569963 1.006023846884386
7.427203125 -0.018985052795624874 1.0071605114740276
7.4283515625 -0.01940788962617318 1.0072430424037204
7.4295 -0.01933634172684004 1.0064323149260361
7.4306484375 -0.01840006143528447 1.0071507429591509
7.431796875 -0.018927786843085437 1.0067366373649216
7.4329453125 -0.01851541348396088 1.0066062390236485
7.43409375 -0.01753105738633559 1.0077252200209847
7.4352421875 -0.017216691173047194 1.0077548368273708
7.436390625 -0.016869799130201174 1.0080844118282333
7.4375390625 -0.016487344895513456 1.0077776382864359
7.4386875 -0.015920799110129558 1.0083891662615083
7.4398359375 -0.01596809731857249 1.0084769634025543
7.440984375 -0.016046008929314626 1.0084035967904559
7.4421328125 -0.014956888909608113 1.00909583466881
7.44328125 -0.015173502641442932 1.0084783036687794
7.4444296875 -0.014913231349481304 1.009042597973239
7.445578125 -0.014957014156009446 1.009120419344127
7.4467265625 -0.015547043401834743 1.0083814632670012
7.447875 -0.015365100671494714 1.0084889541429223
7.4490234375 -0.014383956823042277 1.008978952589672
7.450171875 -0.014087461120674438 1.0086511011814594
7.4513203125 -0.01339378842212638 1.0089626615805252
7.45246875 -0.013328347992120224 1.008506639528325
7.4536171875 -0.013137501063263793 1.0086620001158721
7.454765625 -0.012680518304151261 1.0083301649397218
7.4559140625 -0.012492895291372014 1.008858996926572
7.4570625 -0.011474109825545822 1.009955085741362
7.4582109375 -0.01254318479977315 1.0088348824813949
7.459359375 -0.011415208097471027 1.0088792484139886
7.4605078125 -0.01026296262057838 1.0094164644360184
7.46165625 -0.010484191068366497 1.0095489392361392
7.4628046875 -0.00989309840246902 1.0094153179710053
7.463953125 -0.010534365988133676 1.0093280276853882
7.4651015625 -0.00997552360178397 1.0096035594001906
7.46625 -0.01002859390197039 1.0099081785652175
7.4673984375 -0.009768477163118364 1.0101604188502022
7.468546875 -0.008999817935239907 1.0100086554524448
7.4696953125 -0.008720722701480374 1.0097280057540488
7.47084375 -0.00888420531167329 1.0095912059191958
7.4719921875 -0.007773278416771251 1.0097337970706288
7.473140625 -0.007996364275390591 1.0100604993659976
7.4742890625 -0.007883523754666402 1.0103107450930222
7.4754375 -0.007426886904031191 1.01064096446336
7.4765859375 -0.007912512433026625 1.0103461340096909
7.477734375 -0.006304512175677693 1.0098467119309584
7.4788828125 -0.005337417062097671 1.010437158477262
7.48003125 -0.005907727097307705 1.0108453348860333
7.4811796875 -0.005965554283648006 1.0096070629026526
7.482328125 -0.005955859397477281 1.0089804904203152
7.4834765625 -0.005293500077499652 1.0095246653994403
7.484625 -0.005021364857980992 1.0094622209105677
7.4857734375 -0.004983505083901385 1.009479985732204
7.486921875 -0.00442808885096363 1.0095604797872246
7.4880703125 -0.004392430778750206 1.0098528776767206
7.48921875 -0.0034539465361247135 1.009439997827382
7.4903671875 -0.0024777399472576123 1.0104977068397223
7.491515625 -0.002863618224901998 1.0101243450224504
7.4926640625 -0.0025987133593247114 1.0105286957953719
7.4938125 -0.002374719503679873 1.0101606634963234
7.4949609375 -0.0019606856111672455 1.010538442991746
7.496109375 -0.0019372712870069364 1.011574290190796
7.4972578125 -0.001402997561767344 1.0118894727249668
7.49840625 -0.0008967983609421415 1.0121748843154856
7.4995546875 -0.0007356770325386841 1.0108467551018419
7.500703125 -0.0008083735253399116 1.010538056139141
7.5018515625 0.00018905361364271456 1.011365573935902
7.503 0.0006852498661820694 1.0111167852661072
7.5041484375 0.0013092385091002245 1.0118296281110937
7.505296875 0.0019884126654776124 1.01143058963491
7.5064453125 0.0017724820198253277 1.0109488509260363
7.50759375 0.0021012565108070036 1.0110137263967112
7.5087421875 0.0016143121012193729 1.0103931214161788
7.509890625 0.003386337736316025 1.010542061385045
7.5110390625 0.002934280532658179 1.010013072024598
7.5121875 0.0034847870807340753 1.0095261484178113
7.5133359375 0.00406337745212576 1.009766488609486
7.514484375 0.004675763186411996 1.008849476387139
7.5156328125 0.004333607312907994 1.0091564731733444
7.51678125 0.004197298709515573 1.0101830058210721
7.5179296875 0.0040110066737876204 1.0097067172424243
7.519078125 0.004335700329770875 1.0093497019216575
7.5202265625 0.005220657102027515 1.0091567029262372
7.521375 0.004469988193074537 1.0091096102684924
7.5225234375 0.0047442983234787794 1.0095248518388031
7.523671875 0.0056214868200129 1.0094438506102232
7.5248203125 0.0054596792073495215 1.008760991995526
7.52596875 0.006094427101593358 1.008683932667907
7.5271171875 0.005329995603982063 1.008508414893481
7.528265625 0.005923123165852029 1.0083859354153475
7.5294140625 0.005627294557855489 1.0079820324184556
7.5305625 0.005365795919732519 1.0076120200634642
7.5317109375 0.005576567356926354 1.006947971992418
7.532859375 0.006302683605045656 1.0076536220897414
7.5340078125 0.00613991041011247 1.0084309555190132
7.53515625 0.0062198595924935485 1.0081095380091
7.5363046875 0.0063488209168119925 1.0082631164018852
7.537453125 0.006288496752755612 1.0077654215975813
7.5386015625 0.0069826836376278845 1.008301020980739
7.53975 0.006281788607987671 1.0085247657367666
7.5408984375 0.006448671918815929 1.0086502645387898
7.542046875 0.0063672869399512 1.0093056045036684
7.5431953125 0.006257831376234757 1.0095186342448612
7.54434375 0.005902672061063152 1.008836782057441
7.5454921875 0.006864010477469096 1.0084726276723226
7.546640625 0.007462758775051981 1.008914197242038
7.5477890625 0.007396387605062005 1.0094202872414826
7.5489375 0.006689935508784106 1.0100221025336005
7.5500859375 0.0066456503351659535 1.0096860442048028
7.551234375 0.0071038608719395935 1.0098277429826925
7.5523828125 0.007774767266457094 1.0101676081368653
7.55353125 0.008254803730703475 1.0097711617269913
7.5546796875 0.008946762968137567 1.0106193209380085
7.555828125 0.009187853476122165 1.0105498239907398
7.5569765625 0.009465063374087146 1.0098230663090102
7.558125 0.01005375354992366 1.0103020787734303
7.5592734375 0.009993906383810092 1.0101662047335909
7.560421875 0.01021179735023614 1.0103289794944088
7.5615703125 0.010624702258291041 1.0104235749179729
7.56271875 0.010463030843154031 1.0102758016174886
7.5638671875 0.010671349689254372 1.0105985607432784
7.565015625 0.011478441385837479 1.010501379677066
7.5661640625 0.012109702082190144 1.0116106573857677
7.5673125 0.011934484175585458 1.0103733129409
7.5684609375 0.011807285751180174 1.0101483513579164
7.569609375 0.012732507304890062 1.0106290114304848
7.5707578125 0.013554111580984796 1.0104940633844817
7.57190625 0.014127379139976692 1.010657907466319
7.5730546875 0.013374350286234571 1.010855648983234
7.574203125 0.013593675872866307 1.0115077130756358
7.5753515625 0.013469186626883789 1.0114703136760124
7.5765 0.013221414509898277 1.0107685990554787
7.5776484375 0.014342296072539173 1.0112583815624823
7.578796875 0.015057872911887649 1.0114302438270857
7.5799453125 0.014768967564465052 1.0112503524228709
7.58109375 0.014808275283639538 1.0119211950748834
7.5822421875 0.01543273678074153 1.0111738607134981
7.583390625 0.015584347919651353 1.011089225839576
7.5845390625 0.016342391841653536 1.011163424412245
7.5856875 0.01704463921920324 1.0109945676320031
7.5868359375 0.017229055090378698 1.0113892158538527
7.587984375 0.01762944926354376 1.012161827479613
7.5891328125 0.018091996096089635 1.0118481947856541
7.59028125 0.01827445829758856 1.0122346577678432
7.5914296875 0.018597639030772828 1.011775079241743
7.592578125 0.01918698149353279 1.0120733505785373
7.5937265625 0.018096885848139926 1.0123966256001922
7.594875 0.01781339858660269 1.0115774579899988
7.5960234375 0.018497926933673026 1.0117239000351057
7.597171875 0.018817234806461608 1.0116051279465967
7.5983203125 0.019736820973241254 1.0110557306296353
7.59946875 0.020405524830526295 1.0118529772615261
7.6006171875 0.020039687791975153 1.0112276965165776
7.601765625 0.02017482572347462 1.0117271309755589
7.6029140625 0.020950070066704934 1.01102533392227
7.6040625 0.02098138404290173 1.011666511765259
7.6052109375 0.021648674992879563 1.0117991032628941
7.606359375 0.021899417494310763 1.0114492916893785
7.6075078125 0.022230059327044138 1.01220773217645
7.60865625 0.022244753696315178 1.0119708257105882
7.6098046875 0.022732605786075222 1.0116634580341217
7.610953125 0.022535973424666345 1.011994980973387
7.6121015625 0.023064453309314725 1.0118949710885423
7.61325 0.022695596697369647 1.0123897995252031
7.6143984375 0.023780990224417986 1.012042962932896
7.615546875 0.024361954396480978 1.0112630844924104
7.6166953125 0.02497636619867319 1.0114948871543894
7.61784375 0.025478400844606258 1.0116618815856908
7.6189921875 0.0253894874075907 1.0120565066732048
7.620140625 0.02606293734629181 1.0120730392546837
7.6212890625 0.026004617459801954 1.0123059586939145
7.6224375 0.026022944025874684 1.0127256888479317
7.6235859375 0.026277582579926434 1.0127646261384284
7.624734375 0.026423008135042836 1.0134100467686737
7.6258828125 0.02659517697220934 1.0129468263260812
7.62703125 0.02693773037995051 1.0126488341386473
7.6281796875 0.02678886687077997 1.012445796201448
7.629328125 0.02793480696106329 1.0127477639760987
7.6304765625 0.028281311623321537 1.013056958199215
7.631625 0.02783324245060409 1.0123464258891413
7.6327734375 0.027895282415131506 1.0119141639838758
7.633921875 0.028157873872192762 1.0122639575269954
7.6350703125 0.02874834963392775 1.0119983544707327
7.63621875 0.028737721065781263 1.012243163371368
7.6373671875 0.028815374119586804 1.0130789783758791
7.638515625 0.02870552056718073 1.0126287399466845
7.6396640625 0.02973746519251675 1.0123518435722345
7.6408125 0.030757976029400752 1.0127054051514814
7.6419609375 0.031158579801737363 1.012012540444334
7.643109375 0.03081056672397678 1.0128459530558267
7.6442578125 0.03170958911197844 1.0129207345642164
7.64540625 0.032007706893770804 1.0131908388883544
7.6465546875 0.03257948229750571 1.0127702317893703
7.647703125 0.032980908211818386 1.012348916259051
7.6488515625 0.033420779723408525 1.0133854475264847
7.65 0.03362822222562953 1.0122868601881918
7.6511484375 0.03406055724058435 1.012069510973211
7.652296875 0.03467468386212735 1.0122178520121838
7.6534453125 0.03413132236055905 1.0120873715607166
7.65459375 0.03436057020188807 1.0121370506719687
7.6557421875 0.03457813573871932 1.0119754449352563
7.656890625 0.03541445164378207 1.0110263044174395
7.6580390625 0.03577673586772337 1.01187348027769
7.6591875 0.03565089052022155 1.0116294778698325
7.6603359375 0.03544248479279882 1.0124143459231263
7.661484375 0.03595158795183154 1.0119689807481802
7.6626328125 0.036785824871886974 1.011632276926411
7.66378125 0.03698867582993026 1.0124782014361968
7.6649296875 0.03768165953933675 1.0119025755698157
7.666078125 0.036505555717308485 1.0124633312436435
7.6672265625 0.0363592973634177 1.0128701416074946
7.668375 0.03665607531215034 1.0121987008124034
7.6695234375 0.03761452143546427 1.0120050634271271
7.670671875 0.03802675269327301 1.011966367334738
7.6718203125 0.03766816532012182 1.0121599297925936
7.67296875 0.03825631363800375 1.0123090763726619
7.6741171875 0.03859250752252816 1.0116889812010346
7.675265625 0.03858124471464494 1.0123329642215466
7.6764140625 0.03926582655161098 1.0128554114603063
7.6775625 0.039656122526266255 1.0120632104614926
7.6787109375 0.03930768311604124 1.0129964763492632
7.679859375 0.03973936869153215 1.012144057911621
7.6810078125 0.0400410950465717 1.011874582113075
7.68215625 0.041110491021100856 1.0124901170599567
7.6833046875 0.041389751957905896 1.012385702097141
7.684453125 0.04098685388674142 1.0130605837141726
7.6856015625 0.04105861754962126 1.0129024040655064
7.68675 0.041407229305728155 1.0129019182099896
7.6878984375 0.0419601123002373 1.0124674835424143
7.689046875 0.04199049120804249 1.012774540820184
7.6901953125 0.04233977789149637 1.013289755700231
7.69134375 0.04244370269049158 1.013069013699724
7.6924921875 0.04275472371669084 1.012530658828879
7.693640625 0.043331995873064744 1.012667937135474
7.6947890625 0.04391616335360951 1.0132579041136052
7.6959375 0.043868590496063675 1.0129216771731846
7.6970859375 0.043997280216123064 1.0131703270280896
7.698234375 0.04468433378656049 1.0130030352183756
7.6993828125 0.044954362529801464 1.0132440589413019
7.70053125 0.045299543488941364 1.0133517921979185
7.7016796875 0.045281843307264105 1.0130786348957062
7.702828125 0.04472876675850196 1.012620447089453
7.7039765625 0.0457073894374912 1.012064332148435
7.705125 0.04614399039308187 1.0123167448028254
7.7062734375 0.046468771279638776 1.011422443323017
7.707421875 0.04665589347205307 1.0115870540963052
7.7085703125 0.04639827773050215 1.0119901402023777
7.70971875 0.0467661997779663 1.0115716990039225
7.7108671875 0.0469654281326022 1.0118675348130877
7.712015625 0.047497090737007794 1.0124412894414798
7.7131640625 0.04801949439996081 1.0120378036390083
7.7143125 0.047416160185106276 1.012344865386753
7.7154609375 0.04846018938587368 1.0125837514626244
7.716609375 0.04829216070617512 1.0120888236158978
7.7177578125 0.0481951048652344 1.01208100381757
7.71890625 0.04798608906804466 1.0116926563889912
7.7200546875 0.04788688806753548 1.013073645586378
7.721203125 0.048516469219837946 1.0130799489407019
7.7223515625 0.04967664939305258 1.0128337673636745
7.7235 0.04997775139881125 1.0129612213951837
7.7246484375 0.05058949137764904 1.0129916814541362
7.725796875 0.0506748199805665 1.0137150772220784
7.7269453125 0.05214360215712083 1.0136819681385743
7.72809375 0.052542662539859425 1.0136206498843512
7.7292421875 0.05295621931969134 1.0141079726406312
7.730390625 0.0523540214716256 1.0126304626549774
7.7315390625 0.05288987334743346 1.0130717751284044
7.7326875 0.05305185703214482 1.0135822257448681
7.7338359375 0.05333344470272394 1.0136437138553611
7.734984375 0.05324485054542699 1.013585940848019
7.7361328125 0.05373855060389307 1.0135783551800568
7.73728125 0.05319921104795994 1.0134416370081576
7.7384296875 0.05429090668726638 1.0137104064159743
7.739578125 0.054272423810497045 1.013708319370635
7.7407265625 0.05568079331008974 1.0131201211784715
7.741875 0.05663176959606614 1.0134630672826261
7.7430234375 0.05642205479364912 1.0138441448569901
7.744171875 0.05426046611269139 1.0138870575873034
7.7453203125 0.05458189042177172 1.013402581029268
7.74646875 0.055800766034326515 1.013163035305121
7.7476171875 0.0563503454589703 1.0137245250433893
7.748765625 0.057646431343880894 1.0130936351916788
7.7499140625 0.056564710132647036 1.0141121214761117
7.7510625 0.05733755875185348 1.0134675293835929
7.7522109375 0.05772865603806569 1.0131970949138513
7.753359375 0.058213603828817156 1.0133655428779882
7.7545078125 0.05846943960553799 1.0123191071151019
7.75565625 0.05871981217468866 1.0131274042188871
7.7568046875 0.05935281074808996 1.0132005803613562
7.757953125 0.06060615409498926 1.0134427200707368
7.7591015625 0.060946894052127304 1.014193202837557
7.76025 0.06109903960361336 1.0137806861356335
7.7613984375 0.06196601527805376 1.0148624927015564
7.762546875 0.062007919898732194 1.0142528035312939
7.7636953125 0.06274003644499662 1.0145900342425889
7.76484375 0.0633355070945193 1.0137349274681378
7.7659921875 0.06335868744880513 1.0133041553725572
7.767140625 0.06345817265481676 1.0129247576926312
7.7682890625 0.06333321352225688 1.0126971356790693
7.7694375 0.06374039125179769 1.0123923088346118
7.7705859375 0.06338728798844191 1.01313175259406
7.771734375 0.06394391904020846 1.0126181578767905
7.7728828125 0.06461116090558418 1.0121301421804652
7.77403125 0.06477576492716025 1.0128539125154148
7.7751796875 0.06512656529428404 1.0118486460978648
7.776328125 0.0654823410712784 1.0124403615977497
7.7774765625 0.06551941542157536 1.0123562467521556
7.778625 0.06559516424434847 1.013072017589963
7.7797734375 0.06487486966458103 1.012708021266054
7.780921875 0.06572588760437431 1.011873779812364
7.7820703125 0.06604753961374396 1.010611165154261
7.78321875 0.06696672046066922 1.0109914929402017
7.7843671875 0.06757497114813055 1.0120463354829239
7.785515625 0.06695552447742276 1.0126523536873453
7.7866640625 0.06766540389909637 1.0122273063385974
7.7878125 0.06736507596037679 1.0118619922387249
7.7889609375 0.06831324212211798 1.0109009001314442
7.790109375 0.06901298287272142 1.0104191022130258
7.7912578125 0.06914253061853048 1.011119491116796
7.79240625 0.06923004474652893 1.0116368947875538
7.7935546875 0.06967963575540707 1.0106917683053904
7.794703125 0.06942125882900729 1.0108923582385791
7.7958515625 0.06916944962580415 1.0101860978338695
7.797 0.0693242295643646 1.0103258907686905
7.7981484375 0.07011258641059553 1.00999517281975
7.799296875 0.07073187134500192 1.009887834755666
7.8004453125 0.0707556560341549 1.0102541334799433
7.80159375 0.07107416453436577 1.00947465459266
7.8027421875 0.07096318364406576 1.0105258554616605
7.803890625 0.0700135995482225 1.0101301624148618
7.8050390625 0.07097000971201359 1.0092824624087693
7.8061875 0.07148817754853798 1.0094335158488774
7.8073359375 0.07073540839611173 1.0092734871839935
7.808484375 0.0713580961624311 1.0091236575962386
7.8096328125 0.07070363445831179 1.0097287205007839
7.81078125 0.0719261502727396 1.0093127395661876
7.8119296875 0.07197948186183861 1.0095662643627064
7.813078125 0.07187714286496882 1.0101766064510649
7.8142265625 0.07222587402276692 1.0105507900065107
7.815375 0.07199997133226768 1.0099160432793144
7.8165234375 0.07273461921557492 1.009034240833898
7.817671875 0.0736756791784515 1.0093868496286793
7.8188203125 0.0739303566142849 1.0096158083344748
7.81996875 0.07384673738225148 1.0092596501018054
7.8211171875 0.07367781174066534 1.0099722777124822
7.822265625 0.07377457791103992 1.0098592468922156
7.8234140625 0.07449822078600854 1.0100557190111092
7.8245625 0.07456722972029484 1.0098247799488855
7.8257109375 0.07569289090340794 1.0100348958878465
7.826859375 0.0754239566407976 1.0105493488553758
7.8280078125 0.07556323023595776 1.010441691098852
7.82915625 0.07620409659779753 1.0103873756481738
7.8303046875 0.0762138161673846 1.0103851312741565
7.831453125 0.07627951686022127 1.010500645043717
7.8326015625 0.07605705483597053 1.0110492812906058
7.83375 0.07577569999309575 1.0116764097844333
7.8348984375 0.07769199037890484 1.0116567184191374
7.836046875 0.07944291706255985 1.0124165011496955
7.8371953125 0.0791510698895816 1.0119178360046719
7.83834375 0.0785801517451965 1.0117891767491152
7.8394921875 0.07859909224466038 1.011931110133784
7.840640625 0.08053660807886875 1.0105593904941892
7.8417890625 0.08048439315966333 1.0108035928406918
7.8429375 0.07978208226422573 1.0113858063938141
7.8440859375 0.08076100654032414 1.0123730312628496
7.845234375 0.07894891583544816 1.0122404010549286
7.8463828125 0.08021720424945489 1.0118326410458596
7.84753125 0.08099847878013205 1.010853140968512
7.8486796875 0.08110017413282028 1.010132949860202
7.849828125 0.08252589456964177 1.0097554573067873
7.8509765625 0.08255167808071928 1.0100094226596874
7.852125 0.08319629682981744 1.0097981370507947
7.8532734375 0.08416267642475384 1.0097002811718225
7.854421875 0.0835945647166908 1.010227093654429
7.8555703125 0.08402794985997797 1.01047579094431
7.85671875 0.08317456758501701 1.0101066784155106
7.8578671875 0.08339418537996374 1.0083765447721291
7.859015625 0.08441793986982882 1.008273179325777
7.8601640625 0.08492749466715654 1.008408085742764
7.8613125 0.08551075784994097 1.0080677876801216
7.8624609375 0.08604390216216481 1.0080413625218825
7.863609375 0.08669387334085951 1.008990090451042
7.8647578125 0.0869057951525217 1.0090832134337229
7.86590625 0.08725350661293879 1.0085558117892566
7.8670546875 0.08806112959472528 1.0091351377533773
7.868203125 0.08862761026394034 1.0089303005315513
7.8693515625 0.08760214917962927 1.0097251288756386
7.8705 0.08847328143808958 1.0093504556122412
7.8716484375 0.08893225296062413 1.0093627357690056
7.872796875 0.08882800574899163 1.0092155741145894
7.8739453125 0.09028149606875988 1.0087201473265437
7.87509375 0.08916078479362527 1.0088287394815867
7.8762421875 0.09000331567016329 1.0080904565522721
7.877390625 0.09085229161565067 1.0077489619325124
7.8785390625 0.09118777560993696 1.0074624605317617
7.8796875 0.09100314693740502 1.0073825072976863
7.8808359375 0.08876295355890887 1.0079652156620251
7.881984375 0.0896404287777372 1.007786043118003
7.8831328125 0.09031105901357317 1.0077452172912513
7.88428125 0.08976540022190943 1.0076103153797304
7.8854296875 0.0913967829017055 1.0076208388616716
7.886578125 0.09080292921242358 1.007230505548983
7.8877265625 0.09118071938993833 1.0066861416283677
7.888875 0.09132007262160288 1.0070895956077097
7.8900234375 0.09238234751241428 1.0068652112179175
7.891171875 0.09226796853761379 1.006499655367684
7.8923203125 0.09149731986659584 1.0068086606119708
7.89346875 0.09240809055077578 1.0068258136352406
7.8946171875 0.092078620676738 1.006967648108911
7.895765625 0.09327958227903521 1.0075875154502998
7.8969140625 0.09450357396324602 1.0076110599778112
7.8980625 0.09438708172838173 1.0071982466159544
7.8992109375 0.0948010005619497 1.007544487872063
7.900359375 0.09531314350429854 1.0074187929592855
7.9015078125 0.09531435630777027 1.0070770105446734
7.90265625 0.09597310255595026 1.0072722951544397
7.9038046875 0.09444254792349768 1.0069747604948578
7.904953125 0.09452275420574816 1.007474684466516
7.9061015625 0.09528638411516252 1.0065050689361463
7.90725 0.09646010736855365 1.0072104707253184
7.9083984375 0.09617512585335777 1.00717796344329
7.909546875 0.09776943380386877 1.007546293214208
7.9106953125 0.09704162999671315 1.0081616127320772
7.91184375 0.09712991455553671 1.0070647343607226
7.9129921875 0.09693728680971206 1.0054497508027014
7.914140625 0.09675404029179627 1.0058175629980162
7.9152890625 0.09692649366118833 1.0066557667062748
7.9164375 0.09632162989979978 1.0083119694208826
7.9175859375 0.09835252348657564 1.0077886675861423
7.918734375 0.09829695877312819 1.0073646580633828
7.9198828125 0.09894683704141446 1.0072804379315157
7.92103125 0.09822132377996878 1.0060970906312796
7.9221796875 0.09814831818763506 1.005967697989876
7.923328125 0.09955634731833035 1.0061451437473559
7.9244765625 0.1000401797634839 1.006288630414332
7.925625 0.10075119514089434 1.005547124350422
7.9267734375 0.10186687856771487 1.0046205267066473
7.927921875 0.1007180553085188 1.0048777865294372
7.9290703125 0.10056673639275815 1.0037000415189266
7.93021875 0.10269124600401852 1.0044613876185036
7.9313671875 0.10194927540353377 1.0041239763882341
7.932515625 0.10145031829766754 1.0027720045719541
7.9336640625 0.10080463074165696 1.003794863540935
7.9348125 0.1004390665853882 1.0045729417295073
7.9359609375 0.10073669442849853 1.0037287404210435
7.937109375 0.10128311650605631 1.0045343231252726
7.9382578125 0.10121262028844435 1.0037674277185908
7.93940625 0.10127015864842659 1.003883545384178
7.9405546875 0.10070272710691752 1.003416881109199
7.941703125 0.10155531734041873 1.0043329637949572
7.9428515625 0.10255395521778282 1.0046508192790724
7.944 0.10180535825501658 1.0038329823171241
7.9451484375 0.10197312517693807 1.0043527772496854
7.946296875 0.10201803014726218 1.004520694368884
7.9474453125 0.10259960789807338 1.0039778745547516
7.94859375 0.10267738227377671 1.003641692954551
7.9497421875 0.10269228274721609 1.0045867031884677
7.950890625 0.10269020682376628 1.0048775625557893
7.9520390625 0.10191958079277547 1.0052768235223544
7.9531875 0.10316969741105897 1.0056345894290888
7.9543359375 0.1030969129041947 1.0061051068555176
7.955484375 0.10390675255985177 1.0059650460861758
7.9566328125 0.1042549199281192 1.0050844931115186
7.95778125 0.10325017130865638 1.0057165243177106
7.9589296875 0.1029846882211981 1.0052230953158956
7.960078125 0.10448247239116981 1.005859996621166
7.9612265625 0.105066752069084 1.0062767600055125
7.962375 0.10415803775017596 1.0056581442337773
7.9635234375 0.10576827194700655 1.00610939347131
7.964671875 0.10639451863676591 1.0067991939034933
7.9658203125 0.10685397320513529 1.0064862318845949
7.96696875 0.10688774729869821 1.006588533403694
7.9681171875 0.10755032823035737 1.005640151796368
7.969265625 0.1076174511111519 1.0068145645429394
7.9704140625 0.10701141244270662 1.0054574521192605
7.9715625 0.10779491801294 1.0069621534005266
7.9727109375 0.10903049180794311 1.0080989485374459
7.973859375 0.1096208046085973 1.007960537086786
7.9750078125 0.10932814049251371 1.0071474572866776
7.97615625 0.10871172734208973 1.0080591213729675
7.9773046875 0.10947338312124544 1.0072513314667706
7.978453125 0.10894864514083868 1.0071846681990473
7.9796015625 0.1103588267622268 1.006160932137125
7.98075 0.10924557030752813 1.005455864736864
7.9818984375 0.11117200672668515 1.0059470512909268
7.983046875 0.11273630206008445 1.0059865034704303
7.9841953125 0.11284768407137602 1.0064379931345893
7.98534375 0.11295177948264123 1.0054847253019896
7.9864921875 0.11243983129984253 1.0055021432696543
7.987640625 0.1118307491653987 1.0050672926846211
7.9887890625 0.11270982047661626 1.0056678982756275
7.9899375 0.11166504298974522 1.0055895664143975
7.9910859375 0.112208080435369 1.0054342814078754
7.992234375 0.11300273875954464 1.0059748173757517
7.9933828125 0.11479815968504564 1.005206566394099
7.99453125 0.11662600292479319 1.0050037703289811
7.9956796875 0.11633454069066068 1.0062695364542296
7.996828125 0.11501743921630564 1.006979939415686
7.9979765625 0.11458144920853686 1.0057549051398413
7.999125 0.11471653980058455 1.006983945854022
8.0002734375 0.11512019667150486 1.0063082304592246
8.001421875 0.11632712272959767 1.006472568311143
8.0025703125 0.11701246422691669 1.0056543040993833
8.00371875 0.11702535753558935 1.0061160494760273
8.0048671875 0.11813626951255896 1.0071839611809887
8.006015625 0.11761788036362736 1.0064934923155289
8.0071640625 0.11756059297516563 1.0063936829568505
8.0083125 0.11803011609710184 1.0057506435988133
8.0094609375 0.11894993323156783 1.0060468113592327
8.010609375 0.11964049300615748 1.0049053208205876
8.0117578125 0.11865683435995283 1.0047450947730465
8.01290625 0.11923306841270759 1.0049809060141197
8.0140546875 0.12071203080898235 1.0057078908338484
8.015203125 0.12170183351572839 1.0049563403546984
8.0163515625 0.12088189776665742 1.0056270013917905
8.0175 0.12192688625516762 1.0061721810292248
8.0186484375 0.12174968910982487 1.0043445604402694
8.019796875 0.12008216979039765 1.00432210535023
8.0209453125 0.1207038798019412 1.0054786754398268
8.02209375 0.12073387355549337 1.0054243711793278
8.0232421875 0.12085977775915546 1.00474633373891
8.024390625 0.12167313076135877 1.0035802617967335
8.0255390625 0.12168460743251913 1.0031304583201444
8.0266875 0.12232337022645923 1.0041011835031108
8.0278359375 0.12278758303243975 1.005205720851957
8.028984375 0.12322854176841175 1.0057077407995352
8.0301328125 0.12243442474313615 1.0056662819155313
8.03128125 0.12346867899787684 1.0057745238897016
8.0324296875 0.12500546945350877 1.0050434934124919
8.033578125 0.12467855857167731 1.0042615918054651
8.0347265625 0.1242382224871364 1.0031007833301113
8.035875 0.12540641957605675 1.0045475451636698
8.0370234375 0.1247672373857196 1.0039440360044112
8.038171875 0.12554319306677286 1.003191122660995
8.0393203125 0.12697801205114145 1.003266807730275
8.04046875 0.12691133967590695 1.0045392922401895
8.0416171875 0.127768314217915 1.0057824702255034
8.042765625 0.1287108517186965 1.005868247100714
8.0439140625 0.12793958699127128 1.0057831161060589
8.0450625 0.12805043069200284 1.0047068287599583
8.0462109375 0.12876876828807776 1.0053744856316844
8.047359375 0.12853075757950216 1.004883886886212
8.0485078125 0.1278756567243906 1.0055560122966276
8.04965625 0.12805419264562617 1.0047665792102394
8.0508046875 0.12906601482026625 1.0047245691586992
8.051953125 0.12887741798196228 1.0038214594456778
8.0531015625 0.130105627441167 1.0038444794972672
8.05425 0.1318326428954254 1.0034489543525658
8.0553984375 0.1309649918210653 1.0038905416219785
8.056546875 0.13110150860602177 1.0044723016678692
8.0576953125 0.13125207216713708 1.003927022261426
8.05884375 0.1313068687175556 1.004405279715714
8.0599921875 0.13154458294836563 1.0039945715704452
8.061140625 0.13163560190884577 1.0032168603518028
8.0622890625 0.13221987065490814 1.0040442140843986
8.0634375 0.13252537444045304 1.004510587778518
8.0645859375 0.13296054608528907 1.0048387429732273
8.065734375 0.1328341372615599 1.0039994513843387
8.0668828125 0.13267162645902264 1.0032620481049968
8.06803125 0.13310915270708007 1.003049014611311
8.0691796875 0.13360862728586725 1.0017715368288618
8.070328125 0.13365494027886549 1.0029848882447636
8.0714765625 0.13350894285850823 1.0028605338314664
8.072625 0.1337432695785743 1.00237212625242
8.0737734375 0.13359385300830434 1.003349228043913
8.074921875 0.13358703746776762 1.0031274357042161
8.0760703125 0.13416489914023133 1.0030750456848638
8.07721875 0.13475224505864236 1.0030522364427938
8.0783671875 0.13584970779163003 1.0037386148563685
8.079515625 0.13502100920401028 1.0036599645613806
8.0806640625 0.1359775825378835 1.0026212279356517
8.0818125 0.1358216503293017 1.003172237510675
8.0829609375 0.135996755690716 1.0018360675782514
8.084109375 0.13769619707955572 1.0027435764962225
8.0852578125 0.13747676242083473 1.003710818231223
8.08640625 0.13694881092728395 1.0026506061873763
8.0875546875 0.13757045346288743 1.0028351428647388
8.088703125 0.13830656931751717 1.0021448246494598
8.0898515625 0.13822055891760088 1.002083332733216
8.091 0.13964309412967457 1.0021932562825597
8.0921484375 0.1390735310601262 1.002051526672184
8.093296875 0.13958395221866327 1.0026640992023519
8.0944453125 0.13982137351490365 1.0013746696024108
8.09559375 0.14024440639749824 1.0011377352447264
8.0967421875 0.14127982546684115 1.0010012185540884
8.097890625 0.14088377989745093 1.0017138675955313
8.0990390625 0.14108478313707007 1.0025107087613174
8.1001875 0.14198070089204617 1.001316338853858
8.1013359375 0.14130150599381197 1.002777911582358
8.102484375 0.1411084056466848 1.0021374357896256
8.1036328125 0.14227098838038088 1.002123050285578
8.10478125 0.14345680730642796 1.0015962766559166
8.1059296875 0.14331769404031003 1.002817155946725
8.107078125 0.1424841850696118 1.0020766981752185
8.1082265625 0.1440266987551323 1.0017201588095892
8.109375 0.1428205518724156 1.0013204866786476
8.1105234375 0.14340137036848655 1.0000838245772328
8.111671875 0.14358363658250006 1.0005024106664067
8.1128203125 0.1442000187967668 0.9997782414347062
8.11396875 0.14550618231320467 1.0004067077546148
8.1151171875 0.14598686235814806 1.0015044551504984
8.116265625 0.1476362671940794 0.9996413239637497
8.1174140625 0.14628066459742795 1.0016470749180024
8.1185625 0.14639684063314184 1.0018111181230318
8.1197109375 0.14616936499850108 1.0003873867918154
8.120859375 0.14552835476133796 1.0013213388111304
8.1220078125 0.14709612186245813 0.9985817200117888
8.12315625 0.14771296060043948 0.9998505528036776
8.1243046875 0.147673869620776 0.998122805686782
8.125453125 0.14843161711677033 0.9979694320186041
8.1266015625 0.1481141065349968 0.9976371314527425
8.12775 0.14836688060847514 0.9991262743668925
8.1288984375 0.14927151006419992 0.9983462022977914
8.130046875 0.14929975376838112 0.9984058040467357
8.1311953125 0.14708905203511435 0.9998032395252052
8.13234375 0.14831793069915078 0.9987784719476875
8.1334921875 0.14925464031806268 0.9982112511372732
8.134640625 0.14935363198189278 0.9964536306449054
8.1357890625 0.1500807722061519 0.9971234965968279
8.1369375 0.15044077358726538 0.9972774191178393
8.1380859375 0.14946175029194653 0.9977223759907619
8.139234375 0.15134557242625185 0.9978796747299021
8.1403828125 0.15109676311481451 0.9976723845880244
8.14153125 0.15124484492161128 0.9986104328718939
8.1426796875 0.15117555068390987 0.9994456830099516
8.143828125 0.15122116931297663 0.9978743647151951
8.1449765625 0.15156804164312265 0.9972973659822008
8.146125 0.15079145918159786 0.9979616897386836
8.1472734375 0.15174742593730323 0.9971918237998267
8.148421875 0.15095240654531533 0.9979078735089055
8.1495703125 0.15111018153591815 0.9973965153875004
8.15071875 0.1528210274105758 0.9972506561005623
8.1518671875 0.1519717275070796 0.9974311393795858
8.153015625 0.15210099704593216 0.9958776071003715
8.1541640625 0.1520982695823525 0.9969725817374835
8.1553125 0.1521233236934567 0.9963489375621689
8.1564609375 0.15320211899729508 0.9970276996560605
8.157609375 0.15276105287793407 0.9976146546568417
8.1587578125 0.15379657755660242 0.9965769769792494
8.15990625 0.15286121232586536 0.9961446036179927
8.1610546875 0.1527214678030676 0.9967326492231948
8.162203125 0.15321631791577794 0.9961240803870125
8.1633515625 0.15369042852197412 0.9965207074921799
8.1645 0.15448979934854246 0.9970722057445864
8.1656484375 0.15451728435266426 0.997158664718237
8.166796875 0.15462694964100349 0.9959319499633016
8.1679453125 0.15543680916994795 0.9961420502823336
8.16909375 0.15518939744048316 0.9966527713321978
8.1702421875 0.15488706404292962 0.996496334990831
8.171390625 0.15521935313030244 0.9963183211921554
8.1725390625 0.15638845313527894 0.996215780206456
8.1736875 0.15606932246078858 0.9967952772392727
8.1748359375 0.15520432059710432 0.9959234404549485
8.175984375 0.15654770900640208 0.9974255627056344
8.1771328125 0.15631971439851244 0.9957021546318621
8.17828125 0.15567717205037457 0.9964585262607337
8.1794296875 0.15663074460485465 0.9960094908108718
8.180578125 0.15624573755950738 0.9952878290573406
8.1817265625 0.1566440066726627 0.9962074604266165
8.182875 0.15620533589844798 0.9957708789990484
8.1840234375 0.15791430595192785 0.9961833549055907
8.185171875 0.15794218628454215 0.9979075472034108
8.1863203125 0.15715447685872252 0.9980652082909027
8.18746875 0.15803157648094085 0.9966275457178186
8.1886171875 0.157678022056723 0.9971094129646589
8.189765625 0.158198534405167 0.9968827585430204
8.1909140625 0.1591629825282581 0.9977690255477034
8.1920625 0.1588588085529542 0.9979107922546953
8.1932109375 0.159115953667179 0.9980397702720688
8.194359375 0.15972124316661696 0.9962659213088169
8.1955078125 0.16163884639061116 0.9979991444194332
8.19665625 0.16159815058659477 0.9983336502633718
8.1978046875 0.16240800102982206 0.9979851369057501
8.198953125 0.16132513364454332 0.9981433853647181
8.2001015625 0.16265398829679528 0.9961413994781291
8.20125 0.1616969717771899 0.9970263215468774
8.2023984375 0.16118634312448799 0.9953932627680071
8.203546875 0.16116292188972614 0.9956418432904215
8.2046953125 0.16224669705568967 0.9958260104273734
8.20584375 0.16298132664357662 0.9965741242471535
8.2069921875 0.16370371255229266 0.9950638654962776
8.208140625 0.16310579556632332 0.9968961108822273
8.2092890625 0.16272718137998066 0.9959256256872536
8.2104375 0.16483400644996415 0.9955075050344749
8.2115859375 0.16361347727196707 0.9958547369432288
8.212734375 0.16425918736823908 0.9978476782762358
8.2138828125 0.1636786872229432 0.9965965983487323
8.21503125 0.16502193017244138 0.9967986960811115
8.2161796875 0.16442184060865295 0.9979673372700528
8.217328125 0.163397671605934 0.9969887211842106
8.2184765625 0.16527836297925047 0.9965552094516094
8.219625 0.16499303394000242 0.9967158290739158
8.2207734375 0.1636613688487415 0.9973081065861042
8.221921875 0.1645638975473841 0.9974949908675544
8.2230703125 0.16505447044494337 0.9978798497413639
8.22421875 0.16632692685284445 0.9980179636120226
8.2253671875 0.16667858726321694 0.9985748350087498
8.226515625 0.16707927647675824 0.9990481126561537
8.2276640625 0.1673046451398411 0.9995764005601241
8.2288125 0.16776175968493967 0.9987931127868545
8.2299609375 0.16774638566573652 0.9983956951834873
8.231109375 0.16859633881261749 0.9996264141075504
8.2322578125 0.16793129043844024 0.9997903964383732
8.23340625 0.16866903126494148 0.9990147298605498
8.2345546875 0.16850520308949624 0.9994170309665504
8.235703125 0.16898237760740786 0.9995244670100697
8.2368515625 0.16968566213774916 0.9998965749055537
8.238 0.17193740509412625 0.9981241009095337
8.2391484375 0.17202524401458907 0.9981986716515757
8.240296875 0.1724713657622856 0.9990400558660537
8.2414453125 0.1735832994714558 0.9996605077211035
8.24259375 0.17351002383917824 0.9993864445916789
8.2437421875 0.17164585274655564 0.99957933868734
8.244890625 0.17152351983710912 0.9983966115619243
8.2460390625 0.17122546135583083 0.9992710172074815
8.2471875 0.17187828480031198 1.0004166293267864
8.2483359375 0.17315358474007136 1.0006251244023998
8.249484375 0.17444866179782825 1.0004837147407972
8.2506328125 0.1751947631982187 1.0028942556017308
8.25178125 0.17487862204224036 1.003004703233662
8.2529296875 0.1758132412639527 1.002353719871688
8.254078125 0.17771515843611552 1.0026746799262967
8.2552265625 0.17824262217188758 1.0014999258837824
8.256375 0.17793653944182386 1.0022906387184447
8.2575234375 0.17775473058991242 1.0021951628399135
8.258671875 0.17660538058128084 1.0016078229896066
8.2598203125 0.1778374882639353 1.0003237267677962
8.26096875 0.17852450871307113 0.9984576026501528
8.2621171875 0.1791123582197136 0.9990084428204765
8.263265625 0.18045496150828155 0.9989217939946675
8.2644140625 0.17995865833555613 1.000676489668046
8.2655625 0.1815075942111133 1.002037595823514
8.2667109375 0.18265794909015542 1.0013388713161908
8.267859375 0.18048151375658184 1.002696124445432
8.2690078125 0.18112336216949487 1.002237106791087
8.27015625 0.1809810588481745 1.0032953369594106
8.2713046875 0.18289610229625997 1.0014188046514843
8.272453125 0.18375755142992634 1.001424594777975
8.2736015625 0.18463395421013984 1.0012052450309603
8.27475 0.18459753960370429 1.0003058294096143
8.2758984375 0.18562616665502496 1.0008429879427871
8.277046875 0.18650218869837876 1.0010754911165272
8.2781953125 0.18759794780457184 0.9987878398850717
8.27934375 0.18827272057471178 0.9973658001324782
8.2804921875 0.18949745029072984 0.9971892491242517
8.281640625 0.1876601953738778 0.998287206833308
8.2827890625 0.187319861718241 0.996592748520667
8.2839375 0.18647249993696025 0.9973011652124726
8.2850859375 0.18656580709890558 0.9959931003535185
8.286234375 0.1873892749288104 0.9971311950983451
8.2873828125 0.18765363719069783 0.9953397900173429
8.28853125 0.1863516086165446 0.9950903335044101
8.2896796875 0.18753570167129607 0.9952363920468049
8.290828125 0.1888984133973719 0.9948041620019641
8.2919765625 0.18768427972091373 0.9949906970649842
8.293125 0.1881557769727898 0.9943981859452599
8.2942734375 0.1909356917151292 0.9945808722295291
8.295421875 0.19117654795623917 0.9937815081639664
8.2965703125 0.1918871434425864 0.9921986979553974
8.29771875 0.19169784897291003 0.9933707290930831
8.2988671875 0.1897602635445313 0.9912848174059117
8.300015625 0.18898989701009666 0.9917340395199116
8.3011640625 0.19001288392048293 0.9911246370215325
8.3023125 0.1876264513133406 0.9917056032457338
8.3034609375 0.188061003814953 0.9922800267189398
8.304609375 0.18795652782267708 0.9906475933522589
8.3057578125 0.18742184854553 0.9898076421403201
8.30690625 0.187136445306248 0.9898344373299436
8.3080546875 0.18754142164526783 0.9893527749010942
8.309203125 0.1871081206325398 0.9873353518678998
8.3103515625 0.1897908851789707 0.9886341697927968
8.3115 0.18779189113411876 0.9895612659087099
8.3126484375 0.18575372691192177 0.9889224329194044
8.313796875 0.18848046144515684 0.9901315976530226
8.3149453125 0.18712864996313633 0.9901223222188267
8.31609375 0.18753550908281824 0.9888590472605805
8.3172421875 0.18808137156520321 0.9907172047724786
8.318390625 0.18754943332327068 0.9897303254391214
8.3195390625 0.1889987537815258 0.9909483723336975
8.3206875 0.18918007086495076 0.9907868422033186
8.3218359375 0.18878506214041368 0.9906473834794011
8.322984375 0.1897065961886023 0.9904096484636556
8.3241328125 0.19006739590684085 0.9901535316599633
8.32528125 0.19115093184682097 0.9902697829983709
8.3264296875 0.19295169401946066 0.9909397383925395
8.327578125 0.19111735783824368 0.9926533322346291
8.3287265625 0.1900862190540129 0.9924740345122667
8.329875 0.19094299698702982 0.9924129006112694
8.3310234375 0.19056141820635408 0.9908193293801872
8.332171875 0.1904415161661206 0.9910137172861926
8.3333203125 0.1912469445816476 0.9917899252286467
8.33446875 0.19229658012555378 0.9932428024385199
8.3356171875 0.1920940687715713 0.99346317550148
8.336765625 0.1921342244666887 0.9923664626394247
8.3379140625 0.19234300183633685 0.9916051815498322
8.3390625 0.1939963101165082 0.9923480913523802
8.3402109375 0.19437806085626924 0.9937341330780006
8.341359375 0.19494678567778356 0.993977971343748
8.3425078125 0.1948865151880328 0.9932948371241923
8.34365625 0.19428557480754938 0.9932702493608321
8.3448046875 0.1938567473371014 0.9941931688516794
8.345953125 0.19462072628004817 0.9954458700280873
8.3471015625 0.19457430880870685 0.9957409749880971
8.34825 0.19556055782900383 0.9963231344196082
8.3493984375 0.19552185122879517 0.9980214954404082
8.350546875 0.19490919808882168 0.9962042435455941
8.3516953125 0.1956358602564025 0.9958898976813415
8.35284375 0.19734026460759035 0.9967108825402675
8.3539921875 0.19651362021402674 0.995869932425558
8.355140625 0.1973192057064727 0.9961409900836908
8.3562890625 0.19577436897540346 0.99635133021214
8.3574375 0.1947990257359472 0.9966661751080587
8.3585859375 0.19717534480927706 0.9960605900277343
8.359734375 0.19810060470617308 0.9978257085720893
8.3608828125 0.19939954385770992 0.9982065019459672
8.36203125 0.19781548085541473 0.9966550568568336
8.3631796875 0.19905261533613705 0.9979827182618152
8.364328125 0.19943366026312853 0.9976187858727352
8.3654765625 0.19943840544554237 0.9984469005439369
8.366625 0.2013723834919653 0.9990467203817782
8.3677734375 0.2005066850288531 0.9991360993605126
8.368921875 0.19980180550182158 0.9968202238972406
8.3700703125 0.20115942902636585 0.9978864363779276
8.37121875 0.20189929679064578 0.9976691097716791
8.3723671875 0.20027606444098567 1.000638907392603
8.373515625 0.2018401546208507 0.9975931452947591
8.3746640625 0.2033102456392386 0.9972119443502846
8.3758125 0.20250881535472154 0.9972091356360204
8.3769609375 0.2031492338823685 0.9970887228752251
8.378109375 0.204052815329256 0.9998322574357664
8.3792578125 0.20144312133108944 1.00013818782319
8.38040625 0.20389792395469164 0.9979440946467719
8.3815546875 0.20269823840604517 0.9991031518303661
8.382703125 0.20333120435515684 0.9995346597127369
8.3838515625 0.2042402561928841 0.9987903587654442
8.385 0.20482278473631 0.9969606921868344
8.3861484375 0.20538180654895122 0.9953531666008044
8.387296875 0.20464390234332464 0.9969182375463008
8.3884453125 0.20777191427611186 0.9959721116764999
8.38959375 0.20713541699046822 0.996055713750106
8.3907421875 0.20545488862350225 0.9973264073653856
8.391890625 0.20763885564881213 0.9961102291386615
8.3930390625 0.20729294320341374 0.9969499431225789
8.3941875 0.20781986987984147 0.9966605609927056
8.3953359375 0.20736681090447395 0.9967922626039689
8.396484375 0.20681667062231868 0.9995516290579591
8.3976328125 0.2075519180147386 0.9958791484992295
8.39878125 0.20884925013857158 0.9963397170997744
8.3999296875 0.20644089880412453 0.9954887504318123
8.401078125 0.2080333059174475 0.9975434492603393
8.4022265625 0.20923312789296766 0.9981555524332277
8.403375 0.2112664084570558 0.9953106299652361
8.4045234375 0.21181073197003553 0.9956542451220609
8.405671875 0.21140702024851687 1.000135472120625
8.4068203125 0.2125102670478869 0.9982273690445991
8.40796875 0.2134839998462823 0.9973101141716141
8.4091171875 0.21388170176885124 0.9954659797869256
8.410265625 0.2148222830466926 0.9964883898566043
8.4114140625 0.21397764067491298 0.9968219430560055
8.4125625 0.21291252928913573 0.9962328436608565
8.4137109375 0.2154700059525368 0.9947782129470387
8.414859375 0.2173150075030824 0.9960044313083407
8.4160078125 0.21633852459650627 0.9957722987393731
8.41715625 0.21623768021552336 0.9969543395843058
8.4183046875 0.2164290728177718 0.9951404256201384
8.419453125 0.21607279001417573 0.9958813200199805
8.4206015625 0.21481834978978465 0.9966323561489085
8.42175 0.21732269441999763 0.9947465483378656
8.4228984375 0.21738973189798305 0.9948549667439575
8.424046875 0.21643823482898933 0.9946150173663033
8.4251953125 0.21906258769355086 0.9956309719791325
8.42634375 0.21616308703135229 0.993769063093432
8.4274921875 0.22001462731738625 0.9935854488365942
8.428640625 0.2188929823814703 0.993845205806938
8.4297890625 0.21853716947623403 0.9935232522468352
8.4309375 0.21817962560794435 0.9939595379063129
8.4320859375 0.21790797247592875 0.9922887204731499
8.433234375 0.2184346873756694 0.9914011083577967
8.4343828125 0.2184754384539762 0.993322532524858
8.43553125 0.2196805666832175 0.9929592619573903
8.4366796875 0.21978980754388044 0.9926660296814487
8.437828125 0.21890509190203566 0.9926902538341905
8.4389765625 0.21915671671167558 0.9914169736744427
8.440125 0.217815949282485 0.9920190903693327
8.4412734375 0.21750106465860136 0.9934402104745103
8.442421875 0.21826666046346244 0.9926781052249396
8.4435703125 0.21940615663785323 0.994275040069598
8.44471875 0.21849922806918082 0.9932731113254871
8.4458671875 0.2188504361277167 0.9926601816701216
8.447015625 0.2172803431738008 0.9948456641199852
8.4481640625 0.21755549941540814 0.9933043192431716
8.4493125 0.21831273653806144 0.9911945242070095
8.4504609375 0.21996493882378387 0.9929685489650202
8.451609375 0.22028406469525635 0.9923349630387059
8.4527578125 0.2176568261582953 0.9955599201906629
8.45390625 0.21694651499087447 0.9954166018222825
8.4550546875 0.21970946496630483 0.9936932732712644
8.456203125 0.21996509270367914 0.9937449420849455
8.4573515625 0.21996050992076144 0.9938295233789569
8.4585 0.21816105017880116 0.9948787103943425
8.4596484375 0.2163522936829143 0.9949237731516571
8.460796875 0.21817789894266043 0.9950728787653655
8.4619453125 0.21948693642204248 0.9960613300974392
8.46309375 0.2203573036972984 0.9944535699539726
8.4642421875 0.22134473068254307 0.995731257172011
8.465390625 0.2204345085484321 0.9969740658711685
8.4665390625 0.22104368710354894 0.9961425144259803
8.4676875 0.2227591737433698 0.9958716854411116
8.4688359375 0.2231954469948776 0.9927200839687321
8.469984375 0.22251898655289068 0.9941137153444743
8.4711328125 0.22552645478883476 0.9944994734306333
8.47228125 0.22434608521864402 0.994521066550899
8.4734296875 0.2229411928683779 0.9944525232146839
8.474578125 0.22411960638184744 0.993352379195421
8.4757265625 0.22325026600486433 0.9946384285305748
8.476875 0.22316780794962063 0.9948239432712283
8.4780234375 0.22373349940862583 0.9941821136868545
8.479171875 0.22659926145684745 0.9934965278188244
8.4803203125 0.22620612323164746 0.9956150165926048
8.48146875 0.22611537695541067 0.9925161839624167
8.4826171875 0.22634262135738753 0.9919345171958176
8.483765625 0.22583363242280802 0.9945894707329325
8.4849140625 0.2253077218520081 0.9955686209525498
8.4860625 0.2251870664884304 0.9942408812670065
8.4872109375 0.22588546205350452 0.9931125946753456
8.488359375 0.22386661554026083 0.9956227898033922
8.4895078125 0.22599531975462417 0.9962389677832915
8.49065625 0.22640796983321515 0.9983618872240296
8.4918046875 0.22590121866615331 0.9991759189541027
8.492953125 0.22927609049614406 0.9972902539403274
8.4941015625 0.22695338439636026 0.9982801504842662
8.49525 0.22687602173811383 0.9985215148247227
8.4963984375 0.22632580159803412 1.0000908942602311
8.497546875 0.22656609293242602 0.997688126471189
8.4986953125 0.22800588739109734 0.9994491402934985
8.49984375 0.2277086364426018 1.0005323228151501
8.5009921875 0.22901148136385163 1.004855047220283
8.502140625 0.2298968377969417 1.0042456260438084
8.5032890625 0.22921218619359235 1.0053319734522392
8.5044375 0.2281926888523257 1.0057070512858968
8.5055859375 0.22800193613019032 1.006517642139058
8.506734375 0.22881240217733229 1.0068935933222392
8.5078828125 0.22947026390737885 1.00484739637122
8.50903125 0.22733362178713895 1.0037923430377798
8.5101796875 0.22991567997689516 1.0055364270498723
8.511328125 0.2291176765567316 1.0041468175313568
8.5124765625 0.2306141232660735 1.0068541289029558
8.513625 0.22950823816923582 1.0078184697425077
8.5147734375 0.23081059120041164 1.006627114633887
8.515921875 0.23505672034782038 1.0063911795613385
8.5170703125 0.23692224017325247 1.0051599385401433
8.51821875 0.23757625545579486 1.0060414857883544
8.5193671875 0.23653141441517622 1.005018094914455
8.520515625 0.2329689525462959 1.00383795933376
8.5216640625 0.23371712899611413 1.0026940826000639
8.5228125 0.23641095900866405 1.0032750543718996
8.5239609375 0.23586697067413165 1.0039476135329457
8.525109375 0.2333358606686715 1.0041158274235307
8.5262578125 0.23459718053013978 1.0033843558841344
8.52740625 0.23448271365871476 1.0024954546099327
8.5285546875 0.23506309723842578 1.0006273316702339
8.529703125 0.23592821139114828 1.0027670309037404
8.5308515625 0.23606317515178482 1.0013440763882453
8.532 0.23800355133205864 1.0027315421715526
8.5331484375 0.23681648797035004 1.0024148052960533
8.534296875 0.23704820913180547 1.0020722331879868
8.5354453125 0.23724311741573645 1.0013905795799298
8.53659375 0.23956082583964905 1.0033396055901636
8.5377421875 0.23801960194621402 1.0013995143195442
8.538890625 0.23445185475131203 1.0015455363855874
8.5400390625 0.23666535844180614 1.0029333522587334
8.5411875 0.23715426770166625 1.0043498500025156
8.5423359375 0.23948386964186774 1.0031997246145579
8.543484375 0.240090163132737 1.0026157828190434
8.5446328125 0.23926717167789457 0.9994026451523826
8.54578125 0.23962102292634618 1.0000594043156867
8.5469296875 0.24409436176612687 0.9977604061917905
8.548078125 0.2411241396205131 0.9996834039748022
8.5492265625 0.24121897766333916 1.001397820203402
8.550375 0.24243058902265752 0.9989073861159484
8.5515234375 0.24132897061226583 0.9992737144610326
8.552671875 0.2412566432988537 0.9994878112492243
8.5538203125 0.23949410873965432 0.999477614166152
8.55496875 0.23968873350936676 0.9983276894206818
8.5561171875 0.24142643532046465 0.9992489967909384
8.557265625 0.24242229139044286 1.0004740939682135
8.5584140625 0.24450343117656653 0.9989786194523762
8.5595625 0.24197125149838095 1.0002638474477354
8.5607109375 0.24125386582394215 1.00071960308793
8.561859375 0.24153019328139502 0.9990639540687978
8.5630078125 0.24160175371852532 0.997786475028846
8.56415625 0.24326815560236037 0.9973751021601645
8.5653046875 0.24227025213267173 0.9964420372674401
8.566453125 0.24342287461881212 0.9990113008595979
8.5676015625 0.2448754286831472 0.9991772750359426
8.56875 0.24574355467772613 0.9994892338445358
8.5698984375 0.24646903756059158 0.9968896570535573
8.571046875 0.24404965838694748 0.9992269257184873
8.5721953125 0.24466565710949645 0.9979127115190922
8.57334375 0.24607972228644406 0.99820513568796
8.5744921875 0.24678972811267452 0.9976391359845092
8.575640625 0.24839720070342863 0.9978202821697315
8.5767890625 0.24678176156732445 0.9982844684079722
8.5779375 0.2446998197803354 0.9975535375960982
8.5790859375 0.24317059296841767 0.9971058912161023
8.580234375 0.24429600564797535 0.9960125558947927
8.5813828125 0.24794916884522583 0.9987111469175247
8.58253125 0.24789705383910568 0.9976064733412563
8.5836796875 0.24552705499699226 0.9981632295367833
8.584828125 0.24785915790292304 0.9959554963522856
8.5859765625 0.2468733968413256 0.9981761912105027
8.587125 0.2463599321560189 0.999084550137959
8.5882734375 0.250358761089114 0.9995988438621082
8.589421875 0.25002803127710094 0.9995922251763218
8.5905703125 0.24857431482676168 1.0001811330475237
8.59171875 0.25013989182282514 1.0003490885344104
8.5928671875 0.24977761734285173 1.0020843647833009
8.594015625 0.25112562759315094 0.9974744565377395
8.5951640625 0.24999013543774015 0.9996004288304396
8.5963125 0.251740503655088 1.0040179895721155
8.5974609375 0.2511647094145149 1.0031346681523745
8.598609375 0.2517201163976722 1.0028414429647585
8.5997578125 0.2529816735144251 1.001653167964012
8.60090625 0.2556791235405999 1.006604126742147
8.6020546875 0.2527201270571442 1.0039313485324888
8.603203125 0.25575800435726015 1.0045783666044321
8.6043515625 0.25449109675535275 1.009798442090689
8.6055 0.2565607858663226 1.0052627486324384
8.6066484375 0.2547805639898171 1.007719858130233
8.607796875 0.25496167868136416 1.0054566375746774
8.6089453125 0.25436765699594877 1.0049908128839076
8.61009375 0.25436196132044475 1.0044945423883673
8.6112421875 0.2549439451691873 1.0035966361064905
8.612390625 0.2571696353227553 1.0035780835185166
8.6135390625 0.25718044744028545 1.002673732991006
8.6146875 0.25832140011749616 1.002758068705242
8.6158359375 0.2602568985002881 1.004243941163904
8.616984375 0.2608185688680701 1.0072854837443297
8.6181328125 0.25952275771638067 1.0037048908552362
8.61928125 0.2577683085583856 1.0027586445675662
8.6204296875 0.26033331170867446 1.0015163207874083
8.621578125 0.25775813851271734 1.0015711724789476
8.6227265625 0.25910700078565474 0.9992384709206543
8.623875 0.2584638341929919 0.9998430461265323
8.6250234375 0.2575338397222296 0.9999792113082585
8.626171875 0.2600866920433582 1.0005289649250042
8.6273203125 0.25930386399886574 1.0043445670923603
8.62846875 0.2617581703531202 1.00449815068016
8.6296171875 0.26069934248852333 1.0020992229338805
8.630765625 0.25878637628750356 1.0049027047933174
8.6319140625 0.25615452669982197 1.00244176337223
8.6330625 0.2576648433397392 1.000370836580674
8.6342109375 0.2579893696781096 1.0018566188064737
8.635359375 0.25926554141186325 1.001614079331784
8.6365078125 0.2588457133490726 1.000118600261156
8.63765625 0.2596000594934606 1.0023879933932793
8.6388046875 0.2617397360798298 1.0043861403624306
8.639953125 0.2607064310671803 1.0050136100234688
8.6411015625 0.2609376341588101 1.0041290290098173
8.64225 0.25975651841419023 1.0039936157177893
8.6433984375 0.2606086696440818 1.0056569787465677
8.644546875 0.26047153585108207 1.00459800402387
8.6456953125 0.262688186410463 1.0032309960810042
8.64684375 0.26379575448274684 1.0023689850621453
8.6479921875 0.26352866904066435 1.003296265750473
8.649140625 0.2648894184798273 1.0063362781974612
8.6502890625 0.2648078535911203 1.0043375180473995
8.6514375 0.2660709029587409 1.0050232732026514
8.6525859375 0.2666892877323725 1.0038276035209486
8.653734375 0.26651130951731283 0.9996771190993835
8.6548828125 0.2678546688461235 0.9999876344205855
8.65603125 0.2660823797404946 1.0011549720071486
8.6571796875 0.2651425104466019 1.0013490031673569
8.658328125 0.2641561194749869 1.000849581396817
8.6594765625 0.266006317991675 0.9967228681116458
8.660625 0.2675088557040095 0.9999621384551942
8.6617734375 0.2660504799832263 0.9985988674500299
8.662921875 0.26673981027128574 0.9971420626155809
8.6640703125 0.2676792767604408 0.9970910900812557
8.66521875 0.26747389885353257 0.9971998533019156
8.6663671875 0.2676209074327059 0.9986762195979325
8.667515625 0.26643064747355205 0.9991881336127142
8.6686640625 0.264515759858176 0.9987382215227445
8.6698125 0.26348184114156153 0.9997898731195336
8.6709609375 0.2667639465373124 0.995234103591697
8.672109375 0.26591509231322713 0.9975040936686992
8.6732578125 0.26446889389721884 0.9962376440602703
8.67440625 0.2654057136982526 0.9967961819910215
8.6755546875 0.2647144942131905 0.9985711729961454
8.676703125 0.26548186157957526 0.9980307929852799
8.6778515625 0.26627115899663156 0.9973324779045434
8.679 0.26608300503088766 0.9992855216656799
8.6801484375 0.26440134467105014 0.997666602976608
8.681296875 0.26627442257617934 0.9981987570133577
8.6824453125 0.2653775775033931 0.9987004775626261
8.68359375 0.2675656577829752 0.9966115862383937
8.6847421875 0.26630892380576954 0.9986878720141019
8.685890625 0.26633805923758114 0.9946788718839554
8.6870390625 0.266491582002506 0.9965597645169668
8.6881875 0.2688254359612653 0.9948018498200768
8.6893359375 0.27054533404287817 0.9932372467780332
8.690484375 0.2704899540896106 0.9963756320476247
8.6916328125 0.2649670547448716 0.9983814173337132
8.69278125 0.2664147832140226 0.9973871433232409
8.6939296875 0.26718289337689316 0.9991076090444936
8.695078125 0.26650100834351914 0.9985347936217552
8.6962265625 0.26632860762161026 1.0008755419436492
8.697375 0.26677035268865273 0.998990009675792
8.6985234375 0.27031411026039376 0.9959090243192202
8.699671875 0.26837218193648293 0.9959436609219163
8.7008203125 0.27117930051181954 0.9955362268402397
8.70196875 0.26782592124525745 0.9992048803109053
8.7031171875 0.2678335225739682 0.9976995124027586
8.704265625 0.26854520484990496 0.9965825429073403
8.7054140625 0.2649405124792378 0.9974023933990115
8.7065625 0.2679429700877137 0.9959325693207559
8.7077109375 0.2678042988124808 0.9963520716749906
8.708859375 0.2676557620472759 0.9971991944046803
8.7100078125 0.2674267982691489 0.9958641473356622
8.71115625 0.2675608009932195 0.9974421707429888
8.7123046875 0.26772380064215806 0.9977906966904528
8.713453125 0.26830676998846875 0.9998646381379712
8.7146015625 0.2688755997632292 0.9989844934042393
8.71575 0.26804891053239677 0.9981413662320455
8.7168984375 0.27005101560638045 0.9967208821640858
8.718046875 0.2712244577238681 0.9986065667293073
8.7191953125 0.27066063675654817 0.9956169336235824
8.72034375 0.27064958942335643 0.9963902297718956
8.7214921875 0.2704172206412197 0.9963248568080836
8.722640625 0.2701381898989231 0.9991643774156911
8.7237890625 0.2688812311207611 0.9977076612971731
8.7249375 0.2747663798612131 0.9943712149544477
8.7260859375 0.2710789175896968 0.9988376691538072
8.727234375 0.26789021871854984 1.0008856014293035
8.7283828125 0.2721174021506768 1.0008534581068802
8.72953125 0.27176125301584475 1.003459976689322
8.7306796875 0.27530463577904013 1.0032218146930354
8.731828125 0.27173627421357666 1.005520894386412
8.7329765625 0.27482168801902085 1.0036842833465696
8.734125 0.2750824596065864 1.0072291132295184
8.7352734375 0.2736377241696988 1.009144103531211
8.736421875 0.2755365719591504 1.0087322687608373
8.7375703125 0.27234800147254246 1.0098977034521806
8.73871875 0.27647655546803684 1.0115799247770871
8.7398671875 0.27361747673784903 1.0082824412591458
8.741015625 0.27434134771325136 1.0093102748550578
8.7421640625 0.2764791032843104 1.006163314601906
8.7433125 0.28023957200237937 1.0070324257653198
8.7444609375 0.27836327112172266 1.0094947397099612
8.745609375 0.2845448123096588 1.0096474219524987
8.7467578125 0.28693633363901117 1.007160096459181
8.74790625 0.2869979909360085 1.0082739129479252
8.7490546875 0.28787110784475306 1.0078020874805185
8.750203125 0.2847843669862517 1.008209022488365
8.7513515625 0.2849138465021797 1.0090951828889467
8.7525 0.28467815582716016 1.0072449132007764
8.7536484375 0.28530675397367616 1.0092655596537303
8.754796875 0.2894530164695931 1.0071908491611983
8.7559453125 0.2878426122881629 1.0087570077704484
8.75709375 0.29158592132125993 1.0082639128431659
8.7582421875 0.2917534395997964 1.009501276211614
8.759390625 0.2907932820481757 1.008575181593736
8.7605390625 0.2931514597772495 1.006548122407028
8.7616875 0.29153426343973093 1.00517885088935
8.7628359375 0.2932225748314352 1.0033789488450613
8.763984375 0.29260932393202344 1.002789221070609
8.7651328125 0.29509413777874116 1.003307720230183
8.76628125 0.2948873278317251 1.0024724292944847
8.7674296875 0.2960371282583692 1.0005153418868398
8.768578125 0.29371819521300646 1.0000409313736973
8.7697265625 0.29386352403588567 1.0002019910313544
8.770875 0.29422574180129557 1.001393859680298
8.7720234375 0.2957975520422133 0.9999748173489391
8.773171875 0.2922819574653309 0.9964247891725289
8.7743203125 0.2930688386558572 0.9990913389402764
8.77546875 0.29214967583990326 1.0003574437653238
8.7766171875 0.2923219468950072 0.9995356169841617
8.777765625 0.2940946230669913 0.9975889489299561
8.7789140625 0.29538648442317456 0.9958911231247489
8.7800625 0.29569389364991194 0.9972961527836449
8.7812109375 0.2954480455194002 0.9961051777656421
8.782359375 0.2924549219354331 0.9941083173928535
8.7835078125 0.2949511391923407 0.9944334530767595
8.78465625 0.29376184386066984 0.9956165895828453
8.7858046875 0.29609776401619475 0.9955453491402266
8.786953125 0.2946609791835888 0.9956683528455104
8.7881015625 0.29404694916841706 0.9936781262989393
8.78925 0.29271244222108983 0.993136005391214
8.7903984375 0.29614327377530214 0.992754316553553
8.791546875 0.295546744649019 0.9933540566246555
8.7926953125 0.2950355707297172 0.995264472240959
8.79384375 0.2939573346051777 0.9968581587105817
8.7949921875 0.29448635630984676 0.9933255770828475
8.796140625 0.29295525067897454 0.9884104397819227
8.7972890625 0.29073369061340004 0.9882068869461775
8.7984375 0.2922444590972135 0.989605891335479
8.7995859375 0.29379228616813674 0.9899681872344559
8.800734375 0.2926791563719536 0.9909237918950827
8.8018828125 0.29288571189101087 0.9884942747260868
8.80303125 0.2912680642463962 0.9911070533514574
8.8041796875 0.2896960357731557 0.9916702551516012
8.805328125 0.2904411691828314 0.9908979801016176
8.8064765625 0.29088241688552124 0.9928354642001747
8.807625 0.2930150110188271 0.9896263760421891
8.8087734375 0.29425550815739465 0.991094350761986
8.809921875 0.29446323133432684 0.9891874427305739
8.8110703125 0.2955356373491031 0.9900425971675565
8.81221875 0.2953908064025237 0.9883188966078186
8.8133671875 0.29575677532030165 0.986644905463734
8.814515625 0.2958534902374799 0.987552853074809
8.8156640625 0.29646276684653633 0.9850708843102784
8.8168125 0.29622554667538514 0.9878626230114046
8.8179609375 0.29525653550540726 0.9868451267892153
8.819109375 0.296047134252302 0.9868179272786293
8.8202578125 0.2980965346140634 0.9850293540157007
8.82140625 0.29456124338417644 0.9848374060865528
8.8225546875 0.2964481945110964 0.9838480341090783
8.823703125 0.294994496421629 0.9824383674625343
8.8248515625 0.2947015260031999 0.9828496998441485
8.826 0.29719017860001273 0.980773013881265
8.8271484375 0.29359584391353205 0.9821882870940934
8.828296875 0.2933595224892013 0.9816439159998623
8.8294453125 0.29359471037553286 0.9799607299784392
8.83059375 0.29312466264231757 0.9799267775229117
8.8317421875 0.295637591525022 0.9789468267672781
8.832890625 0.2941084964527606 0.9792427067288657
8.8340390625 0.291625463876497 0.9769994190010336
8.8351875 0.291350493547166 0.9775111866104538
8.8363359375 0.2912637797038537 0.9774312800608224
8.837484375 0.29213668723459973 0.9763674810951946
8.8386328125 0.2890741905273789 0.9782341530754216
8.83978125 0.2889413582986131 0.9755920778628854
8.8409296875 0.28976848207277717 0.9763095763110736
8.842078125 0.2864682444082641 0.9756189446416141
8.8432265625 0.28815350128382083 0.9756900574052183
8.844375 0.2845665848031358 0.9738351227080662
8.8455234375 0.2823984340312361 0.9745935059916029
8.846671875 0.2807575025057678 0.9762887270972772
8.8478203125 0.2795576459482432 0.9774509092670591
8.84896875 0.27883666230132065 0.9734719908188911
8.8501171875 0.278338655367546 0.9748860268956426
8.851265625 0.2764239912787925 0.9783568850742486
8.8524140625 0.278290684353964 0.9767568863840287
8.8535625 0.27527843241597455 0.9808322222272738
8.8547109375 0.27385320095234905 0.9814096127174521
8.855859375 0.27474540014349635 0.9840710921383468
8.8570078125 0.27333761741078655 0.9874998765735532
8.85815625 0.27614555581456834 0.9893159589009164
8.8593046875 0.2763742068136116 0.9902042170792447
8.860453125 0.2782587292255164 0.9923961150739216
8.8616015625 0.2808590929744715 0.9919195609645174
8.86275 0.2766182976556536 0.9926493088413486
8.8638984375 0.27460847814134903 0.9925727397460942
8.865046875 0.2761053318445463 0.9921241284792959
8.8661953125 0.27758182166405754 0.9910357490255555
8.86734375 0.27903479694010663 0.9909285521937848
8.8684921875 0.2765333395974163 0.9929385046284912
8.869640625 0.27737714497477095 0.9959240146151869
8.8707890625 0.27935747561086843 0.9991181826096622
8.8719375 0.2793480664488631 0.9980833027928979
8.8730859375 0.27872668029860803 0.9972092856761672
8.874234375 0.27875176953713915 0.9996804950234961
8.8753828125 0.27902838563668897 1.0014027426013279
8.87653125 0.2785391246651328 0.9996873107778066
8.8776796875 0.27768005092683745 1.000723164390454
8.878828125 0.281375450783631 1.003154535805649
8.8799765625 0.27988432179632405 1.003264640473956
8.881125 0.27847632417952095 1.0033184388348275
8.8822734375 0.27841069205449653 1.002578219085692
8.883421875 0.2812981327014702 1.0054114568027785
8.8845703125 0.2826714896112962 1.0068491509176363
8.88571875 0.2852519889395584 1.0054893859326044
8.8868671875 0.2847695255742331 1.003994142040191
8.888015625 0.2852884834748689 1.0071286159569972
8.8891640625 0.28482422009246955 1.005105325311453
8.8903125 0.2845801939482498 1.0090036443803674
8.8914609375 0.286673901744453 1.005942742564736
8.892609375 0.2872414697479529 1.0066066349802365
8.8937578125 0.28846020157743546 1.009190443590961
8.89490625 0.28728265278119614 1.0093133627630415
8.8960546875 0.28736704739264196 1.009627554373581
8.897203125 0.290808636585943 1.0077077122244797
8.8983515625 0.2901285717783495 1.0078133251774672
8.8995 0.2913802335709443 1.0075594145163222
8.9006484375 0.29246028266748786 1.0092649060497592
8.901796875 0.29336989751356346 1.0076654893618833
8.9029453125 0.292659336321079 1.007516123234081
8.90409375 0.2909877543254288 1.0085751706044384
8.9052421875 0.2906555213669564 1.0108817947617224
8.906390625 0.291292569997601 1.0102454268324503
8.9075390625 0.2907657616776532 1.0101922603554203
8.9086875 0.2939929051828182 1.0109431434457725
8.9098359375 0.2925706518858391 1.0124072942703206
8.910984375 0.2927826669044308 1.0114810225939797
8.9121328125 0.29321197220991285 1.0093430561736392
8.91328125 0.29295463523071646 1.0095221593366361
8.9144296875 0.2971790953321866 1.009931763220196
8.915578125 0.2955243444775606 1.008712209160975
8.9167265625 0.2938703017580838 1.0089153826068447
8.917875 0.2923220130676349 1.0121500529949081
8.9190234375 0.29420485421246434 1.0130694771819853
8.920171875 0.2948496868610341 1.0112781386266099
8.9213203125 0.2957193575248187 1.0118592477867263
8.92246875 0.29431753801865596 1.012652620193421
8.9236171875 0.29473725347202967 1.0129797434805814
8.924765625 0.2959467965175711 1.011114282631835
8.9259140625 0.2960490079660523 1.0132071017603235
8.9270625 0.29642513640068335 1.011810597497476
8.9282109375 0.2954202981429014 1.0141624365955237
8.929359375 0.296512482827446 1.0121601728382572
8.9305078125 0.2970058931388597 1.0135927759341863
8.93165625 0.2989933423202246 1.0142057771222435
8.9328046875 0.299271533510778 1.0148335258166021
8.933953125 0.29649779853266983 1.0133629520562561
8.9351015625 0.2963671850898105 1.0150042443719627
8.93625 0.2976704670777211 1.0158438950672266
8.9373984375 0.2998063800682912 1.0156932997264225
8.938546875 0.2999145897813559 1.013884868940024
8.9396953125 0.2991912677010597 1.0148236342215122
8.94084375 0.30049052981311075 1.014030293954288
8.9419921875 0.29986274100086363 1.014696633904006
8.943140625 0.2998086035474248 1.0152736470032047
8.9442890625 0.3011327744099897 1.0160545554092575
8.9454375 0.3034820400051627 1.0152788906384078
8.9465859375 0.29999363099188175 1.0147212442529967
8.947734375 0.3025501314561864 1.0163813321319801
8.9488828125 0.30227115077251876 1.0164057991348057
8.95003125 0.3022447708604995 1.0147646226297982
8.9511796875 0.3042067082913913 1.0172861325252274
8.952328125 0.30271646688192677 1.0157413500282875
8.9534765625 0.30447511374348507 1.016426996352038
8.954625 0.3057644115601512 1.017188155684805
8.9557734375 0.3059170791787275 1.0170593892914392
8.956921875 0.3075682121509285 1.017918089848009
8.9580703125 0.3068996359551389 1.0171046322921524
8.95921875 0.3087669843343206 1.0178956764026919
8.9603671875 0.3079294230478662 1.0197800528630827
8.961515625 0.30879690290927564 1.0165262886047934
8.9626640625 0.3119199435099654 1.0180144108293143
8.9638125 0.3107978885434381 1.0169740094930453
8.9649609375 0.3114255553391934 1.018113234549702
8.966109375 0.3114984325776777 1.0192720470576635
8.9672578125 0.3117275040062585 1.020345032243321
8.96840625 0.31222651373911103 1.018841776163222
8.9695546875 0.31315397843990267 1.0198302256398983
8.970703125 0.312130553082647 1.018992131107489
8.9718515625 0.3122494856867663 1.0179069243442562
8.973 0.3148092221643655 1.0187746815362797
8.9741484375 0.3180839167216657 1.0187049676218016
8.975296875 0.31551488238862935 1.019111609426846
8.9764453125 0.31849478232778594 1.0189252398517166
8.97759375 0.3142305024074061 1.0205703278346143
8.9787421875 0.31627446104088314 1.0209024339302266
8.979890625 0.3178062598675837 1.0206991506115304
8.9810390625 0.3201971161866107 1.0217773882277048
8.9821875 0.32153397796755684 1.0246465212366398
8.9833359375 0.3203382603162014 1.0247642921072122
8.984484375 0.31893837656732804 1.0241975149277995
8.9856328125 0.3218591307539235 1.0237819136053128
8.98678125 0.32059427849292005 1.0252767204898647
8.9879296875 0.32201215680658546 1.0258137858863217
8.989078125 0.32367896114211114 1.0225956922314068
8.9902265625 0.32303108644547895 1.024476730324224
8.991375 0.3199239360391141 1.0271590072324526
8.9925234375 0.3226487028055743 1.0276406912772624
8.993671875 0.32521760003455646 1.0263989979138368
8.9948203125 0.3256089866042975 1.0300931366276922
8.99596875 0.33004806576900153 1.0325044294250487
8.9971171875 0.3299996583468074 1.030533588980525
8.998265625 0.33160088699995893 1.029219516623331
8.9994140625 0.3320736604845962 1.0303558544109823
9.0005625 0.33311722386025305 1.0330634702014025
9.0017109375 0.3344087282802694 1.0320132920014922
9.002859375 0.33416247624318085 1.0327431932598887
9.0040078125 0.3371519837779612 1.0330449014748142
9.00515625 0.33774535257168276 1.0317625902242062
9.0063046875 0.3419796816519395 1.0328532446090473
9.007453125 0.3424379088403985 1.0314471294821235
9.0086015625 0.34176626874383653 1.0317950044405717
9.00975 0.34716960674227804 1.0297070481083057
9.0108984375 0.3473156599773989 1.0302317015051086
9.012046875 0.3468584960487654 1.0289939587634511
9.0131953125 0.349543024271426 1.0285240858672071
9.01434375 0.3499237517996668 1.0268600255916003
9.0154921875 0.35051673377977594 1.0287972178975555
9.016640625 0.35150393417581693 1.0281015433608665
9.0177890625 0.35088366297506124 1.0258152427390907
9.0189375 0.35490362866820635 1.0250987616943825
9.0200859375 0.35421291406884925 1.0237928895034112
9.021234375 0.35102181475299266 1.0242433804820001
9.0223828125 0.3563263587250116 1.0201285346011395
9.02353125 0.3545029639595617 1.0195142412659126
9.0246796875 0.35437479471306593 1.0191037627935065
9.025828125 0.35675680176283053 1.0206391326555129
9.0269765625 0.35685690663988356 1.0212042328510578
9.028125 0.35731595469655825 1.0223419487006438
9.0292734375 0.3608039015728629 1.0224089435640216
9.030421875 0.3598824998084136 1.020436069725466
9.0315703125 0.36204615848146515 1.0192953601844337
9.03271875 0.3650411144563801 1.0191006110898106
9.0338671875 0.368107532175071 1.014586685891018
9.035015625 0.36839862218211056 1.0135425082023477
9.0361640625 0.36589916988883964 1.0114198921885047
9.0373125 0.36558313828586764 1.0118211922832585
9.0384609375 0.367333222623265 1.0102110518040461
9.039609375 0.36612966278916825 1.0099518514028012
9.0407578125 0.36624698895121677 1.0107676285133136
9.04190625 0.36527288293290516 1.0082362157554674
9.0430546875 0.36526249462535676 1.0074330975095238
9.044203125 0.36343579666542514 1.0068260530424191
9.0453515625 0.3664041349448375 1.0061937417696114
9.0465 0.36419065121012983 1.0062177175538667
9.0476484375 0.3641624039204854 1.0054387784253733
9.048796875 0.3661061182988039 1.0049921952907874
9.0499453125 0.36417187004587237 1.0055594621672035
9.05109375 0.3661895333432897 1.0042003104044515
9.0522421875 0.3666989056994877 1.004028306266669
9.053390625 0.3652893953030707 1.0025702994892627
9.0545390625 0.365281061218087 0.9998271308068578
9.0556875 0.3648262952834437 1.0004653551001732
9.0568359375 0.3649481526144582 1.0005046869532184
9.057984375 0.36547764741209576 0.9971023614890767
9.0591328125 0.3649309667583891 1.0007843853556755
9.06028125 0.36348089412707063 0.999313962526808
9.0614296875 0.36480440162674466 0.9974971784968683
9.062578125 0.3649169044685847 0.9990194557941697
9.0637265625 0.36382089601006773 0.995589681546034
9.064875 0.36124457053405856 0.9967272142739485
9.0660234375 0.3619758084644037 0.9971257390327926
9.067171875 0.36060928684668137 0.9979674042474881
9.0683203125 0.36250619645102733 0.997495776601242
9.06946875 0.3630771291988413 0.9952501449456826
9.0706171875 0.36380261888782006 0.9969345099747766
9.071765625 0.3621676372944831 0.9980355942871912
9.0729140625 0.36061229608062995 0.9968380894325976
9.0740625 0.3631181104648869 0.995976410475975
9.0752109375 0.36318788698870075 0.9966679716507693
9.076359375 0.36396512118744184 0.9960345551000176
9.0775078125 0.36426642672094395 0.9952082693171791
9.07865625 0.365656817177745 0.9964883766281287
9.0798046875 0.3640085501154135 0.9958794585661852
9.080953125 0.36645657682036553 0.9955166236539122
9.0821015625 0.3657177891005343 0.9959955119040773
9.08325 0.3652811578426127 0.9951784215154983
9.0843984375 0.36556088084817706 0.9947772915088713
9.085546875 0.36460757186476944 0.9924552606857326
9.0866953125 0.36509305379969215 0.9934970022211678
9.08784375 0.3678003373309927 0.9921642303840239
9.0889921875 0.36726034374058825 0.9929971907223968
9.090140625 0.36893055880159287 0.9910465200062051
9.0912890625 0.36885460074332377 0.9905302015314131
9.0924375 0.3687091551957564 0.989387939750958
9.0935859375 0.3706427265765373 0.9901231557709912
9.094734375 0.3688789827095536 0.9889142567447056
9.0958828125 0.3668687187146069 0.9896171455673342
9.09703125 0.3668109582045066 0.9904331789397514
9.0981796875 0.3668652443065509 0.9896009450226773
9.099328125 0.36805552972088385 0.9870443420207198
9.1004765625 0.3671275326551451 0.988170106681317
9.101625 0.3666777238943374 0.9870676274307544
9.1027734375 0.36608952134718187 0.9873591335405446
9.103921875 0.3669879981645964 0.9863897490814022
9.1050703125 0.36730993044182003 0.9844452740588656
9.10621875 0.36739102095361664 0.985512000168867
9.1073671875 0.3679862904134956 0.9853568105110707
9.108515625 0.36708019326022545 0.9831787012806137
9.1096640625 0.3675814112948806 0.9845301470720222
9.1108125 0.3681309005591759 0.9847757251214488
9.1119609375 0.3674431690084363 0.9843728092713572
9.113109375 0.3688675541081722 0.9856029328724
9.1142578125 0.3699288754480163 0.9835039380310068
9.11540625 0.36902117950183194 0.9840202132085225
9.1165546875 0.36937826221997794 0.9840760532635975
9.117703125 0.36861252420857077 0.9853852352974117
9.1188515625 0.366496093448637 0.9838180693143681
9.12 0.36775185307812647 0.9852486840195139
9.1211484375 0.3677836977963418 0.9859013301450241
9.122296875 0.3675278465214381 0.9856278587153993
9.1234453125 0.3687099860754614 0.9847015804311715
9.12459375 0.36802483193494356 0.9846981043696714
9.1257421875 0.3691680538838342 0.9847848562383889
9.126890625 0.37100684384612603 0.9856957879710835
9.1280390625 0.36800831728859323 0.9851528418622183
9.1291875 0.3699349691563409 0.9836710703375036
9.1303359375 0.3704776246661615 0.9851616633059775
9.131484375 0.3700549199625409 0.985145165201677
9.1326328125 0.37002447973832553 0.9844257824414591
9.13378125 0.3705015936666126 0.9842428010398041
9.1349296875 0.3710727567156104 0.9849508543975698
9.136078125 0.3704759949290624 0.9860868002898127
9.1372265625 0.3726851841506299 0.986117186818809
9.138375 0.3741923381141614 0.9859973910748794
9.1395234375 0.3725522941133018 0.98681526953821
9.140671875 0.3735687740407284 0.9854381338259628
9.1418203125 0.3730262870499096 0.9855365382957103
9.14296875 0.3742182819540713 0.9855264850780695
9.1441171875 0.3739809801111913 0.9861620475688213
9.145265625 0.37330641306930606 0.986331314536879
9.1464140625 0.37516321918179957 0.9870122676121881
9.1475625 0.37522300108729134 0.987056509328305
9.1487109375 0.37301682398596736 0.9853873973363654
9.149859375 0.3749104879925682 0.985676132500013
9.1510078125 0.37367539132116034 0.9849663644667002
9.15215625 0.3744376997691767 0.9849002220671704
9.1533046875 0.3755430122333472 0.986256005576043
9.154453125 0.3746623295473886 0.9866552621986793
9.1556015625 0.3754022832752846 0.9849382579278834
9.15675 0.37565208224741886 0.9827439924059607
9.1578984375 0.3748040404266736 0.9832727139765142
9.159046875 0.3748050733510294 0.9833161436094774
9.1601953125 0.3750187563026347 0.9836939094554215
9.16134375 0.37583573005776694 0.9847351780848975
9.1624921875 0.3769866770768263 0.9845701910437034
9.163640625 0.37626029817226747 0.9850723195005917
9.1647890625 0.3773856885503842 0.9848213590376366
9.1659375 0.3784977371254687 0.9844667152978852
9.1670859375 0.3777955949881384 0.9834141018370063
9.168234375 0.3777413843615581 0.9829866100842345
9.1693828125 0.37793790724688575 0.9827964290569428
9.17053125 0.3796530788825237 0.9817372029829716
9.1716796875 0.3781506923217359 0.9803628783134432
9.172828125 0.37930465515190454 0.9814535791632824
9.1739765625 0.37889907182520544 0.9809882078572523
9.175125 0.3784414843140289 0.9798053058892682
9.1762734375 0.37946487823253006 0.9800820354601761
9.177421875 0.37981452262249593 0.9808913429119508
9.1785703125 0.3789825693035327 0.9808624618973449
9.17971875 0.37906438232409134 0.9794313374719718
9.1808671875 0.37938069976945327 0.9806197451746612
9.182015625 0.3799205535181565 0.9796112776337681
9.1831640625 0.3796851181800481 0.9783920437289731
9.1843125 0.37900971776547965 0.9778473220430799
9.1854609375 0.38012686328555395 0.978730074194799
9.186609375 0.378670674038849 0.978492219969264
9.1877578125 0.37954439590158195 0.9785994499466916
9.18890625 0.3800193801516498 0.9785548547313805
9.1900546875 0.37913445506497834 0.9790947832454638
9.191203125 0.37990888435255926 0.977994731387893
9.1923515625 0.37964542275267454 0.976431219440832
9.1935 0.3792044904360901 0.976354646866177
9.1946484375 0.3813452340248068 0.9747138931548356
9.195796875 0.3804814421520516 0.9762764347264461
9.1969453125 0.38003000445175783 0.976224835060402
9.19809375 0.3805648721077721 0.9759901307488724
9.1992421875 0.38159371557702126 0.976335579304229
9.200390625 0.382076633838041 0.9773920569862872
9.2015390625 0.3821443602244411 0.9746282177821393
9.2026875 0.38192845080415394 0.974773502062903
9.2038359375 0.38271873001945467 0.9743848023016739
9.204984375 0.3823116518914498 0.9746229718939439
9.2061328125 0.3835611064570732 0.975490394533507
9.20728125 0.38366244973209984 0.9743299439272523
9.2084296875 0.3816601078523094 0.9738163841932683
9.209578125 0.381923891075887 0.9729925909444876
9.2107265625 0.383504497969542 0.9738780229706478
9.211875 0.38397808780251486 0.974226123611318
9.2130234375 0.3839024942056585 0.9738273404836363
9.214171875 0.38406281422230376 0.9732365498830208
9.2153203125 0.38353255920102614 0.9729377410939977
9.21646875 0.3831558118337116 0.9725150360037242
9.2176171875 0.38380533746283396 0.9736337398097452
9.218765625 0.385031453307771 0.9736723942631825
9.2199140625 0.3848379142966832 0.973220306776266
9.2210625 0.38395898593745637 0.9734347838778732
9.2222109375 0.38404859740391895 0.9720734170626272
9.223359375 0.3841533116142196 0.9733167582944982
9.2245078125 0.3842989546709162 0.9724443412691919
9.22565625 0.38456559833913506 0.9720033077874062
9.2268046875 0.3856527362966665 0.9724939097700832
9.227953125 0.3861096733844419 0.971670288493872
9.2291015625 0.3853629549542511 0.9720324405434694
9.23025 0.3854026393028062 0.9726049207605362
9.2313984375 0.385084955606139 0.9705724938826421
9.232546875 0.3857015578513946 0.9707449764722762
9.2336953125 0.3867091533120927 0.9726857523387389
9.23484375 0.38539523457159974 0.9711273096347514
9.2359921875 0.3853839343397747 0.9713881716911762
9.237140625 0.3859676098776227 0.9730105513474269
9.2382890625 0.3863662240437008 0.9733242914337092
9.2394375 0.38640335199936726 0.9728460573953551
9.2405859375 0.38619401498528116 0.9722272061726556
9.241734375 0.38584274328456086 0.9726543749863066
9.2428828125 0.386859819758684 0.9710675763776171
9.24403125 0.3855361106737585 0.9720503897717274
9.2451796875 0.3864944531464015 0.971688470766988
9.246328125 0.38681755024234954 0.9706837559111271
9.2474765625 0.38659108884079496 0.970648649431389
9.248625 0.3888595669659165 0.9724580572651841
9.2497734375 0.38729742393715644 0.971236951865701
9.250921875 0.38841052278449695 0.9707611350312633
9.2520703125 0.38853920821970117 0.9703693065698571
9.25321875 0.3889929114711196 0.9703422455548478
9.2543671875 0.38797482362960456 0.9715680129468491
9.255515625 0.3888953277972243 0.9707896571500926
9.2566640625 0.3897332780731557 0.9698399102866802
9.2578125 0.3891070383036892 0.9698432610322958
9.2589609375 0.38962055278860286 0.9697354493688978
9.260109375 0.39015670513108053 0.970639006418745
9.2612578125 0.3901892623166854 0.9697640993236369
9.26240625 0.3898645088185972 0.9693981011608418
9.2635546875 0.3923603632365869 0.9704509805216353
9.264703125 0.39166822874274965 0.96936446832111
9.2658515625 0.39069225301550614 0.969836968463536
9.267 0.3931580998833962 0.969996567210074
9.2681484375 0.3922508768807116 0.9691722491372693
9.269296875 0.39288837964117374 0.969627595450649
9.2704453125 0.39329110374307263 0.9701776069590312
9.27159375 0.39280179736728 0.9710659067646188
9.2727421875 0.39320686093232043 0.9716571757695887
9.273890625 0.39342366661319506 0.9693736730122158
9.2750390625 0.39480994578799694 0.9706958495733765
9.2761875 0.3940066789123302 0.9695157958237889
9.2773359375 0.39522841222504035 0.9698181603276942
9.278484375 0.39594698414876056 0.9714708782060556
9.2796328125 0.39654542102094004 0.9707244361654147
9.28078125 0.39664844209995076 0.9694359101274012
9.2819296875 0.3983931660521554 0.9697800435072199
9.283078125 0.39932226343098237 0.9692965459715877
9.2842265625 0.39709972916223435 0.9690550006830463
9.285375 0.3983348237825427 0.9688437746817053
9.2865234375 0.39858785797978186 0.9679773449378966
9.287671875 0.40027461342671117 0.9673063570019516
9.2888203125 0.3997224611513305 0.9666179139625385
9.28996875 0.40010269180011654 0.9668336950815573
9.2911171875 0.399833066282904 0.9662082535271138
9.292265625 0.40065452258873496 0.966188740078838
9.2934140625 0.400689844481233 0.9666235219644509
9.2945625 0.39996083025286394 0.9666363338087336
9.2957109375 0.40124351610114256 0.9659433003921749
9.296859375 0.40242397875552893 0.9653572370450882
9.2980078125 0.40258111423532045 0.9641359143121833
9.29915625 0.4025398209111982 0.9630095059303916
9.3003046875 0.40332045412352857 0.9625257236725175
9.301453125 0.4045897657488796 0.9615884515737071
9.3026015625 0.40329148685779725 0.9619977144236201
9.30375 0.4022571106616637 0.9610040735491251
9.3048984375 0.40223118270972164 0.9610016738461563
9.306046875 0.4018639092842947 0.9611390127256274
9.3071953125 0.40139479609511863 0.960624169519222
9.30834375 0.4023916049574303 0.9605091646658508
9.3094921875 0.40192238823853577 0.959825207875081
9.310640625 0.4015603702347259 0.9583015056107862
9.3117890625 0.40081969247958765 0.9582225137205417
9.3129375 0.39997021239682445 0.9584046335889908
9.3140859375 0.39989200026401855 0.9569457595502833
9.315234375 0.39879639826912366 0.9582843258192202
9.3163828125 0.39789398451053876 0.959246352734934
9.31753125 0.39829566981915254 0.9600075115811538
9.3186796875 0.3981462607493098 0.9594458778719238
9.319828125 0.39966989968835076 0.9592553602262341
9.3209765625 0.39984325367317775 0.9583980015646993
9.322125 0.3995219480186813 0.9585147228800356
9.3232734375 0.39996857909696754 0.9585443425290774
9.324421875 0.39926504105932414 0.9588484099365413
9.3255703125 0.3997082256854977 0.9587180044544734
9.32671875 0.3989272552561533 0.958512068742311
9.3278671875 0.3995093399838388 0.9592372886476586
9.329015625 0.40009930393149384 0.9588951958164126
9.3301640625 0.3994196219341187 0.9591276392736651
9.3313125 0.4008345679443013 0.9594931344398374
9.3324609375 0.4012202059306621 0.9586729983157275
9.333609375 0.4004276943840838 0.9593290437560703
9.3347578125 0.40035838838121796 0.9592729780686869
9.33590625 0.40102311043581235 0.9589013247946461
9.3370546875 0.40153719431571266 0.9589259261866852
9.338203125 0.401456401076857 0.9594424639717288
9.3393515625 0.4017562938823282 0.9597274658428314
9.3405 0.4013101418521599 0.9589120259542365
9.3416484375 0.40151995593619494 0.9585856692968784
9.342796875 0.40257314355062057 0.9590630845727
9.3439453125 0.4025446745431248 0.9591869187602686
9.34509375 0.4027844479549263 0.9583866235474143
9.3462421875 0.40213749978639113 0.9578499632123878
9.347390625 0.4022677278162761 0.9577382242659448
9.3485390625 0.4018675358758801 0.9580283929910375
9.3496875 0.40348966047057044 0.9585340659925152
9.3508359375 0.40456255845617745 0.9586321140539604
9.351984375 0.4030950155552355 0.9591799926840963
9.3531328125 0.40265050572335204 0.9592385606264837
9.35428125 0.40305027131641624 0.9585729183562628
9.3554296875 0.4036882374475413 0.9592352311475749
9.356578125 0.4036745755502579 0.9579298512194591
9.3577265625 0.40433236393708727 0.9588475810735477
9.358875 0.40446648220784737 0.9580884433904568
9.3600234375 0.4043753634111996 0.9574001083950844
9.361171875 0.4051156162521521 0.9568179097878879
9.3623203125 0.4055469123191754 0.9555089045203894
9.36346875 0.4050462682450349 0.9566418390848876
9.3646171875 0.40504824673373685 0.9577718538812964
9.365765625 0.40613956780896593 0.9569009215822015
9.3669140625 0.4060046452201098 0.9567788585259167
9.3680625 0.40596170626041483 0.9568187557651218
9.3692109375 0.40609652710946964 0.9564874082797667
9.370359375 0.40631965675411585 0.9568623603002194
9.3715078125 0.40618279555222714 0.957354938971398
9.37265625 0.4062354587040831 0.9572953456714068
9.3738046875 0.4069968216841481 0.9568324085430584
9.374953125 0.40640864170132746 0.9567649823670266
9.3761015625 0.40701729812117693 0.9570011335950676
9.37725 0.4059929741536632 0.9564655939777194
9.3783984375 0.4064999138868704 0.9567135761168497
9.379546875 0.4065603828048627 0.9578431161175156
9.3806953125 0.4070257339440234 0.9577950958173946
9.38184375 0.4073018725588463 0.9580289489598963
9.3829921875 0.40732049809471704 0.9576030915242346
9.384140625 0.40631526612962526 0.9572032232667891
9.3852890625 0.4064714544388805 0.9581465079588825
9.3864375 0.4076635144278898 0.9580236161759592
9.3875859375 0.4084686815643907 0.9576801612159385
9.388734375 0.4092339131378675 0.9572590887356855
9.3898828125 0.40963026355680116 0.9573927703304925
9.39103125 0.408872126754871 0.9573565419111577
9.3921796875 0.40927927848861806 0.9567637604128243
9.393328125 0.4103955369728524 0.9569153031045641
9.3944765625 0.4103376310881967 0.9572723890542718
9.395625 0.41090452080360806 0.9570876586571961
9.3967734375 0.41149296995559526 0.9572950744894905
9.397921875 0.41101532653334827 0.9566188525788278
9.3990703125 0.41112310061624896 0.9561670000419809
9.40021875 0.4114045537297675 0.9557375523123399
9.4013671875 0.41098734957674316 0.9553348622339884
9.402515625 0.4117584177362187 0.9558070195949688
9.4036640625 0.41180230930689643 0.9555794297385191
9.4048125 0.41168645563208595 0.9562588722832817
9.4059609375 0.4121851229640407 0.9570215115662966
9.407109375 0.4118757027860747 0.9565801433337873
9.4082578125 0.4119556298525946 0.9565909623149411
9.40940625 0.4130366882318188 0.9564208572338532
9.4105546875 0.41407794127343744 0.9564084616368133
9.411703125 0.4134650568833016 0.9560248829705618
9.4128515625 0.4140526495842174 0.9557150346098457
9.414 0.4139752807594661 0.9563323443585933
9.4151484375 0.4134595617544752 0.9554717157956771
9.416296875 0.4143980115814956 0.9554469966869346
9.4174453125 0.414429373283234 0.9548809948207548
9.41859375 0.41532189900206123 0.9550667193466069
9.4197421875 0.4150500062992702 0.9552904985739485
9.420890625 0.4157749512699587 0.9555243378812874
9.4220390625 0.41633697278572934 0.9543113556851337
9.4231875 0.4165187674959332 0.9539129257980655
9.4243359375 0.41604305739941133 0.9531890287852642
9.425484375 0.416318279585564 0.9538405516030476
9.4266328125 0.41531159042010124 0.9540119718937705
9.42778125 0.41553060788688834 0.9534214572557447
9.4289296875 0.4170845659793635 0.9532580682852767
9.430078125 0.4167751062911206 0.9528879489608922
9.4312265625 0.41817699910569356 0.9528023274782262
9.432375 0.4170269583601919 0.9517258993165414
9.4335234375 0.41786363022442746 0.9520545789790029
9.434671875 0.41845673703973574 0.9525500129208568
9.4358203125 0.4183031062586647 0.9523202941374767
9.43696875 0.4181133692051494 0.9528938085492469
9.4381171875 0.41896305809130285 0.9532006826589601
9.439265625 0.41834925170450843 0.9520620449032526
9.4404140625 0.41930211528839034 0.9522408928039428
9.4415625 0.4197952504941999 0.9519169949561778
9.4427109375 0.4196889230125378 0.951387772253057
9.443859375 0.4209298897532491 0.9530873363172111
9.4450078125 0.4208696486315912 0.9512306728506102
9.44615625 0.4214006051264355 0.9521961345433039
9.4473046875 0.42062237450191414 0.951094455892116
9.448453125 0.4203426214880994 0.9518845594769494
9.4496015625 0.41996630190945344 0.9515373173570414
9.45075 0.4201319009538048 0.950624361317741
9.4518984375 0.42051570901045027 0.9506292718903898
9.453046875 0.42004155542757826 0.951426591310661
9.4541953125 0.4201015729579738 0.9495864305524775
9.45534375 0.42046980421511215 0.950373797620501
9.4564921875 0.4194586257596975 0.9518162853831886
9.457640625 0.4197939865990701 0.9516656333010012
9.4587890625 0.4211322853728986 0.9504567208803376
9.4599375 0.4207741129197753 0.951831689751994
9.4610859375 0.42071317976449824 0.9523811130870935
9.462234375 0.4203332038628206 0.9525917054132133
9.4633828125 0.4209466159425017 0.9530984552579731
9.46453125 0.4204065037453123 0.952664748048982
9.4656796875 0.4203124786386765 0.9526960574089071
9.466828125 0.42174630415576553 0.9528837122331706
9.4679765625 0.4208195771008729 0.9531862591894935
9.469125 0.42121592249596645 0.9519519234486089
9.4702734375 0.4214653630747569 0.9521860676951679
9.471421875 0.4211856081677007 0.9513580499220857
9.4725703125 0.42095026617773307 0.9503469740009953
9.47371875 0.42177361105369593 0.9514641318395934
9.4748671875 0.4219940789203558 0.9515052401180375
9.476015625 0.42251269512942413 0.9510901246518269
9.4771640625 0.4220048617308588 0.9503738346635856
9.4783125 0.4241941620980596 0.9504336155554391
9.4794609375 0.42396254264414457 0.9512616456338618
9.480609375 0.42406876590912645 0.950824960006823
9.4817578125 0.4239248993249635 0.9502491875121638
9.48290625 0.4241397716576932 0.9495264581078191
9.4840546875 0.4240688839832858 0.9498602641875418
9.485203125 0.42316060822975404 0.9503200238757241
9.4863515625 0.42476768219576944 0.9495959408822242
9.4875 0.42318104683634294 0.9517695116422931
9.4886484375 0.42354969544048104 0.9508255098042391
9.489796875 0.42583032776592034 0.9523062321132665
9.4909453125 0.42492632058267266 0.9502960381468459
9.49209375 0.4249327654117927 0.949874282715236
9.4932421875 0.4255181315755863 0.9499224333085743
9.494390625 0.4264858894445801 0.9500540351424991
9.4955390625 0.4263985501953983 0.9517495489606986
9.4966875 0.4274274858490495 0.9496293715589663
9.4978359375 0.42621538916580937 0.9516232335337943
9.498984375 0.42655513636954023 0.9503870484976004
9.5001328125 0.4260844878213247 0.9504632433454336
9.50128125 0.4264092091862712 0.9515599907548931
9.5024296875 0.4281816045314293 0.9508524258807923
9.503578125 0.42804283175822644 0.9506672607827171
9.5047265625 0.42771847419837306 0.9491852416263913
9.505875 0.42799543414470104 0.9505789311486512
9.5070234375 0.42806255389003733 0.9519177364061613
9.508171875 0.4295710717788499 0.9526792037209653
9.5093203125 0.4285184968765783 0.9508680364520716
9.51046875 0.428304866697821 0.9515742464488892
9.5116171875 0.42975978563363304 0.9507864712186649
9.512765625 0.4295489523346881 0.9511424768022064
9.5139140625 0.43117013226014095 0.9496845681232704
9.5150625 0.4302222667008175 0.9493752143633187
9.5162109375 0.4314151049299497 0.9512859333268722
9.517359375 0.43085660939336135 0.9510191833411008
9.5185078125 0.430596107260543 0.9514608474250619
9.51965625 0.43046170224086067 0.9529309717368888
9.5208046875 0.43181387446847774 0.9519195481984148
9.521953125 0.4313568732518077 0.9525511853541876
9.5231015625 0.4320815342721527 0.9526959924174545
9.52425 0.4314857271682351 0.9518740424611047
9.5253984375 0.4313587570441296 0.9518753034707303
9.526546875 0.43217420051000566 0.9525983350120641
9.5276953125 0.4314261377169015 0.9516073462712215
9.52884375 0.43160157952353556 0.9519094159353664
9.5299921875 0.43214681788459175 0.952216789074702
9.531140625 0.43404000707089213 0.9517817280663576
9.5322890625 0.4334368671930916 0.9512437452362181
9.5334375 0.4343816039513806 0.9501234616731102
9.5345859375 0.43463066325711097 0.9506930123396673
9.535734375 0.4340449777959568 0.9501677147020937
9.5368828125 0.43485896331876067 0.9501141029552429
9.53803125 0.43602126475300346 0.9488331242471535
9.5391796875 0.4339527987440028 0.9503803350430069
9.540328125 0.43380923345263644 0.950089266282312
9.5414765625 0.4342576484101495 0.9500365873040415
9.542625 0.43398840839256825 0.9497171795210831
9.5437734375 0.4333905355639824 0.9489455149563517
9.544921875 0.4356175936730551 0.9500451994968838
9.5460703125 0.4373192355534585 0.9493333570375152
9.54721875 0.436680548056545 0.9497634292263206
9.5483671875 0.4359469077533291 0.9479082450767036
9.549515625 0.43667622731652184 0.9478078224589923
9.5506640625 0.43550565129516194 0.9479924361121475
9.5518125 0.43555882200089785 0.9473203874744965
9.5529609375 0.43772849073123865 0.9487502650266278
9.554109375 0.43690406111433044 0.9490049414541789
9.5552578125 0.43772728154828583 0.9486487019097058
9.55640625 0.43802992632095344 0.9491886777698667
9.5575546875 0.4376916166617947 0.9506570330612862
9.558703125 0.4387441277634382 0.9494306905508674
9.5598515625 0.4387083146717373 0.9485616733705056
9.561 0.43929428624569766 0.9477917618369887
9.5621484375 0.4375156013186302 0.9480091190543412
9.563296875 0.4389773933210577 0.948388206238273
9.5644453125 0.4403850950119065 0.9486430416815486
9.56559375 0.43897105768407674 0.95052556238164
9.5667421875 0.4414023025618087 0.9487906003151219
9.567890625 0.4399736104329044 0.950115872194811
9.5690390625 0.4405011397331524 0.9497599602289539
9.5701875 0.4389483712121079 0.9474091791257915
9.5713359375 0.4393853176261104 0.9485334501461931
9.572484375 0.440721765344915 0.948796447899341
9.5736328125 0.44099762852803265 0.9470208319776652
9.57478125 0.4408785102455395 0.9494898337265324
9.5759296875 0.4414089140626901 0.9503723014385823
9.577078125 0.4394218156996292 0.9476083111972872
9.5782265625 0.4404925582669805 0.946049903024142
9.579375 0.44132201994269904 0.9473362672309442
9.5805234375 0.44316049489305354 0.9480161925331185
9.581671875 0.4415191929938862 0.9482321298300056
9.5828203125 0.44408567528052534 0.9473602325730965
9.58396875 0.4440991805026505 0.9477009936062479
9.5851171875 0.44475845490022825 0.9461829967382794
9.586265625 0.4455353664844032 0.9460998577809514
9.5874140625 0.44507478729192984 0.9463037877666174
9.5885625 0.44467190969029596 0.94514079606535
9.5897109375 0.4455125485005861 0.9459011529414109
9.590859375 0.4458203255327285 0.9470726550414761
9.5920078125 0.4461996604827536 0.9460113881181672
9.59315625 0.4480720847280063 0.9477361167146395
9.5943046875 0.44849724993057305 0.9466989684425002
9.595453125 0.44811766955984605 0.947150203904592
9.5966015625 0.44718361498326376 0.948097401031469
9.59775 0.44927302163911453 0.9466609777872875
9.5988984375 0.44860187171660754 0.9487146904712612
9.600046875 0.4499207447158097 0.9457013088354876
9.6011953125 0.4500541578734415 0.9447741293804941
9.60234375 0.45120793827912087 0.9441445149087078
9.6034921875 0.4512420282243187 0.9457155229718845
9.604640625 0.45236529907780865 0.9467292812868902
9.6057890625 0.4510415792437777 0.9475134652251773
9.6069375 0.45333789362948806 0.9464386994966654
9.6080859375 0.4520042514340554 0.9470154420997938
9.609234375 0.45230774486946795 0.9459894466860762
9.6103828125 0.45307819568461183 0.9478811984732456
9.61153125 0.45324903895206803 0.9455545367980684
9.6126796875 0.4529310949394165 0.9484579449473071
9.613828125 0.4542931506094025 0.9465759384221863
9.6149765625 0.4517831521781036 0.9455317840734522
9.616125 0.4557039084279698 0.9466611049641893
9.6172734375 0.45629174795995564 0.9447271059463993
9.618421875 0.4539326223082805 0.9464857766209855
9.6195703125 0.45678756395747405 0.9444281897252663
9.62071875 0.4558000984374991 0.94640475260343
9.6218671875 0.45488703510778433 0.9448984813226966
9.623015625 0.45441786366743964 0.9464292735255688
9.6241640625 0.4542948791723513 0.9443889419808095
9.6253125 0.45529692847538555 0.9449797785456086
9.6264609375 0.45381232084126283 0.9447843810143062
9.627609375 0.4540034328640301 0.9451674039866917
9.6287578125 0.45411483159386035 0.945892122796061
9.62990625 0.45537889231762196 0.9462055535805866
9.6310546875 0.45572609203693104 0.9433162358582377
9.632203125 0.45476854872784944 0.9421052892185177
9.6333515625 0.453630556962493 0.9415457429887077
9.6345 0.45248218922377587 0.9423073139925635
9.6356484375 0.4529974847963274 0.9404227671267029
9.636796875 0.45473022765406546 0.9416813258357146
9.6379453125 0.4530651960211311 0.940631285291859
9.63909375 0.45477879822446177 0.9426588431939578
9.6402421875 0.4546522979294081 0.9437223320892155
9.641390625 0.4555513374652155 0.9436706580555743
9.6425390625 0.4539996646360662 0.9431646093459791
9.6436875 0.45474995489188585 0.9424051581459049
9.6448359375 0.4552388938783153 0.9427491196524814
9.645984375 0.4566079258904658 0.9422131838479815
9.6471328125 0.4553568948960528 0.9417545536063303
9.64828125 0.4557097269233585 0.9407187419197934
9.6494296875 0.4551990196705026 0.9416241120570595
9.650578125 0.45546886396576175 0.9406125610715037
9.6517265625 0.457988158436999 0.9395851789150548
9.652875 0.45558034143229437 0.9403796349307831
9.6540234375 0.4560955437477222 0.9400705240606663
9.655171875 0.4586958085162523 0.9410615643593471
9.6563203125 0.4576378499775089 0.9425396507031496
9.65746875 0.45752481366840536 0.9418479474678877
9.6586171875 0.4582975628849087 0.9408532138510844
9.659765625 0.4581097228705087 0.9406873127210433
9.6609140625 0.45901263716945495 0.9401116105471155
9.6620625 0.4590408421037392 0.9403998365183119
9.6632109375 0.45951136114267255 0.9407086347300988
9.664359375 0.4593317385608385 0.9419116938868645
9.6655078125 0.45873734644810427 0.9401717638205976
9.66665625 0.460709496289262 0.9395646810751412
9.6678046875 0.45993860062493425 0.937467171704784
9.668953125 0.46164668420796917 0.9380170651294125
9.6701015625 0.46302981036026924 0.9403636404669067
9.67125 0.4632698311281355 0.9389823327624234
9.6723984375 0.46401046388494527 0.9394883754575917
9.673546875 0.46332497691050145 0.9392129404609446
9.6746953125 0.4646129878183067 0.9390510737638048
9.67584375 0.4644766948726987 0.9373070825778749
9.6769921875 0.464799089818405 0.9386531832083712
9.678140625 0.467974291264019 0.9384487747599579
9.6792890625 0.4668256022594448 0.9371564754366124
9.6804375 0.4668059030786294 0.9365266228956337
9.6815859375 0.47211077798466305 0.9384317671961716
9.682734375 0.47100267988115363 0.9383216037151851
9.6838828125 0.47140242229903817 0.9381833289339421
9.68503125 0.4727547523756498 0.9368113078722428
9.6861796875 0.4728975762656536 0.9338986338674673
9.687328125 0.4753957440957106 0.9346663556561328
9.6884765625 0.47312163059960555 0.9374676456749265
9.689625 0.4767903498981063 0.9348588295408731
9.6907734375 0.47670996112021413 0.9350386867633518
9.691921875 0.4811102413610826 0.9319654525814477
9.6930703125 0.4811915562404516 0.9312516174918781
9.69421875 0.4816062485445854 0.9313140354550391
9.6953671875 0.4824668116212285 0.9240225432708112
9.696515625 0.48647710402827227 0.92503307818641
9.6976640625 0.4833474197231722 0.9215601299612881
9.6988125 0.48263557253617156 0.9215844703309228
9.6999609375 0.48065993232603466 0.9187374635854779
9.701109375 0.480224191168083 0.918555982718025
9.7022578125 0.48029370625326084 0.9183468362667746
9.70340625 0.47931134800401487 0.9151448648738263
9.7045546875 0.48025339285745067 0.9127873919160194
9.705703125 0.47409325482239667 0.9146787451747163
9.7068515625 0.47059845953761825 0.9130411978320693
9.708 0.4713069643769647 0.9154367566831776
9.7091484375 0.4703976443034642 0.9150142761955606
9.710296875 0.46989328427924093 0.9126838248175749
9.7114453125 0.47215783619132046 0.9139254112011388
9.71259375 0.47021452390927676 0.9129188836705081
9.7137421875 0.46614500975306794 0.9100897694464533
9.714890625 0.46826088598750937 0.9087607455140432
9.7160390625 0.46660689617592566 0.9099660293604231
9.7171875 0.4646118960658189 0.9089667751038382
9.7183359375 0.46304833952612645 0.908411975225807
9.719484375 0.46090283395703113 0.9098849804172852
9.7206328125 0.45874071306528597 0.9086117911737034
9.72178125 0.4585840633197522 0.9122364854149239
9.7229296875 0.45612025583349924 0.9117779562181945
9.724078125 0.45589550967686887 0.9132899505353874
9.7252265625 0.4554581745719527 0.913639199627341
9.726375 0.455894576804032 0.9118451522039525
9.7275234375 0.45639780242053785 0.9133868589727518
9.728671875 0.45381051303007147 0.9159132948506741
9.7298203125 0.45576000446313747 0.9176082746989338
9.73096875 0.45612513579999514 0.9173206476551782
9.7321171875 0.4575721842432072 0.9172691231542831
9.733265625 0.4588819345232773 0.9167934949937505
9.7344140625 0.4599846502994194 0.9129295178239525
9.7355625 0.4591110712622626 0.9109404293641457
9.7367109375 0.45741871602239104 0.9093230388909841
9.737859375 0.4561285726193214 0.9103150574952489
9.7390078125 0.4520495755362517 0.910374892894604
9.74015625 0.44856643461499746 0.9089088818624478
9.7413046875 0.44816408099665284 0.9118575087371743
9.742453125 0.4506818859643964 0.9147626462726945
9.7436015625 0.44726646903556344 0.9145380574650029
9.74475 0.44825608091000935 0.9145182089241891
9.7458984375 0.4496100684716019 0.9175915885764854
9.747046875 0.4468855825265604 0.917228072572588
9.7481953125 0.4501670048462012 0.912933963417504
9.74934375 0.45078099259775906 0.9144894546050932
9.7504921875 0.44979598657100994 0.915246827268791
9.751640625 0.4482472876720216 0.9123422563946808
9.7527890625 0.4449584626180261 0.914448782958784
9.7539375 0.44603093694143503 0.9159392173847433
9.7550859375 0.4454569312507758 0.9140768332342059
9.756234375 0.4444617412578331 0.9177352077832536
9.7573828125 0.4413709295524073 0.9193022355470346
9.75853125 0.44255893004190305 0.9162978072934874
9.7596796875 0.4443470847179536 0.9184901379954323
9.760828125 0.4447974350931925 0.9217138690877766
9.7619765625 0.4432248035977713 0.9158147029691825
9.763125 0.44118462908258804 0.9172800647538388
9.7642734375 0.4403643066674674 0.9172097305779129
9.765421875 0.43493417578144566 0.9184611193906073
9.7665703125 0.4313037604248572 0.9253797359054319
9.76771875 0.43370560768022604 0.927603837765723
9.7688671875 0.4335870318062277 0.9305516809691949
9.770015625 0.4326942627077417 0.9278240440036591
9.7711640625 0.43314959447644175 0.9295311618390418
9.7723125 0.43772314101203214 0.9329003069989267
9.7734609375 0.4349923103100799 0.931565603006703
9.774609375 0.43308138002520047 0.9337316358497052
9.7757578125 0.43828199722180694 0.9370806767330526
9.77690625 0.4357473916066479 0.9381960522778336
9.7780546875 0.43379651323734114 0.9392174648763543
9.779203125 0.4354194096570181 0.9407927770818822
9.7803515625 0.4375018522544878 0.9450826701721554
9.7815 0.43985560892231623 0.9414050238965683
9.7826484375 0.4443834933116295 0.9487817462737733
9.783796875 0.4435844764956638 0.9464158112525884
9.7849453125 0.4459133703953708 0.9444174860162629
9.78609375 0.4447715603250134 0.9472534783883642
9.7872421875 0.44521725365503373 0.9437958851446182
9.788390625 0.44291108541316304 0.9451729874688466
9.7895390625 0.44052441875358106 0.9461121954927417
9.7906875 0.44497903052473864 0.9492446746895271
9.7918359375 0.4461437488444998 0.9503973502613947
9.792984375 0.44722416414582333 0.9498632879710317
9.7941328125 0.4477198575615732 0.9516411277242642
9.79528125 0.44733821412371655 0.9531069798200442
9.7964296875 0.4496616229435042 0.9539172954077875
9.797578125 0.4534396849958353 0.9539627310387926
9.7987265625 0.45394096618492485 0.9530407000260162
9.799875 0.4534251139385006 0.9537290811951625
9.8010234375 0.4532486084439491 0.9564992262140465
9.802171875 0.45761378625965377 0.9559609268732026
9.8033203125 0.457474183302105 0.9560097213588457
9.80446875 0.4597284004519895 0.9541130948017729
9.8056171875 0.45995539781342665 0.9545107151636825
9.806765625 0.4646014286588742 0.9560800526168479
9.8079140625 0.4648533864393871 0.9548708376671955
9.8090625 0.4658316257625914 0.9549286846916935
9.8102109375 0.46707817292980924 0.9529275622195134
9.811359375 0.4674418082365793 0.9508543194473688
9.8125078125 0.4665834264442732 0.951376509690677
9.81365625 0.4666309669613866 0.9507392293708102
9.8148046875 0.4667850611245937 0.9495957016443772
9.815953125 0.46664101970403404 0.9489296248005064
9.8171015625 0.46786351208840704 0.9506628634749223
9.81825 0.46884451897163415 0.9533748566421332
9.8193984375 0.4715017389957016 0.953235296102225
9.820546875 0.474478932341616 0.9512520638731402
9.8216953125 0.47409857409652056 0.9509593038942827
9.82284375 0.4748390143331582 0.948359458845454
9.8239921875 0.4772537825135922 0.9485548252955986
9.825140625 0.47960258531563305 0.9464297791050531
9.8262890625 0.4793648707639784 0.9416220095528176
9.8274375 0.478439746041714 0.9413301295979288
9.8285859375 0.4775163816723803 0.939295835308785
9.829734375 0.47954133651043973 0.9372510393808602
9.8308828125 0.47733437911519194 0.9323541052571748
9.83203125 0.4762030797363568 0.934824153062715
9.8331796875 0.4744054425733206 0.9363218021604102
9.834328125 0.47536776333034564 0.9373100552877882
9.8354765625 0.4771591869926645 0.9344388535818762
9.836625 0.4779360701394646 0.9349624205138072
9.8377734375 0.4774669729205375 0.9352176075035242
9.838921875 0.47748277827511254 0.9358773517433485
9.8400703125 0.4774258156644616 0.9354213603153455
9.84121875 0.47899323640435076 0.9354244964851163
9.8423671875 0.47688511831137953 0.9339652898460833
9.843515625 0.47850462945163286 0.9318063757634996
9.8446640625 0.4780243709568283 0.9331109032183883
9.8458125 0.47984484628790053 0.9317617090109918
9.8469609375 0.48082103342217963 0.9340221652541109
9.848109375 0.4826446382982995 0.9300939218765433
9.8492578125 0.48111068113677624 0.9276112774268753
9.85040625 0.47926913812872496 0.9258760744155979
9.8515546875 0.47970702301413354 0.9253963012377074
9.852703125 0.4767892450139795 0.924895617230289
9.8538515625 0.47490295758979545 0.9234483972751023
9.855 0.472220709097081 0.922785507676114
9.8561484375 0.47178247395208917 0.9220441744758041
9.857296875 0.470960999709708 0.9229182023258127
9.8584453125 0.46797197656833545 0.921978301125514
9.85959375 0.46581421892380903 0.9220902484845531
9.8607421875 0.46154057698518336 0.9200702604547085
9.861890625 0.4625289881842415 0.9216121178141512
9.8630390625 0.4595972581781599 0.9234864403499605
9.8641875 0.45548171508086277 0.9263646356020836
9.8653359375 0.4566203113199354 0.9287453292892806
9.866484375 0.45590283138000354 0.9305686362250503
9.8676328125 0.4543717071698322 0.9310944113833105
9.86878125 0.45171560771258146 0.9334626447437488
9.8699296875 0.4515204058244626 0.9371004485184389
9.871078125 0.4530928941219765 0.9403993349216323
9.8722265625 0.4527483315367623 0.9410659353895892
9.873375 0.4527177948649387 0.942662553605646
9.8745234375 0.4505429471161867 0.9443190135175272
9.875671875 0.4516211381687918 0.9474887662517602
9.8768203125 0.45266689034054597 0.9518545907176237
9.87796875 0.4524537786130205 0.953361190150094
9.8791171875 0.4514406337590443 0.9553371677594078
9.880265625 0.45463809597013116 0.9575604131742734
9.8814140625 0.45652846876761377 0.9597738657266519
9.8825625 0.4611025456009661 0.9606004868483576
9.8837109375 0.46306471765629265 0.9594830999657904
9.884859375 0.46447148145589756 0.9578656968606731
9.8860078125 0.4680880186778924 0.95825462782079
9.88715625 0.4679852141907255 0.9569050954381022
9.8883046875 0.46663917748138883 0.957367930467129
9.889453125 0.4677078558412129 0.9576443574393763
9.8906015625 0.46898797453360097 0.9562849593795093
9.89175 0.46677961640312904 0.955500465562415
9.8928984375 0.4684863945937866 0.9554763333438325
9.894046875 0.469355524163103 0.9529708814610593
9.8951953125 0.4658383698125126 0.9528011904317379
9.89634375 0.47006256539445856 0.9538776415357557
9.8974921875 0.4654909575232945 0.9532878598827428
9.898640625 0.46149505166954174 0.9564633751573648
9.8997890625 0.46104984001232374 0.9570348848883812
9.9009375 0.46646215249101586 0.9583316996966164
9.9020859375 0.462014193396067 0.9614306605432666
9.903234375 0.4633351878972073 0.9616775582873138
9.9043828125 0.4654016087310574 0.963392790521089
9.90553125 0.46616984162839614 0.9642202580707526
9.9066796875 0.4702765977548897 0.962652613604714
9.907828125 0.4652675399448969 0.9680586840570562
9.9089765625 0.46731481983421974 0.9656137127850765
9.910125 0.4690482809121851 0.9678314153224529
9.9112734375 0.46558922907972977 0.9719299798652092
9.912421875 0.46767124025722273 0.9679305463643112
9.9135703125 0.4677318331152428 0.9705776738372511
9.91471875 0.4625525879831601 0.9691246035676623
9.9158671875 0.46549229345623444 0.9757533576156332
9.917015625 0.46307571705782735 0.9808919905875397
9.9181640625 0.4688495443384111 0.983957856454443
9.9193125 0.4675897834362248 0.9833859709513157
9.9204609375 0.4681236573008922 0.9858570717362158
9.921609375 0.4733173104145173 0.9898678446588182
9.9227578125 0.4742164064750344 0.9913719348061754
9.92390625 0.4769177162135291 0.991785776045882
9.9250546875 0.47951167554011453 0.9911515737244323
9.926203125 0.4825161963658804 0.9973160529052245
9.9273515625 0.4874180230829722 0.9945242492796991
9.9285 0.4900795682459652 0.9920665421038348
9.9296484375 0.4910038652880153 0.9923793207480315
9.930796875 0.4903331123989987 0.9959023333857677
9.9319453125 0.49436730988871347 0.9982989250937078
9.93309375 0.4940275969800617 0.9988841352399356
9.9342421875 0.49620594647199956 0.9995960677153726
9.935390625 0.49657512939377646 0.9986184878926536
9.9365390625 0.49806558534283396 1.0013989425305476
9.9376875 0.502526468718929 1.0071446032040887
9.9388359375 0.507633310294961 1.004945801935385
9.939984375 0.5120928269547549 1.0082915726975545
9.9411328125 0.5159524146825166 1.0087663309230743
9.94228125 0.5174780311560612 1.006194770126024
9.9434296875 0.5251618753641474 1.0025163713647696
9.944578125 0.5277486191079078 1.0035715282238777
9.9457265625 0.5318894684196532 1.0081995657969576
9.946875 0.5358772200100426 1.0057237162105612
9.9480234375 0.5428189866874412 1.0059481511629351
9.949171875 0.5476091412873563 1.0049502286123722
9.9503203125 0.5479016585442851 0.9987681015143204
9.95146875 0.5496688844188053 0.9936690910091198
9.9526171875 0.5550606284809051 0.9934558877174609
9.953765625 0.5564689463717226 0.9844372440278952
9.9549140625 0.5575568104631033 0.9828769074837672
9.9560625 0.55408856013006 0.978747283510685
9.9572109375 0.553951737202544 0.9739968997591344
9.958359375 0.5540064532540371 0.9753102105014249
9.9595078125 0.5558621892462847 0.9708005747846473
9.96065625 0.558750529056226 0.9714603122753598
9.9618046875 0.5553683825627839 0.9675513829855477
9.962953125 0.5533839194208611 0.9675513085214466
9.9641015625 0.5520852641863755 0.9679583936507099
9.96525 0.5509953042811621 0.9667959343111706
9.9663984375 0.5565513993769596 0.9645195597262912
9.967546875 0.5563143651870218 0.9657996214133269
9.9686953125 0.5535085451221735 0.9696273276660549
9.96984375 0.5535357686625194 0.9677411782490959
9.9709921875 0.5584303280526075 0.9659602402249411
9.972140625 0.5609301271168791 0.965174974256267
9.9732890625 0.561189849902849 0.9683650687274449
9.9744375 0.562344217042865 0.966064055926557
9.9755859375 0.5663405147657317 0.9637422820509547
9.976734375 0.5669809201328787 0.9595760622682321
9.9778828125 0.5713529105498151 0.9587349052230806
9.97903125 0.5703153100297185 0.9562671950649293
9.9801796875 0.5680361166152541 0.9514388105981677
9.981328125 0.5719393454834754 0.948365139186293
9.9824765625 0.5740017428752391 0.9493670603658763
9.983625 0.5764260076237296 0.9481211933560216
9.9847734375 0.5768645324686796 0.9446886601499649
9.985921875 0.579484055956402 0.938270733960844
9.9870703125 0.5735823226987892 0.9348198678268069
9.98821875 0.569755806143283 0.9334860071628792
9.9893671875 0.5669769555216044 0.9317959855305329
9.990515625 0.5656072659508219 0.9330014048224154
9.9916640625 0.5634135869233743 0.9322663052816285
9.9928125 0.5632124803957522 0.9327308365002505
9.9939609375 0.5661525444988534 0.9358746809242067
9.995109375 0.5636040812100839 0.9329305175077911
9.9962578125 0.5650919471474707 0.9285321325482688
9.99740625 0.5666873952865327 0.9258041693669253
9.9985546875 0.5663614100928797 0.9223000670474695
9.999703125 0.5626534613489662 0.9234656728366324
10.0008515625 0.5573514565872421 0.9222628953996492
10.002 0.5542354932357488 0.9253492817467395
10.0031484375 0.5547625550318351 0.9266245447576075
10.004296875 0.5557838436960635 0.9289538781991072
10.0054453125 0.557097271357164 0.9280909836160679
10.00659375 0.559963272206687 0.9263409375607867
10.0077421875 0.5585239877082072 0.9263815489611091
10.008890625 0.5560918338647026 0.9236890829525871
10.0100390625 0.5589499519995238 0.9247101840296683
10.0111875 0.5596534624704592 0.9237219408568931
10.0123359375 0.557652544976167 0.9239996866649208
10.013484375 0.559041138571207 0.9239761633787911
10.0146328125 0.5576071417380726 0.92474417934383
10.01578125 0.5553051025150024 0.9256561786444399
10.0169296875 0.559785419096317 0.9264790311688148
10.018078125 0.5572095899275956 0.9251193647335669
10.0192265625 0.559718786192452 0.9264143234730192
10.020375 0.5617196537776551 0.9258711198762677
10.0215234375 0.5577382533449675 0.9241025192790454
10.022671875 0.5585053968748299 0.9279492891035058
10.0238203125 0.5600017969582589 0.9221121206355128
10.02496875 0.5625775478990981 0.9254128246976081
10.0261171875 0.5641053506373934 0.925600077797092
10.027265625 0.5625321236644538 0.9224149189317268
10.0284140625 0.564298670824805 0.9247984303246304
10.0295625 0.5698106182594541 0.9200900169114439
10.0307109375 0.5636030424416618 0.9203127894505612
10.031859375 0.5675853836188263 0.9222497636800124
10.0330078125 0.5685871654685104 0.9199593071105118
10.03415625 0.5664477120419849 0.9194305525848969
10.0353046875 0.5679181370043115 0.91776839104801
10.036453125 0.5662406286103818 0.9178632328866648
10.0376015625 0.5689840822796615 0.9141223849351503
10.03875 0.5705249111987982 0.9130259824996247
10.0398984375 0.5659162946671346 0.9094483046734808
10.041046875 0.568143100379405 0.9116893285123058
10.0421953125 0.5677335424243123 0.9115519604549862
10.04334375 0.5691265105368878 0.9117944903142541
10.0444921875 0.5686000554515226 0.9105003260098476
10.045640625 0.5687296219496436 0.9113927172742169
10.0467890625 0.5683685288105387 0.9093988691276911
10.0479375 0.5694484933484082 0.9088445942655934
10.0490859375 0.5698437096779154 0.9087749977691303
10.050234375 0.5671061108046673 0.9073693587337186
10.0513828125 0.5685596779368343 0.9035637212841863
10.05253125 0.568076335492413 0.9036182294861974
10.0536796875 0.5679565652190695 0.9040700310993521
10.054828125 0.5679254942692347 0.9039643981494155
10.0559765625 0.568506563180843 0.9044942159536855
10.057125 0.5690644125154337 0.9040831367140995
10.0582734375 0.568925186383409 0.9040839791965845
10.059421875 0.5679567462595018 0.9008981741355027
10.0605703125 0.5651549751759171 0.9013757007138858
10.06171875 0.5645539798622282 0.8992574890424607
10.0628671875 0.5642978012869512 0.9029574118084936
10.064015625 0.565942323893617 0.9008813566255213
10.0651640625 0.5642660234942403 0.9006879436987612
10.0663125 0.5635130096242371 0.9007559831094031
10.0674609375 0.5634641602300102 0.9008996279619651
10.068609375 0.5628835443689361 0.901961479899516
10.0697578125 0.5637184260004671 0.8997103298285681
10.07090625 0.5640461215107027 0.8997577693840323
10.0720546875 0.5632094968271701 0.901859597925541
10.073203125 0.5630415562516463 0.9017423713500483
10.0743515625 0.5635203180629506 0.900341788002194
10.0755 0.5642863685012006 0.9023294341327683
10.0766484375 0.5622772815222878 0.9021731671250661
10.077796875 0.563901566894887 0.9040104407583934
10.0789453125 0.5661202079275479 0.9041788250228593
10.08009375 0.5606568001964933 0.9030376807742115
10.0812421875 0.5643544326287808 0.9032686777037802
10.082390625 0.5683069493693883 0.9074767861289634
10.0835390625 0.5696911609504407 0.90267179065394
10.0846875 0.569835524566058 0.898878445353856
10.0858359375 0.5709190788250581 0.8976747938143852
10.086984375 0.5715457550105684 0.9009906456934584
10.0881328125 0.5702403149561511 0.8971080276394322
10.08928125 0.5723550454743993 0.8965443203647422
10.0904296875 0.571421580384415 0.8949322960827897
10.091578125 0.5700282059687737 0.894997482983628
10.0927265625 0.5714718996333443 0.8972805579441923
10.093875 0.5707293482197524 0.8911173587459462
10.0950234375 0.5691138137656413 0.8938631090238424
10.096171875 0.5665014899716748 0.8952602380747872
10.0973203125 0.5720658686460555 0.8941491914703106
10.09846875 0.5643815137635376 0.8927016826017902
10.0996171875 0.5668877583660086 0.8930108843768344
10.100765625 0.5682785917620362 0.8941590901332686
10.1019140625 0.5680068389811479 0.8895916660109329
10.1030625 0.5657394576846513 0.8929743957304843
10.1042109375 0.5638934669104521 0.8884760934808307
10.105359375 0.5655929359034815 0.8943301551373288
10.1065078125 0.5663452548756729 0.8894978240229754
10.10765625 0.565446757145689 0.8880011890787377
10.1088046875 0.571913578375615 0.891812160865619
10.109953125 0.566509881177823 0.8870066625485273
10.1111015625 0.5697156045367997 0.8887487027211773
10.11225 0.5658122180199028 0.8901134204686099
10.1133984375 0.5658360112031964 0.8901751294660962
10.114546875 0.567942986381331 0.8856892180487805
10.1156953125 0.5664014650812556 0.8860024274072221
10.11684375 0.5663367861844306 0.8887692970027075
10.1179921875 0.5637609083045778 0.8875259534917727
10.119140625 0.564274721504229 0.8875747291793739
10.1202890625 0.5701423258996989 0.8893490648853597
10.1214375 0.5694889388033783 0.8878139956505727
10.1225859375 0.563683095581344 0.8849769614504681
10.123734375 0.5661051451207129 0.8848323640304492
10.1248828125 0.5709654523587651 0.8872967520351452
10.12603125 0.5731262022461385 0.887789248150553
10.1271796875 0.5721120525640379 0.885682954138739
10.128328125 0.5705301562737966 0.8855983830870297
10.1294765625 0.5736533513712233 0.8845355786182858
10.130625 0.573853949208455 0.8830988398316075
10.1317734375 0.5735579528845561 0.8833018751563724
10.132921875 0.5750270506520229 0.8874025472828144
10.1340703125 0.575721964723556 0.8835325840753829
10.13521875 0.5772581222887119 0.884725916431275
10.1363671875 0.5757266034095436 0.8777991189580877
10.137515625 0.5764981198719049 0.8811046314558404
10.1386640625 0.5802327208667359 0.8802810702461372
10.1398125 0.5785935417812244 0.8804661511633645
10.1409609375 0.5791458980391965 0.8780830913394176
10.142109375 0.5781589739219466 0.874791132374248
10.1432578125 0.5780926775157025 0.8730250862588524
10.14440625 0.5782062639430847 0.874611369722093
10.1455546875 0.5782370861027794 0.8723460936001409
10.146703125 0.580325106862144 0.8690370992623623
10.1478515625 0.5798475250052089 0.8701485731122245
10.149 0.5780048113410043 0.8663367475214463
10.1501484375 0.580011952010779 0.8663045014404553
10.151296875 0.5763634653207437 0.863058567092625
10.1524453125 0.5764347723529069 0.864134209253001
10.15359375 0.5772131163853176 0.8629669098665299
10.1547421875 0.5792889316572877 0.8628784438129585
10.155890625 0.5803729252661867 0.8609422303525425
10.1570390625 0.5773161948813631 0.8585205177600412
10.1581875 0.5756804438695297 0.856091785673786
10.1593359375 0.5734901569271241 0.8568634012042436
10.160484375 0.5713332206505801 0.850916001812149
10.1616328125 0.5705347752799663 0.8512874993165735
10.16278125 0.5648672556442773 0.8503414779606158
10.1639296875 0.5633885328979715 0.8504132006304536
10.165078125 0.5618444406101422 0.8513283176926555
10.1662265625 0.5598234593320506 0.8474788997745157
10.167375 0.5551017743737195 0.8511532843959747
10.1685234375 0.5593113668505985 0.849161504790274
10.169671875 0.5542131171465863 0.8505303098273599
10.1708203125 0.552018458348579 0.8478490820069196
10.17196875 0.5483080651823012 0.8486480159175603
10.1731171875 0.545680304782655 0.8490340702077399
10.174265625 0.5410657421859131 0.8492723948098043
10.1754140625 0.535523826426983 0.8494063644228781
10.1765625 0.5349356814122062 0.8527293855531103
10.1777109375 0.537056060225629 0.8518338864598015
10.178859375 0.5308471117292419 0.8532172359382323
10.1800078125 0.5291290723652178 0.8500354933464936
10.18115625 0.5271620690320997 0.8500534966998978
10.1823046875 0.5297077422645718 0.8523232740835447
10.183453125 0.5219683082870942 0.856074556277687
10.1846015625 0.5183339336593547 0.8540142684707751
10.18575 0.5171308815304327 0.8573435482800688
10.1868984375 0.5168578955562246 0.8608795118809418
10.188046875 0.5193117009095243 0.8653828393355133
10.1891953125 0.5162790643810254 0.8638723271315103
10.19034375 0.5128700869107631 0.8665307597825924
10.1914921875 0.5136908652933485 0.8680473311269605
10.192640625 0.5123941891465569 0.8665079054770108
10.1937890625 0.5156249094558213 0.8667278824705644
10.1949375 0.5096422158777992 0.8719111449292629
10.1960859375 0.5075480652790583 0.8701257209720623
10.197234375 0.5046919293579231 0.8744368312408916
10.1983828125 0.5035374287094447 0.875182842299078
10.19953125 0.5027207199999374 0.879865593717471
10.2006796875 0.502639825152412 0.8798839239277837
10.201828125 0.5034416148002075 0.8821631758908874
10.2029765625 0.5048090481344768 0.8890656525419254
10.204125 0.5072530807972788 0.8915117530854972
10.2052734375 0.5062553047484412 0.8956439718504101
10.206421875 0.5121539233196721 0.8965754322715206
10.2075703125 0.5129117896772856 0.8956862344068328
10.20871875 0.5163163211230233 0.8948621632231964
10.2098671875 0.5110408551211105 0.8941955345670801
10.211015625 0.5126577146089832 0.8942879433313896
10.2121640625 0.5098630389949451 0.8918545386228048
10.2133125 0.5061921920065071 0.8949832185190317
10.2144609375 0.5043959056159318 0.8935606535286422
10.215609375 0.5030608725146148 0.9007243005029337
10.2167578125 0.5002332511808851 0.9058981117217476
10.21790625 0.5027453204680483 0.9100853900952575
10.2190546875 0.49854032229416884 0.9156065926168577
10.220203125 0.5021561886174315 0.9204471759468618
10.2213515625 0.5042820735653261 0.9257249257113382
10.2225 0.5080109525148804 0.9273830823080375
10.2236484375 0.5119929208186046 0.9265790572116611
10.224796875 0.5137023092088085 0.9259061375455315
10.2259453125 0.5129012361503513 0.9311066333090868
10.22709375 0.5113219622705866 0.934166229396598
10.2282421875 0.5126872338079771 0.9341466559632198
10.229390625 0.5174381397026747 0.9390244047426255
10.2305390625 0.5223924246061313 0.9448329066053478
10.2316875 0.528453132065424 0.9392683208476835
10.2328359375 0.5328134207578258 0.9383990503838046
10.233984375 0.529805360301849 0.9344890943121958
10.2351328125 0.5253469275225077 0.9324087832818246
10.23628125 0.5208739576420748 0.9330172077705312
10.2374296875 0.5173579355192763 0.9369947218765292
10.238578125 0.5125010820131841 0.9423758310207988
10.2397265625 0.5155601612658086 0.9535828746149033
10.240875 0.519417560666086 0.960177151146829
10.2420234375 0.5281654398825404 0.9661311169548081
10.243171875 0.5350047881084726 0.9630027363672029
10.2443203125 0.5399168666201976 0.9614983203616936
10.24546875 0.5454348212177 0.9602029231287041
10.2466171875 0.5439615926396598 0.95936604778322
10.247765625 0.5456871736382307 0.9546755954221755
10.2489140625 0.5406240203011383 0.9546600023009222
10.2500625 0.5370747683004815 0.9534160049278866
10.2512109375 0.5354248669528787 0.9591490718504632
10.252359375 0.5344472360019497 0.9664625091367766
10.2535078125 0.5417565108547933 0.971509901479807
10.25465625 0.5460188475168632 0.9751679224382732
10.2558046875 0.5539613011096153 0.9732342275747428
10.256953125 0.5581104482147352 0.9683261589012576
10.2581015625 0.5555294535183906 0.9658728688718536
10.25925 0.5595294165701193 0.9634259570853616
10.2603984375 0.5578078453936179 0.9640933083814722
10.261546875 0.555057599641797 0.9632297162963039
10.2626953125 0.5542991627656202 0.9635642687558383
10.26384375 0.5563659194507673 0.9657071627874536
10.2649921875 0.559796063729015 0.9654108077621452
10.266140625 0.5703422721592103 0.9653235250414557
10.2672890625 0.5728859072331453 0.9610712401918503
10.2684375 0.5691095864621969 0.956501598284259
10.2695859375 0.5710179796828694 0.958195774607854
10.270734375 0.5739080421937008 0.9557871525572437
10.2718828125 0.5704432949061657 0.9537378565839991
10.27303125 0.5692516841741784 0.9533966773813458
10.2741796875 0.5730523148153324 0.951069426270679
10.275328125 0.5688332771193125 0.9516428210327985
10.2764765625 0.5736221221780445 0.945942714369828
10.277625 0.5727054866244677 0.9460562979662552
10.2787734375 0.5656213448658867 0.9472130989822035
10.279921875 0.5603160941521453 0.9499018273320724
10.2810703125 0.5613021321527658 0.9527276750904035
10.28221875 0.5579198527510534 0.9536016252278086
10.2833671875 0.5612194820276794 0.9587030267667872
10.284515625 0.557066307054497 0.9623787562318808
10.2856640625 0.5575734054493058 0.9666565689014186
10.2868125 0.5555158989494837 0.9706409431924425
10.2879609375 0.5583817230370873 0.9736134868778057
10.289109375 0.5615167146768145 0.9805267947833627
10.2902578125 0.5653857930936321 0.9852638697070936
10.29140625 0.566235214715901 0.9893518583502289
10.2925546875 0.5652685561275244 0.9927473337963008
10.293703125 0.5679037801315256 0.9924338483115835
10.2948515625 0.5735439306246053 0.9989140986551346
10.296 0.5784565970416816 1.0058363464487579
10.2971484375 0.5791247025295483 1.0097319237693596
10.298296875 0.5831126239135174 1.0140606572328048
10.2994453125 0.5871389884502841 1.020836483916584
10.30059375 0.5902744367122343 1.019447207227344
10.3017421875 0.5912868953182027 1.0280777672215582
10.302890625 0.596964106623654 1.0354376154470186
10.3040390625 0.6025801781462863 1.04300823561659
10.3051875 0.6108308768575375 1.055357911976054
10.3063359375 0.6257941036044261 1.0615154234230741
10.307484375 0.6400431698286846 1.0589707536030564
10.3086328125 0.6546716089663445 1.0673416366890367
10.30978125 0.6717062790287703 1.0636731757974673
10.3109296875 0.682666461280844 1.0646157478798408
10.312078125 0.6962678977275699 1.0605193570006968
10.3132265625 0.7087132565365111 1.0540491622002564
10.314375 0.7260162580988463 1.045052798810176
10.3155234375 0.7362219924905447 1.0314891314115435
10.316671875 0.7385904221205384 1.0151957958622233
10.3178203125 0.7420099421174938 1.002378214770038
10.31896875 0.734679170613922 0.9920783202577209
10.3201171875 0.7257647052236768 0.992476054903085
10.321265625 0.7215546729053649 0.9934715756616697
10.3224140625 0.7293266490162789 0.9998310221164223
10.3235625 0.7325639975348655 1.0032999272004521
10.3247109375 0.7388446845254312 0.9990593565430437
10.325859375 0.7493189576952197 1.0001941919267012
10.3270078125 0.7550510179115106 0.9962633502539135
10.32815625 0.7604164358052097 0.9907108236990951
10.3293046875 0.7651028584377084 0.9805574757197388
10.330453125 0.7792503395425882 0.9691555606187083
10.3316015625 0.776160851202478 0.9619847247289871
10.33275 0.7726275450332653 0.950289398205338
10.3338984375 0.7696929193920229 0.9491188157077464
10.335046875 0.7722590393674592 0.9446439014686449
10.3361953125 0.7753434767621221 0.9356567647930241
10.33734375 0.7760630320026911 0.9263643755681267
10.3384921875 0.7790227366599201 0.9190888407804652
10.339640625 0.7770156097181973 0.9063286113994871
10.3407890625 0.7699059502518685 0.9005531487221503
10.3419375 0.761190837340342 0.8978071997552004
10.3430859375 0.7550736000562565 0.8962722327382728
10.344234375 0.7490726868160646 0.8937791662684815
10.3453828125 0.7493433724847887 0.9007220099139722
10.34653125 0.7538301512791559 0.9016006443417187
10.3476796875 0.7597084272281428 0.8942530686719178
10.348828125 0.7647664772366434 0.8857997329223266
10.3499765625 0.761477789230555 0.8763315328816716
10.351125 0.7629669107886462 0.8727896178439267
10.3522734375 0.7577381132003183 0.867567054289635
10.353421875 0.7574299328020292 0.8618179471426046
10.3545703125 0.7539053701149385 0.8611139651271693
10.35571875 0.7497890615433036 0.8553614155941132
10.3568671875 0.7532022317917304 0.8533581045734815
10.358015625 0.7502803986258381 0.8452589547660496
10.3591640625 0.7453521463439674 0.8414675049057745
10.3603125 0.7395020871846143 0.8343594459187493
10.3614609375 0.7340332961467556 0.8322971002641899
10.362609375 0.7275278880890174 0.8353140808415289
10.3637578125 0.7276827832020628 0.8307435479687388
10.36490625 0.7282981545062458 0.8346809344437187
10.3660546875 0.7275010094510237 0.8362431617417067
10.367203125 0.7284659466873974 0.8329903404692003
10.3683515625 0.7372534576941311 0.8317042315415026
10.3695 0.7364437474441315 0.8236910133226714
10.3706484375 0.731146037909427 0.8191208787761748
10.371796875 0.7353405854464271 0.8179135640181068
10.3729453125 0.7259004182350981 0.8136200476855644
10.37409375 0.7288890165913822 0.8168337248520736
10.3752421875 0.7294814045861991 0.8122577306819069
10.376390625 0.729218310918657 0.8069933097622674
10.3775390625 0.7270876357391307 0.8042153311656656
10.3786875 0.7210399912792175 0.8025641999219043
10.3798359375 0.7222133338046425 0.8040087204154761
10.380984375 0.717372856090655 0.8020905021493119
10.3821328125 0.7144974329371513 0.8018356702196092
10.38328125 0.7170211318234031 0.799069099869016
10.3844296875 0.717695736005205 0.7987874560074494
10.385578125 0.7163971366475455 0.8025667500827237
10.3867265625 0.7160022642621854 0.7998724343814432
10.387875 0.7188822419659877 0.8018535789180401
10.3890234375 0.7157309029485543 0.7982635809674079
10.390171875 0.7162844672419829 0.7965169237339313
10.3913203125 0.7165091177866743 0.8010343097577735
10.39246875 0.7213243313755804 0.7995875193249983
10.3936171875 0.7146472897311927 0.7997854165933286
10.394765625 0.7195038590818671 0.7938958258379416
10.3959140625 0.7190331453756253 0.7894382012446082
10.3970625 0.7165644397870189 0.7914962783496597
10.3982109375 0.7135945292621608 0.7904347459168971
10.399359375 0.715689862030413 0.7910021356916322
10.4005078125 0.7176545685424685 0.7894172971612632
10.40165625 0.7134813452496367 0.7869625477614504
10.4028046875 0.709348304723441 0.785851798983076
10.403953125 0.7089923584936128 0.7878814351082932
10.4051015625 0.7088492378565292 0.7866797502865982
10.40625 0.7101430814643179 0.7845117161526838
10.4073984375 0.7070711813276824 0.7805751276188868
10.408546875 0.7098852204486389 0.782495088278699
10.4096953125 0.7048533614803685 0.778361791675781
10.41084375 0.7029492227951217 0.7825265252052968
10.4119921875 0.703951591432271 0.7840256342876236
10.413140625 0.7052871228342638 0.7843203863891107
10.4142890625 0.7013563624719472 0.7808216669329971
10.4154375 0.7005901560486569 0.7837237829212219
10.4165859375 0.7015788471209055 0.7873477595602472
10.417734375 0.7032759603696435 0.7819964171825808
10.4188828125 0.6980234762195796 0.7828473098394878
10.42003125 0.6990517087194956 0.7804632480068572
10.4211796875 0.6974114626045446 0.7851898107012157
10.422328125 0.7007287720663583 0.7839135684345736
10.4234765625 0.6973664681567409 0.7879433099999905
10.424625 0.7010418861852377 0.7917769806126124
10.4257734375 0.7068759060864133 0.7855205747009235
10.426921875 0.7075983449387446 0.7864137929608582
10.4280703125 0.709692992114374 0.7870892564097698
10.42921875 0.7103986384284154 0.7860746537023486
10.4303671875 0.711500905074174 0.7887844423052801
10.431515625 0.710829896358997 0.7788747468295404
10.4326640625 0.7141990636891329 0.7785304504195415
10.4338125 0.7164859434408899 0.7776912351575591
10.4349609375 0.7173119887730179 0.7763272033217983
10.436109375 0.7234404406155284 0.7739353360048213
10.4372578125 0.7265858215605243 0.7700221927339261
10.43840625 0.7284353794129734 0.7687417724384158
10.4395546875 0.7300962336491912 0.769882753707061
10.440703125 0.731533856002351 0.7589062646710286
10.4418515625 0.7349180082487993 0.7594102225673646
10.443 0.741576934898887 0.7593451683111789
10.4441484375 0.7403743987935765 0.7504028198746837
10.445296875 0.7432068960918711 0.7446454393754783
10.4464453125 0.7463433121309674 0.736769149792078
10.44759375 0.746088239181687 0.734513888821273
10.4487421875 0.7437507161538413 0.7329316134037485
10.449890625 0.7462116018724076 0.7268730232833609
10.4510390625 0.7458618318390628 0.7236524661259123
10.4521875 0.7468142284332112 0.72279794556738
10.4533359375 0.7472014778669438 0.7209675317437378
10.454484375 0.7501955562576703 0.7149253079815723
10.4556328125 0.7556847601183401 0.7130325774713546
10.45678125 0.7609609763115743 0.7127135708029341
10.4579296875 0.7688044463459146 0.7089587105347546
10.459078125 0.7780672304937521 0.7034526158010206
10.4602265625 0.7786798475824686 0.7001445724113662
10.461375 0.785973761439652 0.6921268750760505
10.4625234375 0.7956413127476343 0.6869519821582424
10.463671875 0.7999728556025981 0.6741135140877677
10.4648203125 0.8124245107728639 0.6612101625732645
10.46596875 0.8165766518697982 0.6453500191474517
10.4671171875 0.8222070007551182 0.6257047352429008
10.468265625 0.8236466998146339 0.6089811429043861
10.4694140625 0.826157258014641 0.5947196065258573
10.4705625 0.8200763552600052 0.5778458890595394
10.4717109375 0.8193664962145093 0.5581946973162017
10.472859375 0.8159361389319884 0.534400829860745
10.4740078125 0.8062022982985082 0.5156762226568831
10.47515625 0.7951435533474698 0.49691029526853714
10.4763046875 0.7836250792002297 0.478865187729864
10.477453125 0.7666417096325577 0.4625709825270777
10.4786015625 0.7572040416153891 0.4443643304536232
10.47975 0.7391230475465361 0.4325412972365331
10.4808984375 0.7175799362230589 0.4151166228830533
10.482046875 0.698625159104146 0.4038275972970603
10.4831953125 0.677331219807594 0.3968374124153891
10.48434375 0.6591017661697784 0.384238340902778
10.4854921875 0.6455012456399492 0.37326643036438245
10.486640625 0.6313373191326568 0.3665529212558357
10.4877890625 0.6064617116350042 0.35170172096881286
10.4889375 0.5822460273614847 0.34255778948441
10.4900859375 0.5527463390245648 0.33506457100268955
10.491234375 0.525455194717574 0.32661395532264775
10.4923828125 0.49642652040597435 0.3274889522758123
10.49353125 0.4630135691571047 0.33047956134893874
10.4946796875 0.43591738247472395 0.332928032750011
10.495828125 0.4049094516167161 0.33617447400253
10.4969765625 0.3772360111755043 0.34042224379338587
10.498125 0.3414567259724073 0.3504391384391757
10.4992734375 0.3085740857376208 0.3613591812662996
10.500421875 0.2805077480188963 0.38008196921329457
10.5015703125 0.25560797740290897 0.39749051447562667
10.50271875 0.23025452400869761 0.4162248097988675
10.5038671875 0.20918390094098396 0.43563337980854666
10.505015625 0.18199767966429023 0.4588362053477317
10.5061640625 0.15821644508129667 0.4817385232889075
10.5073125 0.1385581297921346 0.5096480660387327
10.5084609375 0.11714131215455795 0.5400344024988915
10.509609375 0.10792063442899674 0.5722021200987211
10.5107578125 0.09491242287312866 0.6146931047461038
10.51190625 0.08916759722807258 0.6481424837893033
10.5130546875 0.08907133002265656 0.6809677380511374
10.514203125 0.09106389138317937 0.7189184904648132
10.5153515625 0.10604104866581857 0.7458333391501788
10.5165 0.11620079861271095 0.774135518726491
10.5176484375 0.12986818247268198 0.7930193716370904
10.518796875 0.1402137251819338 0.8098835300863707
10.5199453125 0.1483706309980759 0.8255331093253091
10.52109375 0.15698352153578357 0.8425402367741078
10.5222421875 0.16110803040943805 0.8650805849026062
10.523390625 0.17501436602766068 0.8873272387471943
10.5245390625 0.19897369497200512 0.9042092414329024
10.5256875 0.21311481585349698 0.9147224482319272
10.5268359375 0.2340919932460755 0.9286818086299597
10.527984375 0.24099651629205293 0.9330230918586178
10.5291328125 0.2517352291817614 0.9427504272964727
10.53028125 0.2660440887326768 0.9517909482901599
10.5314296875 0.2724090275372781 0.9618556428113578
10.532578125 0.28639141287423847 0.964380430766073
10.5337265625 0.2976429152633283 0.9805944504462105
10.534875 0.30859891858956834 0.9845916475867551
10.5360234375 0.332616924523253 0.9888633033108172
10.537171875 0.3404073174771635 0.9880943867600733
10.5383203125 0.34492738231287146 0.9852860555294513
10.53946875 0.3514653290700738 0.9899807555871643
10.5406171875 0.35635638606048536 0.9979147121176993
10.541765625 0.3616892360823436 1.0082990272511112
10.5429140625 0.37187950173457074 1.0176225446523892
10.5440625 0.390544864726739 1.0195048407155993
10.5452109375 0.3992088408011896 1.0204670776999045
10.546359375 0.40679562932352525 1.021726366477287
10.5475078125 0.41738300585130894 1.0304527092985922
10.54865625 0.42460743939108875 1.0335496459180018
10.5498046875 0.4413688442635688 1.0360533840937207
10.550953125 0.45395504089336886 1.040832347708383
10.5521015625 0.46825777091202214 1.0408043534365476
10.55325 0.4756823997922398 1.0449943219960176
10.5543984375 0.48482759223579064 1.040918155856861
10.555546875 0.49529535432021093 1.0412313383238128
10.5566953125 0.5125724842152322 1.0439583695624945
10.55784375 0.5211750641144777 1.0477474915031304
10.5589921875 0.530486981911731 1.0502916326808653
10.560140625 0.5513652477842079 1.0441834563522858
10.5612890625 0.5600807453667003 1.0310358812584905
10.5624375 0.5691135572232964 1.0200037331891334
10.5635859375 0.5637177088526995 1.0117686693906867
10.564734375 0.5634739992191222 1.0128983115468482
10.5658828125 0.5646634793768196 1.0244478585056414
10.56703125 0.5681927913908461 1.0263515573171524
10.5681796875 0.5807969770165743 1.0326572875523619
10.569328125 0.5952806255907221 1.0356308025888386
10.5704765625 0.6081255242053265 1.039382614986133
10.571625 0.6294314822980492 1.0318531765600802
10.5727734375 0.6320265415266401 1.0246086651843438
10.573921875 0.647512533427596 1.0099693580380718
10.5750703125 0.6604411234629015 1.006932231254016
10.57621875 0.6696912255649295 0.9973236438880648
10.5773671875 0.675944231464917 0.9785963662697688
10.578515625 0.6820910402618454 0.9657395478990932
10.5796640625 0.6896815590199183 0.9496249190088225
10.5808125 0.6943256568068645 0.9391164063751957
10.5819609375 0.686242556270269 0.9237541070049466
10.583109375 0.6741491900908314 0.9082779205248794
10.5842578125 0.6534150735276387 0.9068879617696239
10.58540625 0.6502065447499935 0.9093048671323087
10.5865546875 0.6480602048683985 0.9176512045041247
10.587703125 0.645887814383269 0.9185305390961992
10.5888515625 0.6484454612787566 0.9137723614693967
10.59 0.6572393502885849 0.9079025523850979
10.5911484375 0.660399481050165 0.8937978735322731
10.592296875 0.6630896024244621 0.8809338495516859
10.5934453125 0.6546350441786087 0.8831549277602512
10.59459375 0.6466653559392557 0.8820965030752193
10.5957421875 0.6405265596115413 0.8880684827525388
10.596890625 0.6423715842393123 0.8878760338594028
10.5980390625 0.6444886936128735 0.8858861712912328
10.5991875 0.6479835274351328 0.884210335055094
10.6003359375 0.6504845907616752 0.8817673161556338
10.601484375 0.6492180108176189 0.8799210857386144
10.6026328125 0.6499923034142643 0.8768265134992526
10.60378125 0.650010774244675 0.8723817505286071
10.6049296875 0.6502411773658552 0.8727449306583708
10.606078125 0.6480606726695125 0.8737013925626494
10.6072265625 0.6504820690042405 0.8768608180142634
10.608375 0.6546335133350011 0.8679594723286506
10.6095234375 0.662731312934618 0.8665645209284819
10.610671875 0.6591703136675772 0.8549946808495488
10.6118203125 0.6604727969123753 0.8555340935403912
10.61296875 0.6606454945387205 0.8487639700491806
10.6141171875 0.6573923341075966 0.8425744036601688
10.615265625 0.6548506102955316 0.8388782726707678
10.6164140625 0.6588425266811689 0.8322219599862848
10.6175625 0.6581579009453524 0.8262180836857635
10.6187109375 0.6576369686692112 0.8266222580093687
10.619859375 0.6487764265025175 0.8166436806755416
10.6210078125 0.6507031041336289 0.8134577651047608
10.62215625 0.6415301698537144 0.8103869074644585
10.6233046875 0.6394823692846332 0.8124528391106753
10.624453125 0.6362572048920789 0.8138712096948877
10.6256015625 0.6336790139537263 0.8142635696175556
10.62675 0.6315598413085707 0.8152834314496262
10.6278984375 0.6354085931952524 0.8160330029061458
10.629046875 0.6371400396911038 0.8174908797988608
10.6301953125 0.6359037835721757 0.8179664982718997
10.63134375 0.6419749241902033 0.814154269793424
10.6324921875 0.6398101229197546 0.8098384288133638
10.633640625 0.6403047380073531 0.8058011161265491
10.6347890625 0.6338984319972626 0.803300011722161
10.6359375 0.6339055267321778 0.8116070166947253
10.6370859375 0.6368358630992612 0.8121228533347622
10.638234375 0.6373381973658219 0.8086700763332572
10.6393828125 0.63532704707654 0.8050848096753429
10.64053125 0.63449783569329 0.8007825647029689
10.6416796875 0.6334473280446382 0.8043198161704311
10.642828125 0.6295876015333324 0.803626911855733
10.6439765625 0.6367847890797323 0.8012944640658672
10.645125 0.6373252331959682 0.7983707412766359
10.6462734375 0.6392481457746488 0.7914950311196917
10.647421875 0.633803159362168 0.7895134347122471
10.6485703125 0.6265801831728931 0.7827382026243274
10.64971875 0.6190688138373382 0.7852368452623513
10.6508671875 0.6060342312035566 0.7861150029456745
10.652015625 0.6099194007828894 0.7913185062759671
10.6531640625 0.6018999508662588 0.7922595231943437
10.6543125 0.5977940187209554 0.7954013518409625
10.6554609375 0.6068940551326243 0.7997877441755771
10.656609375 0.5968715886353637 0.8044591744046503
10.6577578125 0.6016291897775716 0.8027168447632014
10.65890625 0.597941102027409 0.8015444434357732
10.6600546875 0.5873311537230508 0.8036819149592469
10.661203125 0.5826323790125244 0.8101736757432914
10.6623515625 0.5792554069764982 0.8216432217394414
10.6635 0.5798711875164424 0.8233641637364186
10.6646484375 0.5852192744084639 0.8310658121927174
10.665796875 0.5837938820862008 0.834885754264741
10.6669453125 0.5863969179963021 0.8373221698255724
10.66809375 0.5873001063891842 0.8390657967361893
10.6692421875 0.5898942416378005 0.8405241082169548
10.670390625 0.5922535559261921 0.8460723992793666
10.6715390625 0.5899764070469428 0.8499505218547496
10.6726875 0.5926897056887269 0.8526974343116666
10.6738359375 0.5984328124278984 0.8542980539821703
10.674984375 0.5986729073628799 0.8519844280189462
10.6761328125 0.5970360562482508 0.8494129084528248
10.67728125 0.5992307207847066 0.8540254501036042
10.6784296875 0.6002512013383438 0.8578302366550117
10.679578125 0.6039644210771425 0.8565824327066138
10.6807265625 0.6080330343260028 0.8558078755784979
10.681875 0.6099223805295129 0.8563026603439083
10.6830234375 0.612419332007392 0.8585154072441465
10.684171875 0.613379784234735 0.863506979718081
10.6853203125 0.6162919984930038 0.865514239731732
10.68646875 0.6185240394846636 0.8688332875132059
10.6876171875 0.625652155005841 0.8605143026500022
10.688765625 0.6300171439082288 0.865625682489992
10.6899140625 0.633113849886177 0.8639886638441616
10.6910625 0.6334575634475503 0.8591916098618855
10.6922109375 0.6386205760097925 0.8591923223581597
10.693359375 0.6418421674934626 0.8494128969372957
10.6945078125 0.6428560100659821 0.8508918491957922
10.69565625 0.6477541129403772 0.8467305635356479
10.6968046875 0.6515143817466744 0.8459626993928933
10.697953125 0.6553148291556752 0.8441301547672753
10.6991015625 0.6602999738953733 0.8389531581978901
10.70025 0.6567999002885092 0.8349545478548347
10.7013984375 0.6559451365549899 0.8380932977854879
10.702546875 0.6567074736265279 0.8376077404092551
10.7036953125 0.6575647332104526 0.8316254347847717
10.70484375 0.663801313683757 0.830456462721271
10.7059921875 0.6627126493796831 0.8253649975708479
10.707140625 0.6647340070572048 0.8283059470522023
10.7082890625 0.6668219598733547 0.8253902007562657
10.7094375 0.6613559959226559 0.8215534476480931
10.7105859375 0.6626039033619886 0.8173202437198929
10.711734375 0.6640515263661391 0.8176714306745122
10.7128828125 0.6629240328265684 0.8163667187593426
10.71403125 0.6596906046043957 0.8181769120795763
10.7151796875 0.6585260956324551 0.8189927875191166
10.716328125 0.6685296531713303 0.8183366804030902
10.7174765625 0.6650709480247826 0.8133305303968894
10.718625 0.663807585046255 0.8149384047781194
10.7197734375 0.6625297741109847 0.8187082288931735
10.720921875 0.6671838636207972 0.8130520852569768
10.7220703125 0.667953489794525 0.8124055336670195
10.72321875 0.6704562262786677 0.8080467179661441
10.7243671875 0.6694744095346649 0.8110773576026655
10.725515625 0.667938091813075 0.8094420674970138
10.7266640625 0.666722458373596 0.8057211797666322
10.7278125 0.6695019297042761 0.798998084752232
10.7289609375 0.6715853347828455 0.793022641753322
10.730109375 0.6637869144044524 0.798542124738585
10.7312578125 0.6643085147246583 0.7913482557165266
10.73240625 0.6610214770328681 0.7930128716986867
10.7335546875 0.6548875262094923 0.800197477048482
10.734703125 0.6565017874808106 0.7999933550795558
10.7358515625 0.6549507587903152 0.7961726327355585
10.737 0.6497160730586113 0.7992660328645188
10.7381484375 0.6496867226510212 0.7949737441164672
10.739296875 0.646933789246776 0.798267859285706
10.7404453125 0.6466590568162788 0.8027456967038635
10.74159375 0.6515443277258522 0.804667762710545
10.7427421875 0.6570025724712676 0.8040538880247616
10.743890625 0.6549357789245099 0.8038013263465387
10.7450390625 0.6565391414364858 0.7987596563180186
10.7461875 0.6514346452412041 0.7917796686146023
10.7473359375 0.6550399190494309 0.78949570629545
10.748484375 0.6521865074698755 0.7923462543395061
10.7496328125 0.6429506180571422 0.7918665534140035
10.75078125 0.6416552910202733 0.789804395489154
10.7519296875 0.6386601047003951 0.788679302090996
10.753078125 0.6392340124557739 0.7896903139203306
10.7542265625 0.6349205497190314 0.7944922287910723
10.755375 0.6362633448849109 0.7961878009196417
10.7565234375 0.633351452535425 0.7907239391649151
10.757671875 0.6261234031044474 0.7964858105848833
10.7588203125 0.6254384042920124 0.7909744293863392
10.75996875 0.6263853964019184 0.7956491431030086
10.7611171875 0.6281256339528932 0.7958980597093327
10.762265625 0.6257295216437828 0.7981790790424823
10.7634140625 0.6214741343265878 0.7907509298987403
10.7645625 0.6227413044063891 0.7940933300115223
10.7657109375 0.6174418192712615 0.7932522990793266
10.766859375 0.6176666126305619 0.7951031619031744
10.7680078125 0.6150969468495264 0.8018125994968106
10.76915625 0.6142198860972362 0.7984116097624397
10.7703046875 0.6193387312521771 0.7955520928053263
10.771453125 0.6222753457261947 0.8021829705313849
10.7726015625 0.6211795805637396 0.7997676504173864
10.77375 0.6203119216153329 0.8006642841794593
10.7748984375 0.6219929654355308 0.8041649213029416
10.776046875 0.6203823320909374 0.8005135932669698
10.7771953125 0.6223624021392583 0.8045474961413858
10.77834375 0.6268181188840563 0.8070232745092372
10.7794921875 0.6201917567761442 0.8069647868207186
10.780640625 0.6246226223032679 0.8067448427331662
10.7817890625 0.6288361064639433 0.8103645555904448
10.7829375 0.6323686674143727 0.8091515265044167
10.7840859375 0.6362306146801545 0.807714181881854
10.785234375 0.6378664486152712 0.8045939394258479
10.7863828125 0.6376099774469373 0.802308974333003
10.78753125 0.6397894045451116 0.7970371138525132
10.7886796875 0.6391696091485501 0.793415833824163
10.789828125 0.6389845647414595 0.7944448741149157
10.7909765625 0.6384740960434321 0.7993979030215329
10.792125 0.6369578163257288 0.804484047355279
10.7932734375 0.640779120433074 0.8056412224930766
10.794421875 0.6488922582655805 0.8093655483811331
10.7955703125 0.648569324970869 0.8037534261557139
10.79671875 0.6565536824398638 0.8019124576706026
10.7978671875 0.6526419543837256 0.8017993967290242
10.799015625 0.6548504968459377 0.7966280193763164
10.8001640625 0.6554899119163279 0.7944113793182103
10.8013125 0.6522078723495877 0.7973093608346064
10.8024609375 0.6531839349722501 0.799684873752908
10.803609375 0.6518992191265381 0.8034467510055323
10.8047578125 0.6499647669145517 0.8042284946110684
10.80590625 0.6493554913595028 0.8013105651157552
10.8070546875 0.6496467000697603 0.8016030199230482
10.808203125 0.6524721189961478 0.7982025444994483
10.8093515625 0.6494719383413634 0.8050104588820589
10.8105 0.6458886113385294 0.8074298633087769
10.8116484375 0.65422859446244 0.8108833499557095
10.812796875 0.6591122307218278 0.8074602964290538
10.8139453125 0.6595973162677916 0.8130041861684126
10.81509375 0.6575114612694499 0.8151146828147762
10.8162421875 0.6679133672204763 0.8107663290743929
10.817390625 0.6615184196600191 0.8082417188440157
10.8185390625 0.6636739840928547 0.8113792390042296
10.8196875 0.6597392190894851 0.8130317950284388
10.8208359375 0.6650956913886672 0.8168421751244663
10.821984375 0.6681959962543311 0.8184023199101186
10.8231328125 0.6691763735263578 0.8224706586966652
10.82428125 0.6716282273199139 0.820973371104491
10.8254296875 0.6728620892878607 0.8254243284583447
10.826578125 0.6738894520555043 0.8272791432475075
10.8277265625 0.6818550040563791 0.8277343290991871
10.828875 0.6713504421019368 0.8289527991601179
10.8300234375 0.6836749403315533 0.814505884659642
10.831171875 0.6825509487224851 0.8217614996129646
10.8323203125 0.6849206699527484 0.8154513621673476
10.83346875 0.6842469806314336 0.8111585181723924
10.8346171875 0.6876619874456902 0.8104319308471257
10.835765625 0.688098360768054 0.8041849962944224
10.8369140625 0.6900172060898455 0.8090755889754158
10.8380625 0.6873354268253714 0.8065919989041287
10.8392109375 0.6863933815810359 0.8080690116576607
10.840359375 0.6873668314337145 0.8071433039227924
10.8415078125 0.6861852198394603 0.80463613579933
10.84265625 0.688096837181326 0.8056681908059733
10.8438046875 0.6869381628200552 0.8017006078957519
10.844953125 0.6876128786067368 0.8035391835273139
10.8461015625 0.6853729556102568 0.7991007250203102
10.84725 0.6845038945520274 0.7972795981983679
10.8483984375 0.6895724372470358 0.7923730962358433
10.849546875 0.6876791030737496 0.7952134332690224
10.8506953125 0.6843869091776591 0.7945786251857104
10.85184375 0.6824041077581782 0.7907853692865787
10.8529921875 0.6879873840414014 0.7901437330926464
10.854140625 0.6885340247895244 0.7847522351645907
10.8552890625 0.6884704152425634 0.7796108998711866
10.8564375 0.6844500920283694 0.7788829363732228
10.8575859375 0.6850002904264982 0.7789161249367068
10.858734375 0.6802399928346258 0.7771218546470717
10.8598828125 0.6782919824315713 0.7757802045015749
10.86103125 0.6725302146118561 0.7751111368527551
10.8621796875 0.6699399776679661 0.7800928815272199
10.863328125 0.6749445995156502 0.7821811289248253
10.8644765625 0.6714548606959261 0.781416553577586
10.865625 0.6707957724324265 0.7745343740057149
10.8667734375 0.6661542727943564 0.7748021045958993
10.867921875 0.6707006753817837 0.775747322627737
10.8690703125 0.6671899738820115 0.778437495839319
10.87021875 0.6688843617398066 0.7804771315181833
10.8713671875 0.6712030223095302 0.7770246480929274
10.872515625 0.6717196885544633 0.7830359281906173
10.8736640625 0.6729807538819305 0.7834831227178726
10.8748125 0.6762874299357159 0.7849366801014439
10.8759609375 0.6745599994408605 0.7814711063129508
10.877109375 0.6727738817056018 0.782770712937024
10.8782578125 0.6753076622131078 0.7815479273657931
10.87940625 0.6788281284218894 0.7769818595003128
10.8805546875 0.6816761102139095 0.7778656822182982
10.881703125 0.678166746503687 0.7784370238300271
10.8828515625 0.6794861963710583 0.7813391835598584
10.884 0.6825151028296382 0.7840405483285324
10.8851484375 0.6815926109842697 0.7821260900174836
10.886296875 0.6810859574807353 0.7792335667499403
10.8874453125 0.6844576456214326 0.7829471448420768
10.88859375 0.6834272336109215 0.7847370305458782
10.8897421875 0.6840521212508253 0.7831768564944457
10.890890625 0.6882053279298858 0.7842822998836186
10.8920390625 0.6861757982445854 0.787772783351927
10.8931875 0.6865592725883549 0.782892025215914
10.8943359375 0.6854980223095498 0.7829186558771103
10.895484375 0.6906435988025112 0.7835294957907457
10.8966328125 0.691920290196747 0.7819880814632519
10.89778125 0.6946443915990375 0.7765512460594348
10.8989296875 0.692036219163849 0.7802423246328076
10.900078125 0.6925351613190263 0.7779012708296048
10.9012265625 0.6939385483815761 0.7728858420214558
10.902375 0.6949205400338541 0.7755078977365701
10.9035234375 0.6901261840518709 0.7788204042710943
10.904671875 0.6945183725405559 0.7715417877016406
10.9058203125 0.698220911144394 0.7731882812934061
10.90696875 0.6985191813153319 0.7698642654216196
10.9081171875 0.6934393942342503 0.7659905105922913
10.909265625 0.6950641191125674 0.7705036224479953
10.9104140625 0.6959458411412545 0.7751834490326653
10.9115625 0.6924757811178891 0.7758257129434096
10.9127109375 0.6899125472748466 0.7764691800064768
10.913859375 0.692867584251713 0.7700515933754308
10.9150078125 0.696469418499049 0.7737909061557474
10.91615625 0.6958054349633704 0.7745485663161714
10.9173046875 0.6937995364673386 0.7719696467376171
10.918453125 0.6941333513693124 0.7715683998259504
10.9196015625 0.6959056291066883 0.7708382205300106
10.92075 0.7007129482870537 0.7717769977820709
10.9218984375 0.6996031519425889 0.7661417568766362
10.923046875 0.698053979868438 0.7689661606744912
10.9241953125 0.6969785597631549 0.7640260662793024
10.92534375 0.6979436463036686 0.7601684906695644
10.9264921875 0.6988907536797776 0.7642091638487137
10.927640625 0.697678236878708 0.758656976039166
10.9287890625 0.6985586078075857 0.7606895016984764
10.9299375 0.6998796558496512 0.7557082127275685
10.9310859375 0.6972284759658673 0.7562505513476568
10.932234375 0.6953117448868635 0.7576448400864844
10.9333828125 0.6957541785325079 0.7559404548485611
10.93453125 0.6953395022654238 0.7556921539881863
10.9356796875 0.6981127091430868 0.7592138166034409
10.936828125 0.6996518895057793 0.7565641250434018
10.9379765625 0.7021241578149321 0.7496526575680454
10.939125 0.7014857696190573 0.7518149893421844
10.9402734375 0.7032260080045547 0.7499720438884122
10.941421875 0.7022106302034974 0.7485041307220411
10.9425703125 0.7044933841086909 0.7430724920825239
10.94371875 0.7029139955272024 0.7440855006327961
10.9448671875 0.7062519196292288 0.7457211435287737
10.946015625 0.7038633906065077 0.7382039170005515
10.9471640625 0.7023714870182622 0.7395381468171617
10.9483125 0.694230710892995 0.7408799125980061
10.9494609375 0.7020978831487933 0.7383987704108638
10.950609375 0.7040882353680321 0.7432457926183345
10.9517578125 0.7056994610410684 0.7424006837562449
10.95290625 0.7037814533751013 0.7468679906749863
10.9540546875 0.703367455716086 0.7422267965297502
10.955203125 0.7094435554834968 0.7353287701184912
10.9563515625 0.7006546305593415 0.7341888737762136
10.9575 0.7055187208154716 0.7351496264934629
10.9586484375 0.703745024481276 0.7309910300037624
10.959796875 0.701866344608743 0.7331878292238554
10.9609453125 0.7026311080011869 0.7295956486718634
10.96209375 0.7033930187276414 0.733166548933933
10.9632421875 0.7024753921929618 0.7279672175535608
10.964390625 0.6997937484574879 0.7302815005220515
10.9655390625 0.694427529387505 0.731958369942556
10.9666875 0.6991588301878646 0.7211962557912975
10.9678359375 0.6955039322430614 0.7261719541729094
10.968984375 0.6871315426121314 0.7276926761825743
10.9701328125 0.6855022365173339 0.7336463656466036
10.97128125 0.6904944458002678 0.7333601630408066
10.9724296875 0.690615823014804 0.7290791136256759
10.973578125 0.697140685460617 0.7386388997638753
10.9747265625 0.6910635842294135 0.7342307122373762
10.975875 0.6912594849283322 0.7328657408679774
10.9770234375 0.6891072381588579 0.7335223319709455
10.978171875 0.691148513778723 0.7384354419261967
10.9793203125 0.6887172191749582 0.7367874841591047
10.98046875 0.6880458629955698 0.7322503536154996
10.9816171875 0.6871574397114522 0.7371026395840702
10.982765625 0.6848661314338877 0.7393158052632197
10.9839140625 0.6877785718949248 0.7407300912270331
10.9850625 0.6822407846036443 0.735302948517079
10.9862109375 0.6858726435450426 0.7368918477928031
10.987359375 0.6853776363435967 0.734330770076322
10.9885078125 0.6848602887822212 0.7428907010892718
10.98965625 0.6849117202336474 0.7425654939256836
10.9908046875 0.6841693786206069 0.7413006183502342
10.991953125 0.6849971201154961 0.741334757388767
10.9931015625 0.682819958100477 0.7467761308143557
10.99425 0.6786391597682682 0.7455883950946798
10.9953984375 0.6804781889301104 0.7473997949011536
10.996546875 0.6839044581469536 0.7483101957275744
10.9976953125 0.6834045837294616 0.7476546037243359
10.99884375 0.6804407375771404 0.7492304787780985
10.9999921875 0.6816343569618131 0.7457499451034627
11.001140625 0.6817388377697501 0.746074896296673
11.0022890625 0.6803685300543806 0.7476472332072411
11.0034375 0.679250909221786 0.7474990950236241
11.0045859375 0.6831196683846815 0.7483850323976011
11.005734375 0.682083155052694 0.75034226551119
11.0068828125 0.6835708248658119 0.7504609373354005
11.00803125 0.6824147850381771 0.7465603296498922
11.0091796875 0.6874570222272977 0.7482728245711523
11.010328125 0.6859021988083533 0.7484147593837649
11.0114765625 0.6844097362500767 0.7463260851056188
11.012625 0.687234428473664 0.7479324130978331
11.0137734375 0.6885410856274339 0.7489522082917706
11.014921875 0.6866494411645622 0.7457226323042916
11.0160703125 0.6887774620994438 0.7500715984473847
11.01721875 0.690061313462625 0.7491047409072761
11.0183671875 0.6917763504014254 0.7508807891295644
11.019515625 0.6897682318151385 0.7495072341332312
11.0206640625 0.6928595851598127 0.7459095202852439
11.0218125 0.6978840248831903 0.7458161542892711
11.0229609375 0.697746185314218 0.7469871297003001
11.024109375 0.6975807282986409 0.7458894602934184
11.0252578125 0.6962057410419075 0.7432248423423653
11.02640625 0.6954000796946588 0.7367677749359414
11.0275546875 0.6950673219381376 0.7381475080619917
11.028703125 0.7015231056398769 0.7392514086630724
11.0298515625 0.6986512639729776 0.737655666209782
11.031 0.6988397754510993 0.7364250906100375
11.0321484375 0.6997427041540408 0.7357029044255683
11.033296875 0.6988405163398155 0.7357851359462702
11.0344453125 0.7014274860628699 0.7370510338129643
11.03559375 0.6971171263614373 0.7320158884314667
11.0367421875 0.7002455119097251 0.7327257727383578
11.037890625 0.7024456259194367 0.7261153627527408
11.0390390625 0.7006180316647712 0.7259842535721839
11.0401875 0.7017803540552896 0.7304135489534711
11.0413359375 0.7008716419006946 0.7325138450626975
11.042484375 0.706669398005316 0.7285145360970724
11.0436328125 0.704359868154719 0.7270709143382869
11.04478125 0.7110129020773743 0.7280499051526932
11.0459296875 0.7106167583415686 0.7232546730820388
11.047078125 0.7104205270256304 0.7252929080105125
11.0482265625 0.7120896155742389 0.7245015404870787
11.049375 0.7141635218799666 0.7229823528290373
11.0505234375 0.7139698853676739 0.7182351504972471
11.051671875 0.7100227626954876 0.7204377229802974
11.0528203125 0.716760094792209 0.7206994933083861
11.05396875 0.716331101178254 0.7190808487439888
11.0551171875 0.7101945117829777 0.7144512031074443
11.056265625 0.7116594541025416 0.7129405378813355
11.0574140625 0.7141673740307448 0.7172879821925988
11.0585625 0.7117503384224739 0.7204692062090243
11.0597109375 0.7131757124508502 0.7189926498290076
11.060859375 0.7141027679678819 0.7179217922418082
11.0620078125 0.714193956228335 0.7134122020625246
11.06315625 0.7118541723047197 0.7185138325869492
11.0643046875 0.7148974529578399 0.7207896542414562
11.065453125 0.7157073158433114 0.7174799027823657
11.0666015625 0.716781674671851 0.7128436118792392
11.06775 0.7133283883305861 0.7117398024187251
11.0688984375 0.711390954442555 0.7094882312373576
11.070046875 0.7119700998672752 0.7087429418024325
11.0711953125 0.7110095952757713 0.7102040564033691
11.07234375 0.712328191644569 0.7094425233336479
11.0734921875 0.7107621119998192 0.7076036194322751
11.074640625 0.7067534851164259 0.7101652844934034
11.0757890625 0.7072455747784714 0.7125688489303198
11.0769375 0.7055305357768034 0.7114894522231286
11.0780859375 0.7033746733454516 0.7144162387885751
11.079234375 0.7036828072184595 0.7102762892877768
11.0803828125 0.707846160810863 0.7133641762717162
11.08153125 0.7079413670033062 0.7125320286325625
11.0826796875 0.7049230713801731 0.7155946745817682
11.083828125 0.7069529410035119 0.7135793735483832
11.0849765625 0.7086445292122209 0.7097014205407155
11.086125 0.7049574986113015 0.7107411246788315
11.0872734375 0.7059932113717423 0.7113836595405352
11.088421875 0.7022490142043847 0.7094090659669761
11.0895703125 0.7035319844061565 0.7100410028690606
11.09071875 0.7025757591677579 0.7101955896002912
11.0918671875 0.6997779936069333 0.7065146747256839
11.093015625 0.7000238970721877 0.7062027237994845
11.0941640625 0.6961377757775526 0.7085096369586503
11.0953125 0.697813101816824 0.7101128201857152
11.0964609375 0.6994841608652003 0.7120210418752284
11.097609375 0.7006643406835247 0.7096605021303982
11.0987578125 0.6965288780371787 0.7143148498178994
11.09990625 0.6989997093863058 0.7151067038397225
11.1010546875 0.6996341185735675 0.7116701536469071
11.102203125 0.7000046588402976 0.7154841390397584
11.1033515625 0.7025599966275361 0.7117437737871448
11.1045 0.7070316385366884 0.7092189541618513
11.1056484375 0.7025626327575525 0.7116634015062204
11.106796875 0.7024775797322932 0.7106631338088067
11.1079453125 0.7048946025737641 0.7097010724012602
11.10909375 0.702180460555897 0.7062097378987575
11.1102421875 0.7044453303583498 0.7052363356261582
11.111390625 0.7020578062408306 0.7037645389115634
11.1125390625 0.7033328874468721 0.7073727922825086
11.1136875 0.7047400458181121 0.7050351227510032
11.1148359375 0.7058844510762681 0.7045522193319789
11.115984375 0.7028711570244505 0.7042956758856324
11.1171328125 0.7017419382407559 0.704090118878681
11.11828125 0.7018074336074833 0.7034009400263348
11.1194296875 0.7042569334600273 0.7015274102194583
11.120578125 0.7064719366708396 0.6985109880325601
11.1217265625 0.7055240219734564 0.7011755333177238
11.122875 0.7078031626682122 0.6991943132956978
11.1240234375 0.7086388371602117 0.6991026923736323
11.125171875 0.707435690531002 0.6991309655268528
11.1263203125 0.7049990335641246 0.698357803544031
11.12746875 0.7095131855340974 0.6930874100167564
11.1286171875 0.7055293134213284 0.6939742800355669
11.129765625 0.7069973509107881 0.6955672049064523
11.1309140625 0.7049160381317086 0.6920858695758022
11.1320625 0.7032981544246534 0.6929051054631472
11.1332109375 0.7054053779919045 0.6891602697565573
11.134359375 0.7026806108926306 0.6891921929406053
11.1355078125 0.7042501875205369 0.6898633937877483
11.13665625 0.7011507953843865 0.6905564271729455
11.1378046875 0.7008376863257121 0.6871078406897219
11.138953125 0.6978963601842418 0.6865736980487269
11.1401015625 0.6981906574261677 0.6899575675988345
11.14125 0.6938411501849415 0.6884139020044908
11.1423984375 0.6913186112578936 0.6855627290716796
11.143546875 0.6909269996759249 0.6901862697909775
11.1446953125 0.6888404186049671 0.6898272004992947
11.14584375 0.6877619916234577 0.6923495608051041
11.1469921875 0.6891795967382436 0.6929967671987829
11.148140625 0.6888519346005408 0.6921714554778462
11.1492890625 0.6861496947035466 0.6925440381751391
11.1504375 0.6874484638579186 0.6912324380665374
11.1515859375 0.6859049394831251 0.6929665013277196
11.152734375 0.682021951286609 0.6943609851006527
11.1538828125 0.6798626461488192 0.6937516881150284
11.15503125 0.6791426362474873 0.6988141003157676
11.1561796875 0.6792855635435034 0.702029438088531
11.157328125 0.6782915745632538 0.7001397331092027
11.1584765625 0.680902070443123 0.7055291814522267
11.159625 0.682046880491783 0.7065535217191363
11.1607734375 0.680871240763074 0.7046269775571498
11.161921875 0.6803849518110763 0.7097839309506612
11.1630703125 0.6837359823288577 0.709378112752229
11.16421875 0.6824232801444361 0.7108187537027161
11.1653671875 0.6820706383391029 0.7125486230058363
11.166515625 0.6824046004753268 0.7110761060075057
11.1676640625 0.6817051134497488 0.71377351756151
11.1688125 0.6842927259004408 0.7137565398409281
11.1699609375 0.6849435235665065 0.718121944654428
11.171109375 0.6857973458323849 0.7172598076180801
11.1722578125 0.6853275911579902 0.7168740408512839
11.17340625 0.6896650795603525 0.7206231301050269
11.1745546875 0.6908076660170717 0.7167199105359167
11.175703125 0.6919516294319874 0.7209202899832221
11.1768515625 0.6953287124797718 0.7211777810580299
11.178 0.6961371482388492 0.7216459740630617
11.1791484375 0.7006549881828096 0.7175520779693321
11.180296875 0.70045953907686 0.7156389475276772
11.1814453125 0.7009762641272395 0.7169544700818006
11.18259375 0.6996955773907066 0.7147859012331332
11.1837421875 0.7021272345426213 0.7141235190907111
11.184890625 0.7035885893355396 0.7129235346322844
11.1860390625 0.7027811307759865 0.71248165607117
11.1871875 0.7039418417603462 0.7120933310547248
11.1883359375 0.7019949634912954 0.712853389944319
11.189484375 0.7010415607821916 0.7136953821004056
11.1906328125 0.7024072941518699 0.7143105503912257
11.19178125 0.7058556431527783 0.7150797750896356
11.1929296875 0.7072665531207329 0.7149609508668449
11.194078125 0.7067555525578507 0.7127844804264567
11.1952265625 0.7087233193602674 0.7143632739079336
11.196375 0.7103878651171524 0.7132078202060833
11.1975234375 0.7104166328265014 0.7143051259740513
11.198671875 0.7142688662125447 0.7144039416692034
11.1998203125 0.7147153235060437 0.7112107117158682
11.20096875 0.716921209879386 0.7126149282817469
11.2021171875 0.7152731167864357 0.7116378261078754
11.203265625 0.7188549534114909 0.7107332705606876
11.2044140625 0.7211087730068682 0.7094327648007528
11.2055625 0.7200634851720353 0.7087256958031949
11.2067109375 0.7187850202216393 0.708084699159929
11.207859375 0.7197013074646229 0.7083796878281177
11.2090078125 0.7223074188464 0.7092318435050435
11.21015625 0.7236889866334498 0.7061698970393187
11.2113046875 0.7259973856825834 0.7071230857142796
11.212453125 0.7265765560916176 0.7023717355397955
11.2136015625 0.7252975483182262 0.7026014873024317
11.21475 0.726620386788977 0.7028226012656644
11.2158984375 0.7259677247041146 0.7020223226375303
11.217046875 0.7248493441752277 0.7008700956883365
11.2181953125 0.7245300718964152 0.6970903885649069
11.21934375 0.7256512015081069 0.696846438627952
11.2204921875 0.7244215815753812 0.6975749286435531
11.221640625 0.723225383814418 0.6957541359426309
11.2227890625 0.7232405761214873 0.6921822751136482
11.2239375 0.7225456585088263 0.6948323910503418
11.2250859375 0.7201843228451366 0.6939104938121289
11.226234375 0.7226558923702505 0.6937258022135331
11.2273828125 0.7209717612280488 0.6949678346348739
11.22853125 0.720516842858322 0.6940194772146844
11.2296796875 0.7192616878082612 0.6935205575728944
11.230828125 0.7213064627985305 0.69034041999518
11.2319765625 0.7219040616739278 0.6924613900736776
11.233125 0.720706511576666 0.6930422959470404
11.2342734375 0.7238465993180763 0.6897583942556978
11.235421875 0.7219515492197319 0.6894846621596188
11.2365703125 0.7227407722253325 0.6906729937002576
11.23771875 0.7229615468410187 0.6898143351537906
11.2388671875 0.7189912937795444 0.6896056806281925
11.240015625 0.7180596323119967 0.68965250074979
11.2411640625 0.7180811489801419 0.6884142290738521
11.2423125 0.7210536917199994 0.6890738368964109
11.2434609375 0.7184322909678209 0.6878570833978166
11.244609375 0.720040780933872 0.6855175509031666
11.2457578125 0.7160227566012874 0.6813507340859557
11.24690625 0.7142771313626972 0.6820038494660577
11.2480546875 0.7126483861544226 0.6826589127629938
11.249203125 0.7114304787788963 0.6848368978679624
11.2503515625 0.7085256478794875 0.6847930905992248
11.2515 0.7079897492974305 0.6873645896796907
11.2526484375 0.7105293523750646 0.6852729671727311
11.253796875 0.7071866558556787 0.6889237122864559
11.2549453125 0.71003912510483 0.6894268676712277
11.25609375 0.7095347099269967 0.6900964833920371
11.2572421875 0.7089567058295769 0.6909172709815536
11.258390625 0.7098344324563659 0.6868574883355449
11.2595390625 0.7090005271487746 0.6885294381767524
11.2606875 0.7110640195268259 0.6887449784815227
11.2618359375 0.7094587238969745 0.6874818026346031
11.262984375 0.7087462453541764 0.6851788909239397
11.2641328125 0.7078575611351694 0.6847918370862174
11.26528125 0.7051061212761713 0.6892002367528325
11.2664296875 0.7040700416689321 0.6881362011346343
11.267578125 0.7049709277580711 0.6894771614473361
11.2687265625 0.7031279091132985 0.6878852903382764
11.269875 0.7028304600911686 0.6879442976510131
11.2710234375 0.7043776042206562 0.6887410055024762
11.272171875 0.7013546465469054 0.6895804275909359
11.2733203125 0.7023382699712554 0.6883842456588101
11.27446875 0.7002572307003541 0.6907672651378729
11.2756171875 0.7017868788701691 0.6926506559120796
11.276765625 0.7005273818385322 0.6958768323981541
11.2779140625 0.7021109632963561 0.695966700487393
11.2790625 0.7034196774448032 0.6956556690578715
11.2802109375 0.701780974280582 0.6951762772834789
11.281359375 0.7025088902540044 0.6964318643707806
11.2825078125 0.7016333505227544 0.6977481352444357
11.28365625 0.7026425945235073 0.6959385303174044
11.2848046875 0.7044987587215089 0.7014897190921516
11.285953125 0.7056132577861316 0.6999730080556785
11.2871015625 0.7063265000802367 0.7032409115955965
11.28825 0.7084686500834798 0.7031731199696807
11.2893984375 0.7109493389955561 0.7031962498145852
11.290546875 0.7115871363377383 0.7044702091370514
11.2916953125 0.7124802334899869 0.7022435720834163
11.29284375 0.713070513432698 0.7023147921248446
11.2939921875 0.7168128725907217 0.7027885514035328
11.295140625 0.7186532876937518 0.7050583181822909
11.2962890625 0.7176541819125746 0.7034605761481885
11.2974375 0.7162583399054409 0.7032091583261855
11.2985859375 0.7203291979876244 0.7058699299043087
11.299734375 0.7213708168926731 0.7059760548318389
11.3008828125 0.7227126793936778 0.703366908628445
11.30203125 0.7211931239118418 0.7071930537661749
11.3031796875 0.7237428811498199 0.7102790677420687
11.304328125 0.7239305477076503 0.7095997608117721
11.3054765625 0.7287147186699976 0.7097689315661658
11.306625 0.7315510482261974 0.7113954351030534
11.3077734375 0.7349399990979696 0.7113691820446645
11.308921875 0.737371285458513 0.7095999318572023
11.3100703125 0.739610436627373 0.70964905388382
11.31121875 0.7407486097653424 0.7073563180616618
11.3123671875 0.7421620566297048 0.7029437539664175
11.313515625 0.7447790075653193 0.7023231634429332
11.3146640625 0.7453174390713087 0.7019954202419196
11.3158125 0.7446188716494309 0.7022530767323014
11.3169609375 0.7490408195479932 0.7002326565852899
11.318109375 0.7486821709717024 0.6972254315009341
11.3192578125 0.7488042801716883 0.6956688060392925
11.32040625 0.7502202286263455 0.6920023792748254
11.3215546875 0.7490458508837081 0.6903644170050376
11.322703125 0.7483171658659002 0.6877081660591637
11.3238515625 0.7461067750248153 0.6852258987317351
11.325 0.746064589231568 0.686161330872233
11.3261484375 0.7457378040246736 0.6879100459536733
11.327296875 0.7468676938704651 0.6867302909981051
11.3284453125 0.7468628546319545 0.6850457022499358
11.32959375 0.746763072646322 0.6850921025021413
11.3307421875 0.74747912891474 0.683664542696128
11.331890625 0.7459359824415195 0.6819063641004222
11.3330390625 0.7440295820469683 0.6816192230834954
11.3341875 0.7458728537254392 0.6818697535768408
11.3353359375 0.745560187653239 0.680687877739818
11.336484375 0.7446757714524863 0.6808185265265766
11.3376328125 0.7436309541059303 0.6812030235761689
11.33878125 0.744177365468716 0.6795428417683063
11.3399296875 0.7433959088666009 0.679632080689428
11.341078125 0.7433427102152492 0.6798568371061177
11.3422265625 0.7431403701850459 0.6798542487451679
11.343375 0.7442739122588665 0.6797941742957445
11.3445234375 0.7443465225648317 0.6812058784003415
11.345671875 0.744332432179684 0.6801232715384087
11.3468203125 0.746229219853925 0.678254039398101
11.34796875 0.7465420224254816 0.6773294395093342
11.3491171875 0.747753782690918 0.6781243840364213
11.350265625 0.7465301805928035 0.6774979901748013
11.3514140625 0.7449728356455303 0.6758926122371645
11.3525625 0.7446561129037659 0.6757831489491188
11.3537109375 0.7458242251821772 0.6774631175614311
11.354859375 0.747204673173976 0.6776073868026042
11.3560078125 0.7462505695924906 0.6772140917114499
11.35715625 0.748685673659778 0.6781921796166399
11.3583046875 0.7488889491326913 0.6760375096025171
11.359453125 0.7506977324293456 0.6733544746300548
11.3606015625 0.7507878378342827 0.6725999136001262
11.36175 0.7515159221701709 0.6722109540068352
11.3628984375 0.7510697956030267 0.6708018888180042
11.364046875 0.7520286642566802 0.6718023514965394
11.3651953125 0.7528225952505503 0.6697325876675799
11.36634375 0.7519711645585174 0.6684876641217437
11.3674921875 0.7521355383806623 0.667197758728771
11.368640625 0.7513006825955272 0.6644111906101857
11.3697890625 0.7518525350888318 0.6630681881786131
11.3709375 0.7490381451578201 0.6620541983855348
11.3720859375 0.7480215913849124 0.6632302948176748
11.373234375 0.7491155730069345 0.664361183549373
11.3743828125 0.7476372394023054 0.6642561392246326
11.37553125 0.7494266692237859 0.6639906838107881
11.3766796875 0.7492029900580557 0.6623933657922809
11.377828125 0.7493240820178307 0.6615629903037918
11.3789765625 0.7484377135404536 0.6599411190011971
11.380125 0.7495474196135163 0.6607981665200247
11.3812734375 0.7482625351649267 0.6598228215049666
11.382421875 0.7465160242491624 0.6591644682973816
11.3835703125 0.7471069636324699 0.6586656819808533
11.38471875 0.7479852001121304 0.6609579662613697
11.3858671875 0.747423818204303 0.6593881301413392
11.387015625 0.7480853949155215 0.6584599532726507
11.3881640625 0.7469036766435099 0.6579725268986794
11.3893125 0.7475140938040634 0.6572218611941303
11.3904609375 0.7449994785290192 0.6558876700654298
11.391609375 0.7449123750997544 0.6555547478628011
11.3927578125 0.7434880141730744 0.6559245219695794
11.39390625 0.7461727237828103 0.6549584151472813
11.3950546875 0.7463327986157282 0.6559831186517758
11.396203125 0.7460006647313321 0.6566370198764055
11.3973515625 0.746484095544518 0.6543197206024504
11.3985 0.7471917545517922 0.6499451750362852
11.3996484375 0.7450345066228953 0.6492162504460627
11.400796875 0.7420608355157676 0.6475737717733275
11.4019453125 0.7402099218116017 0.6493938856333059
11.40309375 0.7408879958407282 0.6489336284909041
11.4042421875 0.7376481337796215 0.6498476908047123
11.405390625 0.7373717439337042 0.647140540705068
11.4065390625 0.7351233045653438 0.6475601374557336
11.4076875 0.7320853254771854 0.6503910451932668
11.4088359375 0.7319339534011848 0.6491821541953796
11.409984375 0.7299685959751956 0.648573735433372
11.4111328125 0.7279507208954605 0.6491476381420829
11.41228125 0.7271151810349246 0.6509660141264868
11.4134296875 0.7248368633630906 0.6526776702847964
11.414578125 0.7269230483339219 0.6572355935641643
11.4157265625 0.7268763786606277 0.6599945363302403
11.416875 0.7264359717789752 0.6612232430829809
11.4180234375 0.7292695235472472 0.6591812303666588
11.419171875 0.728903821095046 0.6605812668117859
11.4203203125 0.7278445856792016 0.6604937686002696
11.42146875 0.7289734040209715 0.6616806965184104
11.4226171875 0.7275966408926964 0.6614721848300399
11.423765625 0.7280919981666418 0.6621579458124056
11.4249140625 0.7278309922475732 0.6637995069168203
11.4260625 0.7293189014171697 0.6623882099920803
11.4272109375 0.7287943242251838 0.664119512165513
11.428359375 0.7267531714189149 0.6655878852465086
11.4295078125 0.727108913756027 0.6653093412631981
11.43065625 0.7267638132179218 0.6682164916352396
11.4318046875 0.7287904138692053 0.6696576776364416
11.432953125 0.7317264441273403 0.671010113866959
11.4341015625 0.7345820061854741 0.6717939394065128
11.43525 0.7349053027322099 0.6715035084609207
11.4363984375 0.7368225661958698 0.6708080146907093
11.437546875 0.738530273988639 0.6709636472188533
11.4386953125 0.738861230369477 0.671703911052516
11.43984375 0.7386066490394264 0.6704044510206729
11.4409921875 0.7417806500354882 0.67136580235212
11.442140625 0.7428754085532614 0.6708834601935147
11.4432890625 0.7432647131805182 0.6672428299858564
11.4444375 0.7438539581039815 0.6666481540743056
11.4455859375 0.7425610061384715 0.6656330958647181
11.446734375 0.7427516809536236 0.6654696942362063
11.4478828125 0.7416348139439959 0.6667048548568963
11.44903125 0.7415945512386152 0.6670711986409913
11.4501796875 0.7400470271009953 0.6678860036206243
11.451328125 0.7417381522998332 0.6693087650089907
11.4524765625 0.7417314486180104 0.6698543918384683
11.453625 0.7424509100211738 0.6700586351240955
11.4547734375 0.7431645374585234 0.6710030563409258
11.455921875 0.7444407899001351 0.6702586212352591
11.4570703125 0.7449819682893724 0.6714235764056926
11.45821875 0.7456161981832659 0.6714878342706825
11.4593671875 0.7478279609531344 0.672176734123336
11.460515625 0.7488978997457996 0.6722289778453012
11.4616640625 0.7499189648832669 0.6717976564994276
11.4628125 0.7495812531329525 0.6714201973634976
11.4639609375 0.7512220803711874 0.6715798526954418
11.465109375 0.7515399792113489 0.672085447254752
11.4662578125 0.7545958233089751 0.6709934692470428
11.46740625 0.7559004940950702 0.6689652668032013
11.4685546875 0.754679101692559 0.6679534578766562
11.469703125 0.7562713619661103 0.6679777712353151
11.4708515625 0.7565643333564969 0.6671210473767173
11.472 0.7563831574463874 0.6666408815578839
11.4731484375 0.7571470854306215 0.6666081062899321
11.474296875 0.757728524657602 0.6664612779285755
11.4754453125 0.7599609591593057 0.6654137090802792
11.47659375 0.7609814972668274 0.6642044724736286
11.4777421875 0.761257540574694 0.6625258303607103
11.478890625 0.760752238648301 0.6602424866557637
11.4800390625 0.7600438986123935 0.659394544951615
11.4811875 0.759272606527037 0.6572632676196172
11.4823359375 0.7579123996308628 0.657524786860726
11.483484375 0.7569028822606299 0.6576224488163397
11.4846328125 0.7566079064805218 0.6592288170138915
11.48578125 0.7578613756213586 0.6584971712212074
11.4869296875 0.7598633733896373 0.6596362153397568
11.488078125 0.7598867737965512 0.6575072051850399
11.4892265625 0.7595692113861302 0.6566886961625017
11.490375 0.7592172183216717 0.6544322282285315
11.4915234375 0.7579531924120442 0.6543676805254492
11.492671875 0.7578626734653984 0.6552913452076042
11.4938203125 0.7562612058181926 0.6553020903883112
11.49496875 0.7578645415175487 0.6554363450414494
11.4961171875 0.757031630494357 0.6559372827451859
11.497265625 0.7568846074729494 0.6567785019565517
11.4984140625 0.7573276780583837 0.6552500501768743
11.4995625 0.7562787713332706 0.6551204477928495
11.5007109375 0.757730590432909 0.6565193882896794
11.501859375 0.759028676231593 0.6572226940530513
11.5030078125 0.7606490235094192 0.6565550111184876
11.50415625 0.7604065212554666 0.6560931028248306
11.5053046875 0.7608229459255511 0.6549602432348953
11.506453125 0.758895054185551 0.6544360864680274
11.5076015625 0.760664996574592 0.6550647992545713
11.50875 0.7603107923531838 0.6546662728508896
11.5098984375 0.7605675296322421 0.6543823939027235
11.511046875 0.7603597470954041 0.6538916155053156
11.5121953125 0.7620994084252116 0.6533766390463583
11.51334375 0.7627077151545205 0.6521321198315173
11.5144921875 0.7614460574904038 0.6530051780139557
11.515640625 0.7628748703854376 0.6499298719501466
11.5167890625 0.7623414404839882 0.6488004741551076
11.5179375 0.7602070431671937 0.648534932670398
11.5190859375 0.7603377312322386 0.6494067678510562
11.520234375 0.760069996942062 0.6489609361835895
11.5213828125 0.7594345349825842 0.6496268303502404
11.52253125 0.7598507829687482 0.6499978829273542
11.5236796875 0.7590780877292913 0.6508198002766368
11.524828125 0.7605186948085525 0.6520403700531595
11.5259765625 0.7600585199657368 0.6524518296079601
11.527125 0.7613417315881985 0.6530280133313452
11.5282734375 0.7622754885270641 0.652272496147574
11.529421875 0.763250447579451 0.6520375246612691
11.5305703125 0.764792724792662 0.6511016704345065
11.53171875 0.7641088069385195 0.6501407385075503
11.5328671875 0.7647228894151886 0.6501812274836538
11.534015625 0.7647632747945952 0.6496372177342259
11.5351640625 0.7647534359747776 0.6487733152513615
11.5363125 0.7653760738369886 0.6495927289572799
11.5374609375 0.7662953942774675 0.6500371692024753
11.538609375 0.7667873089411255 0.6487765796675754
11.5397578125 0.7670724696932857 0.6472066581699012
11.54090625 0.7659515783980271 0.645416327464307
11.5420546875 0.7641255289905373 0.6462499588154922
11.543203125 0.7642572554236354 0.6468284562705472
11.5443515625 0.7634597131168537 0.6476651395667865
11.5455 0.7647686329978344 0.6476283066267695
11.5466484375 0.765987928685609 0.6486941916816902
11.547796875 0.7663943888029862 0.6494070784585391
11.5489453125 0.7682765588059233 0.6488003191294647
11.55009375 0.7690853483091931 0.6473548293947486
11.5512421875 0.7707104652535245 0.6466883193598547
11.552390625 0.7694664393057045 0.6449291172657575
11.5535390625 0.7693163706349431 0.6443110761859281
11.5546875 0.7682745472799513 0.6436803289367751
11.5558359375 0.7691824722040737 0.6430177363751656
11.556984375 0.7693690762575647 0.6426006397007518
11.5581328125 0.7682260476283129 0.6420532660944409
11.55928125 0.7676111738995286 0.6414455373940697
11.5604296875 0.7662869868178025 0.6416303901412473
11.561578125 0.7666188436335164 0.6416445876113264
11.5627265625 0.7666623908043717 0.6425996097562541
11.563875 0.7656130356762836 0.6449573351907683
11.5650234375 0.7665079398008603 0.6442300906097659
11.566171875 0.7678039492586196 0.6456813276434816
11.5673203125 0.7688549718188928 0.6447367418368714
11.56846875 0.7690585570825381 0.6452330192473806
11.5696171875 0.7689238232105428 0.6462391908365265
11.570765625 0.770595964238991 0.6445691983878784
11.5719140625 0.7703310432487422 0.6453053422381776
11.5730625 0.7717556987681892 0.6456101381168593
11.5742109375 0.7723973584666788 0.6453932257724102
11.575359375 0.7730049621850107 0.6443013347297433
11.5765078125 0.7740590609127913 0.6425577560937259
11.57765625 0.7732122224177209 0.6421924944158712
11.5788046875 0.7739100011007689 0.6427942762232299
11.579953125 0.7741961749734381 0.642860925642127
11.5811015625 0.7753623386192531 0.6411086514207937
11.58225 0.776294988012998 0.6409709509452148
11.5833984375 0.7771430028115452 0.6411405598481477
11.584546875 0.7767782422882457 0.6420225003275273
11.5856953125 0.7760057067866107 0.6405105879283296
11.58684375 0.7770491814058298 0.6401243527654641
11.5879921875 0.7789622402799136 0.6399524186043579
11.589140625 0.7811989385483731 0.6384288732289604
11.5902890625 0.7810240971073832 0.6383600484686554
11.5914375 0.7817052058698283 0.6349521782572747
11.5925859375 0.78010192919996 0.634764916605428
11.593734375 0.7798072122844404 0.6342876556586852
11.5948828125 0.7804150400703096 0.6305538197895632
11.59603125 0.7811213942398869 0.6297370958757834
11.5971796875 0.7808221126751427 0.6292248488854829
11.598328125 0.7788582411028522 0.6277408128253054
11.5994765625 0.7785956852073723 0.6257492324373596
11.600625 0.7777502388521703 0.6254667512147901
11.6017734375 0.7762028311261486 0.6234466018748482
11.602921875 0.7748479236478913 0.6232215055952062
11.6040703125 0.7749370102320392 0.6235773979354443
11.60521875 0.7741890112559136 0.6226032444247648
11.6063671875 0.7724581655698644 0.6222162786134571
11.607515625 0.7708739117381285 0.6219714146034688
11.6086640625 0.7696961769083868 0.6219929002347284
11.6098125 0.7693285566235083 0.6233953653786269
11.6109609375 0.7687080317551067 0.6247340710420082
11.612109375 0.7675498367228774 0.6253890299390524
11.6132578125 0.7679434366987443 0.6258566960157511
11.61440625 0.7679219983173945 0.6263796557832332
11.6155546875 0.7691894026304876 0.6260349382287076
11.616703125 0.7694468950106741 0.6273458333275188
11.6178515625 0.7688439039171426 0.6266969843371885
11.619 0.769145380897779 0.6261973570105881
11.6201484375 0.7690991679194479 0.6267779518075808
11.621296875 0.7693215104523554 0.6261893321602472
11.6224453125 0.7694122442486309 0.6275948302682977
11.62359375 0.7700302806777578 0.6263411956986115
11.6247421875 0.7696136415349334 0.6242601617679199
11.625890625 0.7682326278097239 0.624801056416759
11.6270390625 0.7675753198988624 0.6246556656850044
11.6281875 0.7668683999029368 0.6245062508643551
11.6293359375 0.7661298092746947 0.6246206342297611
11.630484375 0.7648702893375118 0.6257413661950696
11.6316328125 0.7654310046260175 0.6268012458442759
11.63278125 0.7649725503913268 0.6285117445250011
11.6339296875 0.7657688710047628 0.6281353917648473
11.635078125 0.765315599535278 0.629828604065416
11.6362265625 0.7669217360869143 0.6314823965628522
11.637375 0.7678604657338659 0.6315321708916826
11.6385234375 0.7685661612831836 0.6318643355803433
11.639671875 0.7690340482878568 0.6327306637457925
11.6408203125 0.7715930098447986 0.6321712131529955
11.64196875 0.773429570968582 0.6306319962841717
11.6431171875 0.7742128355634343 0.6287723313459388
11.644265625 0.774075028794269 0.629708851991131
11.6454140625 0.7732627321282076 0.628130148399362
11.6465625 0.7736931069797652 0.6287730737984831
11.6477109375 0.7744478933082535 0.6280005025884179
11.648859375 0.7763972976985334 0.6286972556564663
11.6500078125 0.7775604856165698 0.6282763756214915
11.65115625 0.7802060669624985 0.6250754643977661
11.6523046875 0.7790166942885313 0.6232007698805622
11.653453125 0.7781938744047538 0.6202046406670384
11.6546015625 0.7795225753826514 0.6195506434396191
11.65575 0.7769489982192047 0.6176931013296681
11.6568984375 0.7778214628831075 0.6157954602669348
11.658046875 0.7775890695416097 0.6147004415368726
11.6591953125 0.7751154128895643 0.6137620373611494
11.66034375 0.7754925559065867 0.6107486167518197
11.6614921875 0.7743243710801933 0.6089052536226942
11.662640625 0.7731232587490476 0.6075489802015485
11.6637890625 0.7694127852596655 0.6069945730399804
11.6649375 0.766526542387991 0.6073087070423979
11.6660859375 0.7635731174788178 0.6053622912466682
11.667234375 0.7624433698868487 0.6051474215773003
11.6683828125 0.760777003332618 0.605335425159537
11.66953125 0.7556184152095027 0.6040903161662571
11.6706796875 0.7504932258558017 0.6055771678157966
11.671828125 0.74684489810141 0.6110288272867702
11.6729765625 0.7451433778053418 0.6157891829866678
11.674125 0.7483151642717211 0.6185107704556424
11.6752734375 0.7505337734203965 0.6192336078501098
11.676421875 0.7505508403586418 0.6184626642403374
11.6775703125 0.7492187136459156 0.6179392189154757
11.67871875 0.7480604653954376 0.6156833107163728
11.6798671875 0.7452644255234542 0.6173748859375032
11.681015625 0.7437090912304812 0.6198891359700845
11.6821640625 0.7408103436392901 0.6222332110161525
11.6833125 0.7393614456388624 0.6255351011986987
11.6844609375 0.7385189132301886 0.6285742719990122
11.685609375 0.7396995912327411 0.6292413755390468
11.6867578125 0.7394633240784411 0.6295784035547769
11.68790625 0.736186083351002 0.6300552822972977
11.6890546875 0.7334759058072678 0.6344189962367776
11.690203125 0.7296671971322974 0.6385043865018816
11.6913515625 0.7298428984833114 0.6446742160272685
11.6925 0.7314794279853161 0.650199961770667
11.6936484375 0.7323544360988901 0.653343736120886
11.694796875 0.7334912892793 0.6566104652105071
11.6959453125 0.7356864213732586 0.661683090382051
11.69709375 0.7391066207740769 0.6647757319452818
11.6982421875 0.7437058648422599 0.6698418344185759
11.699390625 0.7455591995873292 0.6723358068107748
11.7005390625 0.7494528277861816 0.6736673287537481
11.7016875 0.7539739343913077 0.6775333856400998
11.7028359375 0.7595948917833177 0.679800251882748
11.703984375 0.7660533195691883 0.6804855101037857
11.7051328125 0.7720805741794484 0.6786275577424676
11.70628125 0.7752966024528868 0.6778793727703464
11.7074296875 0.7779470559421755 0.6749818618910698
11.708578125 0.7815577849709472 0.6716354669966684
11.7097265625 0.7825229654167087 0.6694549845538504
11.710875 0.7829641611216394 0.6706583953383004
11.7120234375 0.7844584181390137 0.669857362727644
11.713171875 0.7873695758434937 0.6703713402262055
11.7143203125 0.7877807513822264 0.6689834985627489
11.71546875 0.7884806584414552 0.669224864483621
11.7166171875 0.7911457870268046 0.6697300455489755
11.717765625 0.7929403082428491 0.6697923176398013
11.7189140625 0.7972100032684052 0.6684900181320692
11.7200625 0.7994277381430908 0.6673087417964607
11.7212109375 0.8033054049302141 0.6666484417900802
11.722359375 0.8074299229736035 0.6649125558353168
11.7235078125 0.809846776139999 0.6616672107026794
11.72465625 0.8088275552632683 0.6586305578757544
11.7258046875 0.8112421016475682 0.6566936947685043
11.726953125 0.8101803648784627 0.6525376052094202
11.7281015625 0.8101445953489516 0.6510616684602007
11.72925 0.8120655843794895 0.6484623002896619
11.7303984375 0.8103950737203145 0.6463181033862161
11.731546875 0.8087722154376393 0.6473319436659121
11.7326953125 0.8078311126333197 0.6494659575163988
11.73384375 0.8099945841361404 0.6505034236753762
11.7349921875 0.811124022876236 0.6492271427045933
11.736140625 0.8151414741188914 0.6497136004640739
11.7372890625 0.8178016294355153 0.646040825631371
11.7384375 0.8199475482658405 0.6435964735182429
11.7395859375 0.8216061560451197 0.6415334620942869
11.740734375 0.8219297275146091 0.6395326487326158
11.7418828125 0.8237466189647493 0.6338989495596195
11.74303125 0.8232693205626809 0.6308760159199562
11.7441796875 0.8230897422546168 0.6299316367018335
11.745328125 0.8206665085938948 0.62791618557238
11.7464765625 0.8209123508436127 0.6280864079589714
11.747625 0.8225976798355955 0.6257008574632397
11.7487734375 0.8222712517138838 0.6233369252908803
11.749921875 0.8218132260116199 0.620192345695364
11.7510703125 0.8214859342162906 0.6185138354181491
11.75221875 0.8199156993326782 0.6153085019166464
11.7533671875 0.81936298491712 0.614043557285354
11.754515625 0.8178259313270366 0.6129983026507444
11.7556640625 0.8153559405010427 0.6101687775765028
11.7568125 0.8149826121410639 0.6095075251805232
11.7579609375 0.813149957886477 0.6079393688122455
11.759109375 0.8109037523495908 0.6071973264595116
11.7602578125 0.8073375749669306 0.6053305432579453
11.76140625 0.8059679808700995 0.6044669453638032
11.7625546875 0.8047926199428523 0.6058746290236523
11.763703125 0.8036660205993084 0.6069683506779429
11.7648515625 0.8029048726475291 0.6069986181983099
11.766 0.8018680428538725 0.6088032452102587
11.7671484375 0.8015965251945114 0.6064987705478386
11.768296875 0.8030479297301959 0.6066296384604329
11.7694453125 0.801861223298772 0.6054896805214737
11.77059375 0.8002250065111649 0.6048581923431454
11.7717421875 0.8002277615558625 0.6044796473628806
11.772890625 0.7989406935316485 0.6028163370947137
11.7740390625 0.7985772802474824 0.6042551519952888
11.7751875 0.7958464553797531 0.6041332713768771
11.7763359375 0.7948747890579944 0.605167258487644
11.777484375 0.7941615496420811 0.6058867305393819
11.7786328125 0.7931083629464191 0.6046181610695937
11.77978125 0.7894308002602164 0.604289064188493
11.7809296875 0.7906931810519664 0.6064078118632613
11.782078125 0.7890998862480623 0.6081200771907473
11.7832265625 0.7874828153038267 0.6098914769688836
11.784375 0.7875296149779216 0.6109742194080743
11.7855234375 0.7882966118805614 0.6125642433096383
11.786671875 0.791024733609512 0.6131389947263381
11.7878203125 0.7913800679117237 0.6134959251351302
11.78896875 0.7920451828772437 0.6118424302895866
11.7901171875 0.7901616718639466 0.6118405400408078
11.791265625 0.7884498567566752 0.6129031417297274
11.7924140625 0.7874041194981106 0.6135048391254929
11.7935625 0.7889505368360158 0.6149847346445294
11.7947109375 0.7891843675545257 0.6162887349483869
11.795859375 0.7888695151475762 0.615615345949367
11.7970078125 0.7908615176227366 0.6183591039239682
11.79815625 0.790775309109057 0.6156502945407262
11.7993046875 0.7927896148580661 0.6172720229349913
11.800453125 0.793444082667127 0.6181004151160433
11.8016015625 0.7948782320422283 0.6167205410605918
11.80275 0.7935326040828574 0.6169352467333485
11.8038984375 0.7948008324508055 0.6181889567712936
11.805046875 0.7947824686329927 0.6177824475096313
11.8061953125 0.7959619757322369 0.6171647021547849
11.80734375 0.7944669721595445 0.6174318291724508
11.8084921875 0.7959586827520877 0.6155647561954154
11.809640625 0.7979296464621568 0.6200314066143862
11.8107890625 0.7995714299470722 0.6192177287972429
11.8119375 0.8003503671693495 0.6173486300299194
11.8130859375 0.8034536422725138 0.6128237859544796
11.814234375 0.8030565381773588 0.6113466243048922
11.8153828125 0.7980803041715588 0.6111088846910777
11.81653125 0.7971944626813483 0.6086079191641252
11.8176796875 0.7963456897671798 0.6093951939212581
11.818828125 0.7932085003271306 0.610489693187126
11.8199765625 0.7941590502187812 0.6124684941294873
11.821125 0.7944660096716551 0.6136612263446134
11.8222734375 0.7939412416627314 0.6146869819845775
11.823421875 0.7949079074595835 0.6150483245634758
11.8245703125 0.7956535229189687 0.6161106771177975
11.82571875 0.7973636197530921 0.6166321264027754
11.8268671875 0.7973897609403787 0.6162527469493624
11.828015625 0.7989980123054106 0.6149584234623326
11.8291640625 0.8005634845507593 0.6158328877847972
11.8303125 0.801094559218395 0.6131365159316052
11.8314609375 0.8004801537324812 0.6117664922125887
11.832609375 0.801197315795483 0.6109549935354608
11.8337578125 0.8010986140124414 0.6121281465072287
11.83490625 0.8032934305820458 0.6124142618748332
11.8360546875 0.805064842214428 0.6076509500904438
11.837203125 0.8035016454800726 0.6060547183792728
11.8383515625 0.8016916273475166 0.602897296665059
11.8395 0.8001558222776974 0.602235096075601
11.8406484375 0.7996061255401667 0.6019613685064171
11.841796875 0.7957298058493425 0.6005928154834363
11.8429453125 0.7925403247365101 0.6018418653256294
11.84409375 0.7905214145949875 0.6026404241026282
11.8452421875 0.7885713965760159 0.6044468062221209
11.846390625 0.7879794536532619 0.6082402548344847
11.8475390625 0.7885770217995456 0.6097220085862793
11.8486875 0.7894870960316819 0.6120632098454091
11.8498359375 0.7906473761881294 0.6137149705250715
11.850984375 0.7933591238813974 0.6141666513268295
11.8521328125 0.7934908618860645 0.6131626174571311
11.85328125 0.7934772650332462 0.612609951898925
11.8544296875 0.7936411731822897 0.6110756780606394
11.855578125 0.7916233895470672 0.6116086049930191
11.8567265625 0.79156656238738 0.6114795994762615
11.857875 0.7906504590638441 0.6115579129275124
11.8590234375 0.7918573511839448 0.6121621402711337
11.860171875 0.7910936981924364 0.6122643851261262
11.8613203125 0.7879336964048771 0.6133615201892133
11.86246875 0.7864097565081083 0.6156544064820054
11.8636171875 0.7865603734725004 0.6186063134410951
11.864765625 0.7894123848384479 0.6206460279106379
11.8659140625 0.7913217119721099 0.6198675590700562
11.8670625 0.791637002546939 0.6191476115723156
11.8682109375 0.7901563799874581 0.6183726640417185
11.869359375 0.7903212921219532 0.6201315479011431
11.8705078125 0.7905291814951068 0.622628404448463
11.87165625 0.7906679882122376 0.6223268993866587
11.8728046875 0.7920010608638932 0.6254685096532998
11.873953125 0.7956896289004105 0.6256181134650664
11.8751015625 0.7963759808790929 0.6221748435517224
11.87625 0.7948182874354298 0.6227831911731749
11.8773984375 0.7956855104524648 0.6233328553857479
11.878546875 0.7957315787743531 0.623882482943444
11.8796953125 0.7960377255829065 0.6229849915544872
11.88084375 0.7979934602413778 0.6230255337375218
11.8819921875 0.7955596520236339 0.623066257851887
11.883140625 0.7949782634416965 0.6241360373177244
11.8842890625 0.7952028809200862 0.6246583567367986
11.8854375 0.7950212052542182 0.6252091923299016
11.8865859375 0.7951998697817374 0.6261451456601504
11.887734375 0.7957478584019771 0.626456649212537
11.8888828125 0.7949322564014598 0.6286679442570192
11.89003125 0.7948981842387686 0.6308285100753047
11.8911796875 0.7971372463453713 0.6329570284677176
11.892328125 0.8004293293015332 0.6330428774432518
11.8934765625 0.8019371487947957 0.632762831011592
11.894625 0.8042622849850745 0.6313964228414649
11.8957734375 0.8041825332919119 0.6279774720801531
11.896921875 0.8039826193492704 0.6278523927186139
11.8980703125 0.8023419814432109 0.6266363754203055
11.89921875 0.8017132068913101 0.6283679121353025
11.9003671875 0.8020592300245164 0.6287827156743577
11.901515625 0.8014271013399208 0.6285310125771535
11.9026640625 0.8000966391937807 0.629646406407583
11.9038125 0.7972228231809095 0.6302228107984101
11.9049609375 0.7966171671742378 0.6321058941680291
11.906109375 0.79405069734876 0.6361449388134564
11.9072578125 0.7941382069710364 0.6399559210591212
11.90840625 0.7952490783090325 0.6432950970194387
11.9095546875 0.7960641413196551 0.6469437688745093
11.910703125 0.7987646856075267 0.6501867089694496
11.9118515625 0.8015087330550694 0.6526467880741309
11.913 0.8044757332222063 0.6537343556363812
11.9141484375 0.8067801397360136 0.6543826434263221
11.915296875 0.8092493120926858 0.6542270358146001
11.9164453125 0.8122614315452203 0.6552216989040944
11.91759375 0.8145508734273466 0.6552097106008049
11.9187421875 0.8160889743953403 0.655817035544944
11.919890625 0.818448487702172 0.6551429158372325
11.9210390625 0.820745578969658 0.6560496119644899
11.9221875 0.8219732073335633 0.6532649066089187
11.9233359375 0.8216335618910513 0.6561019043394039
11.924484375 0.8229798166901752 0.6525324975525756
11.9256328125 0.8228161943118457 0.6554392758763271
11.92678125 0.8228508526661515 0.6572976373777414
11.9279296875 0.8271271125619833 0.6594787960573338
11.929078125 0.8294084865105171 0.6606574997143747
11.9302265625 0.8319718811187321 0.6608748460074909
11.931375 0.8355374893973034 0.6589131562382248
11.9325234375 0.8362035608234654 0.6588958428337779
11.933671875 0.8375534672950895 0.6577508391992176
11.9348203125 0.8364262578251468 0.6581699843286948
11.93596875 0.8372736994858364 0.658575635105598
11.9371171875 0.8380173377103984 0.6627747531995761
11.938265625 0.83812241962239 0.6649914063738707
11.9394140625 0.8436266188812412 0.666135282358511
11.9405625 0.8471888943982184 0.6672973657951805
11.9417109375 0.851357128686137 0.6670527696531469
11.942859375 0.8546131385057251 0.6675153435357671
11.9440078125 0.857490326868348 0.6655993738965873
11.94515625 0.8604257048306461 0.6631822800889896
11.9463046875 0.8595260045184098 0.661548342540783
11.947453125 0.8654255082928843 0.6646107636013918
11.9486015625 0.8668989442719803 0.664787908491322
11.94975 0.8696209914316202 0.6643439465499972
11.9508984375 0.8714418776708641 0.6629288138875792
11.952046875 0.875734246486628 0.665451022200345
11.9531953125 0.8768592836072001 0.6661250555865409
11.95434375 0.8800595443569931 0.6669694695939707
11.9554921875 0.8868194107327506 0.6699775582179516
11.956640625 0.8943155722100394 0.6698087447377268
11.9577890625 0.9037109502840798 0.6693893383336041
11.9589375 0.9124315395363853 0.6656506802119053
11.9600859375 0.919915248738325 0.6548405060876019
11.961234375 0.9230797346612658 0.6475794878555325
11.9623828125 0.9250374377131299 0.6405661697457381
11.96353125 0.9267563605097351 0.6335106888412674
11.9646796875 0.9275227524216 0.6276196170930558
11.965828125 0.9254623073924508 0.6227488754162199
11.9669765625 0.9262803458446776 0.6167848025639183
11.968125 0.9280515329458798 0.6150846628734021
11.9692734375 0.9272486012049382 0.609155007189793
11.970421875 0.9296186246748834 0.6043810996567679
11.9715703125 0.9273135810490258 0.5974813771157051
11.97271875 0.9255529328762575 0.592616611389088
11.9738671875 0.9242916144799336 0.5901714918518399
11.975015625 0.9220854557061837 0.5864709750469869
11.9761640625 0.9197879005223522 0.5826858672070871
11.9773125 0.9191102783398133 0.5795736579202637
11.9784609375 0.917771080417454 0.5754902925860517
11.979609375 0.9163568774535257 0.5710918969565904
11.9807578125 0.9128551890562309 0.5686381845032251
11.98190625 0.9090648080990351 0.5654360960236167
11.9830546875 0.9046768185049289 0.5623702545468836
11.984203125 0.9015192178062359 0.5614419999871842
11.9853515625 0.8982321191746362 0.5615201829928747
11.9865 0.8951336065422577 0.5615643449293374
11.9876484375 0.8924704983619598 0.5615865315459112
11.988796875 0.8903261912953537 0.5607897075061175
11.9899453125 0.8885815140438209 0.5603445218510227
11.99109375 0.8875608206107442 0.5605361306630241
11.9922421875 0.8873926676015382 0.5603701372436456
11.993390625 0.8852838442139526 0.5607349701707396
11.9945390625 0.8831032055290333 0.5605776354529427
11.9956875 0.8815385914823968 0.560524784760148
11.9968359375 0.8792694191543657 0.5598156638242782
11.997984375 0.8778895480544818 0.5602410948168782
11.9991328125 0.8771463501050656 0.5615924633548823
12.00028125 0.877307059901552 0.5622575919266681
12.0014296875 0.8764609487974614 0.5628040261293565
12.002578125 0.8747779989134685 0.5635617782062335
12.0037265625 0.8755145744582205 0.5637447228086339
12.004875 0.8755687511352426 0.5637130980052403
12.0060234375 0.8759451213584839 0.5635901991470735
12.007171875 0.8749397730277776 0.5623503511094299
12.0083203125 0.8750634111823832 0.5629613899705359
12.00946875 0.8738363967629252 0.561783206703097
12.0106171875 0.8741464639721895 0.5604627725373328
12.011765625 0.8732782119501101 0.560775710846229
12.0129140625 0.8715600672219627 0.5603596305323968
12.0140625 0.8710251406696603 0.5598552860591973
12.0152109375 0.8703778268646969 0.5616693283557165
12.016359375 0.869694898717088 0.5611135518118963
12.0175078125 0.8703151492059118 0.5607837199237464
12.01865625 0.8720236332321016 0.5608995069213861
12.0198046875 0.8712034967330593 0.5592416923582264
12.020953125 0.8703700247194378 0.5591870031161664
12.0221015625 0.870622561674268 0.5573284905399151
12.02325 0.8685381927856338 0.5584387288443331
12.0243984375 0.8678879478155601 0.5582054262151479
12.025546875 0.8677397161425198 0.5581922495052827
12.0266953125 0.8667722955247408 0.5586947422694066
12.02784375 0.8659789743444917 0.5593491235004615
12.0289921875 0.8651927727461285 0.559106291194374
12.030140625 0.8662796468769164 0.558874305474877
12.0312890625 0.8647619767363696 0.5583900355163792
12.0324375 0.8646356625653153 0.5599664651587729
12.0335859375 0.8651840080757914 0.5607636507052085
12.034734375 0.8646450237445487 0.5616219035186205
12.0358828125 0.8674236092382726 0.5607642865774144
12.03703125 0.867166511267907 0.5589989930870837
12.0381796875 0.8683162185058122 0.5585717308120666
12.039328125 0.8683666822668514 0.5568962688615842
12.0404765625 0.8666302871275355 0.5571421080902115
12.041625 0.865028627327495 0.5576851684357484
12.0427734375 0.8639822705814661 0.5569973526973986
12.043921875 0.8634912349201529 0.5582566620509175
12.0450703125 0.8620699801916898 0.5563252363037814
12.04621875 0.8635688463282121 0.5576437819125859
12.0473671875 0.8615424896558181 0.5565373329056594
12.048515625 0.861557248452562 0.5576658530346111
12.0496640625 0.8617973631492736 0.5581200181831634
12.0508125 0.8625188391354058 0.5574351945106293
12.0519609375 0.8591903243325142 0.55777318645742
12.053109375 0.8597243666733245 0.5593523138633778
12.0542578125 0.8605360595895355 0.5592358096134412
12.05540625 0.8584238275714935 0.5599170607244761
12.0565546875 0.8593761561443753 0.5596667776688958
12.057703125 0.8603798711934099 0.5595345935030016
12.0588515625 0.8616350753444203 0.5589233950273783
12.06 0.8615031534171044 0.557653967163798
12.0611484375 0.863306146928493 0.5586347455573974
12.062296875 0.8622572314587945 0.5587643268164517
12.0634453125 0.8613115357188773 0.5569240664502099
12.06459375 0.8621670463069699 0.5568821792132328
12.0657421875 0.8598035310261535 0.5573283443601837
12.066890625 0.8586064099837618 0.5556116954456902
12.0680390625 0.8577278135532325 0.5554609938866557
12.0691875 0.8576968336407036 0.555866235102102
12.0703359375 0.8585010063544625 0.5581859415827941
12.071484375 0.8576143883914067 0.5585579704609513
12.0726328125 0.8570748556166767 0.558930054529684
12.07378125 0.8578896680640211 0.5597850486016496
12.0749296875 0.8562383679655996 0.5599309545821751
12.076078125 0.8587936137764635 0.5597628304266691
12.0772265625 0.8594497350899934 0.5607046855189142
12.078375 0.859217163966127 0.560814965157848
12.0795234375 0.8599822808556179 0.5592907726290904
12.080671875 0.8587010778445721 0.5598897599333312
12.0818203125 0.8599972353414096 0.558127379766312
12.08296875 0.8597754370021176 0.5593520633459454
12.0841171875 0.8598961640335907 0.5582954663012176
12.085265625 0.8605038677338078 0.5589929797790433
12.0864140625 0.8582923937009121 0.5589902872663766
12.0875625 0.8588150516628497 0.5603737605033638
12.0887109375 0.8593923596240352 0.5594570029014642
12.089859375 0.8592598941900556 0.5600390307142158
12.0910078125 0.8577861839035706 0.5603566507563253
12.09215625 0.8586985415669126 0.5622627407443013
12.0933046875 0.8581092312990608 0.5616052112656873
12.094453125 0.8618639247703126 0.5627080621061685
12.0956015625 0.860731804689276 0.563023865448316
12.09675 0.8603163576035526 0.5646434560774537
12.0978984375 0.861836193642403 0.5652117085417221
12.099046875 0.8625346563235508 0.5671458160786063
12.1001953125 0.866890591134013 0.56571820351823
12.10134375 0.867480673952151 0.5646181832443097
12.1024921875 0.8674583632576089 0.5618880066618365
12.103640625 0.8721233739237766 0.5637148991924097
12.1047890625 0.8725963390632311 0.5594087065674483
12.1059375 0.872546843078321 0.5607735501741022
12.1070859375 0.8732056641176411 0.5612180633597097
12.108234375 0.8737553816155181 0.5588963070049031
12.1093828125 0.8757983645416101 0.5564542726157804
12.11053125 0.8720707364591143 0.5560071158541262
12.1116796875 0.8719968844142114 0.5524911064443428
12.112828125 0.8727251646289 0.5526322415098106
12.1139765625 0.8718855211790048 0.554593849935456
12.115125 0.8714587317249174 0.5545436890909909
12.1162734375 0.869989137232948 0.5500787310295648
12.117421875 0.8707792455652759 0.5563836823475319
12.1185703125 0.8708112015630345 0.5520457761583271
12.11971875 0.8692351633779377 0.5544455741149084
12.1208671875 0.8690314469861262 0.5526059943058708
12.122015625 0.8678041776288266 0.5527701373450808
12.1231640625 0.8698702116006573 0.5555174966033167
12.1243125 0.8736824343626927 0.5577340222845009
12.1254609375 0.8717765403104898 0.5560609014975456
12.126609375 0.8685428300067968 0.5564738753126939
12.1277578125 0.8692872888128995 0.5535126017501284
12.12890625 0.8662396178564089 0.5545443370715782
12.1300546875 0.8698611026015705 0.5565615694712128
12.131203125 0.8683253035695705 0.557081557149361
12.1323515625 0.8702660677549774 0.5589274193161622
12.1335 0.8692717670050736 0.5590065157703291
12.1346484375 0.8737100117254153 0.5554171009533332
12.135796875 0.8700434078669919 0.556668634057781
12.1369453125 0.8708424494258385 0.5542977728485474
12.13809375 0.8732275095289489 0.5577928275777326
12.1392421875 0.8730656920264974 0.5569853458209688
12.140390625 0.8692492269890327 0.5574817099921926
12.1415390625 0.8722042552257242 0.5585603652506145
12.1426875 0.8694974116081982 0.5570739213577889
12.1438359375 0.8733168458589231 0.5576923462543193
12.144984375 0.8735143976889191 0.5581755476686887
12.1461328125 0.8752381911497963 0.5550981848417296
12.14728125 0.8775995927093053 0.555600716667539
12.1484296875 0.8774441724951618 0.55719759716966
12.149578125 0.8784908725234974 0.5530967168087828
12.1507265625 0.8776174882827665 0.5521052994359319
12.151875 0.8748452955723189 0.5499637319882792
12.1530234375 0.8763842841917638 0.5494920971710208
12.154171875 0.8749834950259336 0.5525827571137396
12.1553203125 0.8759100122477004 0.5514897807536723
12.15646875 0.8731913998579326 0.5478900086867269
12.1576171875 0.8733490704814209 0.5487233369672962
12.158765625 0.8732688164910621 0.5479952834563621
12.1599140625 0.873532871046266 0.5496600477087931
12.1610625 0.872601588422004 0.5531861966700806
12.1622109375 0.873799650116171 0.5530819842572442
12.163359375 0.8746860710356901 0.5510494273840801
12.1645078125 0.8758514232544712 0.5502984328786131
12.16565625 0.8745825512032187 0.551817860398348
12.1668046875 0.877163356464802 0.5507097602353737
12.167953125 0.8747131189931037 0.551830791162969
12.1691015625 0.8787687942232352 0.5517980688475245
12.17025 0.8802618342387547 0.5475618235248509
12.1713984375 0.8785983371539636 0.5501695074726569
12.172546875 0.8819529840402665 0.5486947487743357
12.1736953125 0.8823376524711133 0.5456873961958322
12.17484375 0.8802609883661964 0.5461649915210085
12.1759921875 0.8798653797792169 0.5436285644360335
12.177140625 0.8832668270237738 0.5450420664336666
12.1782890625 0.8829355719869638 0.5503341994405913
12.1794375 0.8805856672668895 0.546319527749726
12.1805859375 0.8832054176575586 0.546424057078074
12.181734375 0.8793368543375433 0.5453638863954802
12.1828828125 0.8856192558594465 0.5439806024067699
12.18403125 0.8827304160633954 0.5466706415690017
12.1851796875 0.886181749930084 0.5455777753325828
12.186328125 0.8812910902901687 0.5423728418368096
12.1874765625 0.8876442561745553 0.5438079638543669
12.188625 0.8857936084758952 0.543771426725449
12.1897734375 0.8913674467911632 0.5368105077317633
12.190921875 0.8902729910078688 0.5327986419229503
12.1920703125 0.8882598489893785 0.5321106833573499
12.19321875 0.8855416634136062 0.5340067318165684
12.1943671875 0.8834002518886648 0.5321100434570253
12.195515625 0.8808835138657655 0.5313311244247476
12.1966640625 0.8816728195157602 0.5346538230869924
12.1978125 0.8827768125274644 0.5305712067512849
12.1989609375 0.8775499596190411 0.5269234284583999
12.200109375 0.8775356786888578 0.5300915809082956
12.2012578125 0.8800457273280087 0.5314542086232106
12.20240625 0.87687418727149 0.5371871166044894
12.2035546875 0.8782078154015602 0.5323716476392524
12.204703125 0.8772425363539116 0.5357208182110144
12.2058515625 0.8722388828271121 0.5328090306753328
12.207 0.8763781550562645 0.5376577541637455
12.2081484375 0.874565411936012 0.5378136484389875
12.209296875 0.8756680154974905 0.5369718176079425
12.2104453125 0.8769906804476617 0.5369770328844994
12.21159375 0.8766927377599302 0.5403082554454035
12.2127421875 0.8798787413412931 0.5422777443147954
12.213890625 0.8759876579567764 0.5402671491474738
12.2150390625 0.879252432868504 0.5446913055933427
12.2161875 0.8804913353965891 0.5453828493404073
12.2173359375 0.8839042072270764 0.5418967659311968
12.218484375 0.8915368176211235 0.544968154143205
12.2196328125 0.889276859478954 0.5364245470901239
12.22078125 0.8827045638607127 0.539820872974327
12.2219296875 0.8833702315564558 0.5323421254270592
12.223078125 0.886097635577362 0.5335152192700798
12.2242265625 0.8803572279863912 0.5327717014346711
12.225375 0.880521495814313 0.5331844248211525
12.2265234375 0.8858764874137235 0.5365689647808035
12.227671875 0.8830033678081479 0.5346530779251615
12.2288203125 0.8843174451631801 0.5332961112045069
12.22996875 0.8825479011319685 0.5329856993171279
12.2311171875 0.8853701902007464 0.5327757420309249
12.232265625 0.8844125215222443 0.5306458327413737
12.2334140625 0.8847556605149214 0.5292985438770088
12.2345625 0.8837863207057667 0.5325166123133869
12.2357109375 0.880792361349439 0.5181027298644668
12.236859375 0.8809306028586559 0.529301096927962
12.2380078125 0.8857971810731777 0.5208028635127457
12.23915625 0.8755091390495823 0.5223213454474833
12.2403046875 0.8753726211051323 0.5216941286315877
12.241453125 0.8671278169874115 0.5268214062913729
12.2426015625 0.8750664273841154 0.5265680662685732
12.24375 0.8668903613340452 0.53465639368052
12.2448984375 0.873539879576936 0.5360691317327654
12.246046875 0.8745006085487652 0.5286285381242898
12.2471953125 0.8774269218529511 0.5358412005323567
12.24834375 0.8788887011512199 0.52317474643878
12.2494921875 0.8796725060050077 0.5294739200599984
12.250640625 0.8783215577630967 0.5297108957455661
12.2517890625 0.8711888021716379 0.5369162927015501
12.2529375 0.8679948701595186 0.5271623116437112
12.2540859375 0.8789766252694147 0.5400193653694155
12.255234375 0.8807050134536599 0.5302055107389352
12.2563828125 0.8851776912007894 0.5331659121131918
12.25753125 0.8884323089423021 0.5241466600254391
12.2586796875 0.881713776969528 0.5238988321938498
12.259828125 0.8842520996852477 0.5285079840572244
12.2609765625 0.8829500538736244 0.528785483828395
12.262125 0.8830717670519448 0.5295156928433422
12.2632734375 0.8838111169132908 0.526034929032105
12.264421875 0.8824208171299116 0.5361048044845905
12.2655703125 0.8765259717267427 0.5346584169554652
12.26671875 0.8833964767456358 0.5478489216657165
12.2678671875 0.886372475930514 0.5411219828567839
12.269015625 0.8964846174261165 0.5531995133600813
12.2701640625 0.9104059093008019 0.5482718773319839
12.2713125 0.9019459556126235 0.5462548281246336
12.2724609375 0.9098753149921566 0.5430765207878827
12.273609375 0.9068076950970789 0.533481191456004
12.2747578125 0.9064464570939854 0.530806263305401
12.27590625 0.9073469249173292 0.5333695949007262
12.2770546875 0.909544801660446 0.5276693755001115
12.278203125 0.908777211119826 0.523187386773163
12.2793515625 0.910647364025218 0.5224078813834708
12.2805 0.9046281476224185 0.5228357873408163
12.2816484375 0.9049807214328801 0.5236161829563211
12.282796875 0.9029856203715194 0.518112679720114
12.2839453125 0.9067266158328571 0.5246120334368258
12.28509375 0.9075248180676224 0.5292087661872317
12.2862421875 0.9082137048658203 0.5333846502293659
12.287390625 0.9114148514822232 0.5242605912574381
12.2885390625 0.9178645372212936 0.518061735173736
12.2896875 0.9147540460512744 0.5125348142583805
12.2908359375 0.9151497563863811 0.5119833006053943
12.291984375 0.910760775005128 0.5108127220885128
12.2931328125 0.9118464522103908 0.5042694639169153
12.29428125 0.9090990366069461 0.5049250765597317
12.2954296875 0.9023421741868077 0.5002401148757984
12.296578125 0.8999963830832104 0.49727675710257296
12.2977265625 0.8949362586862858 0.49573425552623046
12.298875 0.8907438340649209 0.49669909077050095
12.3000234375 0.888347450467995 0.497187821246065
12.301171875 0.882349764680863 0.5013230738809104
12.3023203125 0.8829075681300241 0.5048541093162671
12.30346875 0.8847904785570094 0.511098541987357
12.3046171875 0.8841033795520563 0.5112376321670185
12.305765625 0.8913774233887386 0.5124629147292642
12.3069140625 0.8859899029301614 0.5074207745484584
12.3080625 0.8868760129887104 0.5109729971758974
12.3092109375 0.8863740391990139 0.508421264809262
12.310359375 0.8889835000714073 0.5050681448171898
12.3115078125 0.8823022469066276 0.5043540481465415
12.31265625 0.8771963348674279 0.4973108280259085
12.3138046875 0.874540794558994 0.5026114383358116
12.314953125 0.8765447589069072 0.5068455780208392
12.3161015625 0.8758525644503223 0.5148077039568445
12.31725 0.8726422594699526 0.5153480868814553
12.3183984375 0.8805801131306886 0.5182946070780596
12.319546875 0.8732883973529845 0.5158143651609013
12.3206953125 0.8852836469075024 0.5090260599222776
12.32184375 0.882815693524034 0.514042307776985
12.3229921875 0.8788753160304378 0.5207599201504267
12.324140625 0.8823608274783681 0.5121322283518316
12.3252890625 0.8794880244386138 0.5139041308932412
12.3264375 0.8790294595964612 0.5153959204127601
12.3275859375 0.8892261556129829 0.5166842245829448
12.328734375 0.8808729579312186 0.5243114940008979
12.3298828125 0.8864910108093027 0.5172296626425483
12.33103125 0.8880557535328921 0.5144369535775336
12.3321796875 0.8825301893657892 0.5204740722451628
12.333328125 0.8844383251819269 0.5096816753960989
12.3344765625 0.8825955591283843 0.5151085442210207
12.335625 0.8909183094932097 0.5185490327336388
12.3367734375 0.8915757668718518 0.5017438384801727
12.337921875 0.8867985676027491 0.5181769238658837
12.3390703125 0.8931409676140581 0.5176920119565405
12.34021875 0.8882802270302861 0.5136146748613367
12.3413671875 0.888220473492988 0.5043415730160428
12.342515625 0.8821107743383728 0.5089447128921792
12.3436640625 0.8854278330342579 0.5085548213749056
12.3448125 0.8947235727173025 0.5201991358482952
12.3459609375 0.8880886978166939 0.5201836852662796
12.347109375 0.8933710740591515 0.5100317421134097
12.3482578125 0.892078321484077 0.5129421208750605
12.34940625 0.9035740091304971 0.5179856538135263
12.3505546875 0.9020919977155664 0.5219711793277353
12.351703125 0.8990783805298153 0.5147430478972801
12.3528515625 0.9057122918704927 0.5103164509506408
12.354 0.894539897353595 0.5075635967242396
12.3551484375 0.8942286462839772 0.5114090570921475
12.356296875 0.8975569281857634 0.5078426687486186
12.3574453125 0.9042715607609251 0.5095454179245508
12.35859375 0.900437488016764 0.5102820058486183
12.3597421875 0.9042226334857546 0.5113329741988804
12.360890625 0.9020465988333024 0.511088513010175
12.3620390625 0.9081185193999888 0.5135064258274972
12.3631875 0.9174467807581348 0.5155325084637876
12.3643359375 0.9160228448809926 0.5121958824982907
12.365484375 0.9175943655121753 0.5087545603955093
12.3666328125 0.9183610146640757 0.5054470099350137
12.36778125 0.9160343341997109 0.5048973286799967
12.3689296875 0.921476605580111 0.49958056603426665
12.370078125 0.9220174473883898 0.4951481329445886
12.3712265625 0.9147923131510072 0.4947902130724009
12.372375 0.9149073549478755 0.48284594467192576
12.3735234375 0.9134746146920132 0.48755020952114336
12.374671875 0.911030822495768 0.4838179918525312
12.3758203125 0.9034360614904641 0.48486421180373157
12.37696875 0.8968060273445199 0.48310122418700935
12.3781171875 0.9029892253959043 0.4772634999072731
12.379265625 0.8986720076921727 0.48205980977922797
12.3804140625 0.8930796283129134 0.48307392532279764
12.3815625 0.8890640127206274 0.48325685464132173
12.3827109375 0.8891444482836073 0.4886305151693789
12.383859375 0.8814713367204802 0.4881491503697116
12.3850078125 0.8842514106588474 0.4956652560512491
12.38615625 0.8815457951191235 0.49925177973589085
12.3873046875 0.8822197627109234 0.5002964477162672
12.388453125 0.8888621984647096 0.49914060488867484
12.3896015625 0.8802336374901745 0.5027569112364689
12.39075 0.8779260826096401 0.5061608942550779
12.3918984375 0.8913781111433319 0.5019898962769257
12.393046875 0.889133071232274 0.5059396428856453
12.3941953125 0.8913001061114693 0.49909118791810625
12.39534375 0.8920916566958714 0.5066571932759866
12.3964921875 0.8839598519321163 0.501889866453106
12.397640625 0.8915587975302665 0.49823512276242765
12.3987890625 0.8915648454228922 0.5061188525152335
12.3999375 0.8937285028339064 0.49980331697678737
12.4010859375 0.8790137966400434 0.5046503481619693
12.402234375 0.8797850797200616 0.5075139164420733
12.4033828125 0.8785777590766137 0.5214077679976887
12.40453125 0.8897126525257602 0.5219309471078766
12.4056796875 0.8939997074869099 0.5254947759556101
12.406828125 0.906477024548249 0.5294178400370549
12.4079765625 0.9046079385080914 0.5225086704367954
12.409125 0.9111582502019392 0.5313338589858317
12.4102734375 0.909683425932536 0.5176255759219163
12.411421875 0.919935470438584 0.5176731305587339
12.4125703125 0.9205185033428769 0.5061971939975523
12.41371875 0.9205858401934717 0.5028097366087989
12.4148671875 0.9225542633690198 0.4997043659149662
12.416015625 0.9258568516362868 0.49313744903831747
12.4171640625 0.917753441494402 0.49499726316728027
12.4183125 0.9203300406484495 0.48713639584235996
12.4194609375 0.9162472034256526 0.48561354958851366
12.420609375 0.9249140643750199 0.4902702574019461
12.4217578125 0.927116621953189 0.4839084420589853
12.42290625 0.9221854756291105 0.47620719619064156
12.4240546875 0.9270014668485151 0.47261163666810335
12.425203125 0.920701882916563 0.47564367554211384
12.4263515625 0.9156476811577208 0.46606108717729955
12.4275 0.9133633780199061 0.4691934843525204
12.4286484375 0.9010686695456934 0.4743542925032035
12.429796875 0.9083479149145772 0.4756240425123218
12.4309453125 0.9070144762673908 0.4746802714273528
12.43209375 0.9126809508441096 0.4749728195509332
12.4332421875 0.9125634135538719 0.4706142547918395
12.434390625 0.911594075608351 0.46864192559596285
12.4355390625 0.9106467108443266 0.47104657932070004
12.4366875 0.9096539242593992 0.47481373397195936
12.4378359375 0.9069727739075802 0.47544166997769555
12.438984375 0.9039740533542263 0.47375761248477055
12.4401328125 0.9167352003268279 0.4642534602870202
12.44128125 0.903803418281466 0.4735092164724588
12.4424296875 0.9061306689804857 0.475160740364424
12.443578125 0.908294781717744 0.4694027029340486
12.4447265625 0.9032810488080154 0.4652591082437951
12.445875 0.8999405244286786 0.4677381216182931
12.4470234375 0.9091276797429388 0.47234334088821206
12.448171875 0.8960220179520141 0.46686954392719526
12.4493203125 0.9054313439443218 0.47669774010974153
12.45046875 0.8995618196081048 0.47444197911855146
12.4516171875 0.9052360254647679 0.4743362720873021
12.452765625 0.9022806218034295 0.4660587180045066
12.4539140625 0.9069968799785296 0.46754496643437604
12.4550625 0.8985053452593393 0.468297465271168
12.4562109375 0.8911761481265132 0.47013169888185036
12.457359375 0.9016883730717888 0.4730440385165944
12.4585078125 0.8992597869838467 0.47492995844154584
12.45965625 0.8927708437742996 0.47699615660036343
12.4608046875 0.8829951967122216 0.4784391270738271
12.461953125 0.8914166944344238 0.4733980818580834
12.4631015625 0.8933289278426533 0.4743039484853617
12.46425 0.8987283705697033 0.48024567277042607
12.4653984375 0.8916732971890334 0.48256437409517416
12.466546875 0.8964849193515345 0.48315027976014746
12.4676953125 0.8949812088625119 0.4753898477495505
12.46884375 0.909112279942354 0.4856683943526754
12.4699921875 0.9009958104157259 0.4763998247999981
12.471140625 0.9052444795148927 0.4854300278096697
12.4722890625 0.8962342355971404 0.4871442617431021
12.4734375 0.8993929687843856 0.4768743865362004
12.4745859375 0.8985609231363636 0.47647214372872326
12.475734375 0.8993129035947092 0.4776270695781988
12.4768828125 0.9073793404085596 0.4808895621265704
12.47803125 0.9018054974462502 0.48606348124849563
12.4791796875 0.9081172608140626 0.47818200247510134
12.480328125 0.9072426467611334 0.4825939642280085
12.4814765625 0.9115228449415946 0.4797744104019368
12.482625 0.9160434361944696 0.4775793750604598
12.4837734375 0.9194392470774546 0.4786092731325482
12.484921875 0.90810232881819 0.477763595023456
12.4860703125 0.9126333273328961 0.47952564838252676
12.48721875 0.9163742281928319 0.4760267690720479
12.4883671875 0.9189289374714121 0.4773145744010092
12.489515625 0.9225183135118004 0.4797711965969502
12.4906640625 0.9187103731959404 0.4715607519076559
12.4918125 0.9262581032588438 0.47011385031984976
12.4929609375 0.9223649020548064 0.4677225713303018
12.494109375 0.9299109958598566 0.4669865972490168
12.4952578125 0.9290461255287543 0.4642717018801501
12.49640625 0.9351609482669248 0.45313862494660473
12.4975546875 0.9311592961182689 0.450344935825177
12.498703125 0.9282330902690513 0.44827499699876105
12.4998515625 0.9283439137200897 0.45447067855348866
12.501 0.9316057050914224 0.4474183440017211
12.5021484375 0.9345841309993568 0.44400468966518525
12.503296875 0.9239622949498334 0.4393451734510532
12.5044453125 0.9293422860940128 0.437750175960944
12.50559375 0.9334960073894145 0.431803507382839
12.5067421875 0.9353309396561812 0.43200961584613773
12.507890625 0.9253960657977374 0.42516992867161685
12.5090390625 0.917109128709061 0.42114333811470805
12.5101875 0.9113435773024285 0.42137983700720194
12.5113359375 0.9071745343402248 0.4280875775042582
12.512484375 0.9101394361652823 0.4261853494768869
12.5136328125 0.9131780436689223 0.43683916557568825
12.51478125 0.91582338167626 0.42853505102498957
12.5159296875 0.91335593599596 0.43555444917956476
12.517078125 0.9167124351155664 0.4231115366995928
12.5182265625 0.9125327029617111 0.43224787777781004
12.519375 0.8990873261258028 0.4333345943024507
12.5205234375 0.8969835760018768 0.4375819762473636
12.521671875 0.9019712641821467 0.4335100865732622
12.5228203125 0.8906637559558862 0.4338977426991061
12.52396875 0.9085026691315952 0.44471909183661495
12.5251171875 0.9020471561044634 0.44252623610901265
12.526265625 0.9015791468324824 0.4291912781068242
12.5274140625 0.9069191634374906 0.4383108083870415
12.5285625 0.9068657567530611 0.43142887251868245
12.5297109375 0.9008501913132227 0.4414555520649758
12.530859375 0.9064196854274561 0.451047031593269
12.5320078125 0.9118595635227719 0.4482347575986285
12.53315625 0.9126961195199331 0.45143548482516627
12.5343046875 0.912428006470763 0.44860005952324533
12.535453125 0.9193439627389334 0.4423891906406202
12.5366015625 0.9216460724230975 0.44589688695245777
12.53775 0.9333238698291143 0.4374611933739294
12.5388984375 0.9166467138246653 0.42476363133863226
12.540046875 0.911704024356757 0.4193525369639869
12.5411953125 0.9199983129464195 0.4277824766115267
12.54234375 0.9068105914275072 0.4425571419289668
12.5434921875 0.9029030319621224 0.43274609279106213
12.544640625 0.9049572136828149 0.4298946800431217
12.5457890625 0.9042762859982899 0.4407299866931683
12.5469375 0.9079412557181796 0.42979738407016654
12.5480859375 0.911363747785768 0.4437377907571304
12.549234375 0.9064116714681141 0.4402396703470196
12.5503828125 0.9015479822864225 0.44614401114626734
12.55153125 0.9076954753280809 0.44831075302051515
12.5526796875 0.9099028798408336 0.4452334969199774
12.553828125 0.9129662164866579 0.4511898462859004
12.5549765625 0.9155740809361073 0.4510041964268091
12.556125 0.9134440940909805 0.44318433291561055
12.5572734375 0.9152779364746457 0.44665831345683926
12.558421875 0.919767468344703 0.4368558160492033
12.5595703125 0.9123752829655466 0.4372986834593303
12.56071875 0.9121559929955532 0.43818012820280083
12.5618671875 0.9149737668159372 0.439714138410202
12.563015625 0.9129121366075044 0.4362792276969779
12.5641640625 0.9122205209660991 0.43834735729696894
12.5653125 0.9118671486139702 0.4398308432239951
12.5664609375 0.9121887202326076 0.4325258333961436
12.567609375 0.9110919997635241 0.43031196053657894
12.5687578125 0.913389580046758 0.42982721429366755
12.56990625 0.9110374836869057 0.433743735905335
12.5710546875 0.9165316904793455 0.4326978864823655
12.572203125 0.9112752676993254 0.4299662186240405
12.5733515625 0.9100447601075689 0.42438736023083456
12.5745 0.9079137446995927 0.4211170551067459
12.5756484375 0.9177369046214099 0.4385751644731839
12.576796875 0.9214131344114119 0.4252516085503484
12.5779453125 0.9223897282351083 0.4181231999416608
12.57909375 0.9187700904128019 0.41971187615887795
12.5802421875 0.926750529576966 0.41034553082506864
12.581390625 0.9247804821465415 0.4165635063971366
12.5825390625 0.9303997485360465 0.40744821042813717
12.5836875 0.9147445691662744 0.40811215147846946
12.5848359375 0.9087737843386685 0.3974473268925055
12.585984375 0.9108954277468706 0.39295442882508025
12.5871328125 0.9080951508215999 0.3901422377520093
12.58828125 0.9089700983069906 0.4008363135186188
12.5894296875 0.9146891167018452 0.38701315796673075
12.590578125 0.9066003367841964 0.3953460582780163
12.5917265625 0.9046599475594681 0.38727897285565804
12.592875 0.893870514191818 0.37858041971458023
12.5940234375 0.9052223494873753 0.39024118598905844
12.595171875 0.9194628652032001 0.3954769136132066
12.5963203125 0.8998432086594779 0.39130884903601115
12.59746875 0.8976437512111193 0.3908705755986943
12.5986171875 0.8941792684576882 0.39201760050476664
12.599765625 0.8988751529739518 0.38149714672130264
12.6009140625 0.90496264728294 0.38764374320807515
12.6020625 0.8960674935463652 0.39060165618178044
12.6032109375 0.8946128225301226 0.38136527220158367
12.604359375 0.8968616923848817 0.39293166646738364
12.6055078125 0.9001167691485622 0.3793081367744626
12.60665625 0.8988584487266111 0.38552447878200935
12.6078046875 0.8865571157165884 0.38775473293748774
12.608953125 0.8793794815883633 0.3816842523387103
12.6101015625 0.8790727744230524 0.38813099570671605
12.61125 0.8829824939144777 0.39849199294334325
12.6123984375 0.8781281012943318 0.3837480298711553
12.613546875 0.8685928229156378 0.4016953834494563
12.6146953125 0.8769369996403429 0.3927698990317463
12.61584375 0.8701310544039733 0.3840220019737013
12.6169921875 0.8664449455943052 0.39372686422705194
12.618140625 0.866636501717339 0.4004069453405539
12.6192890625 0.8552478678120772 0.3893364752430071
12.6204375 0.8592626562473795 0.3961274855163368
12.6215859375 0.8644622287131892 0.400879587934974
12.622734375 0.8468533915334393 0.410941660449053
12.6238828125 0.852162684005821 0.40860784742093137
12.62503125 0.8592054457987557 0.41397136385882716
12.6261796875 0.8612722107213363 0.41276071931480174
12.627328125 0.8579359943044989 0.41640163524196905
12.6284765625 0.8564779290106279 0.4090064070561741
12.629625 0.8573393300137093 0.40406102175495207
12.6307734375 0.8492234951286785 0.40801240945433603
12.631921875 0.8512560433396825 0.40392276520567894
12.6330703125 0.8487927969288893 0.4129438178564375
12.63421875 0.8502471005930967 0.4080543301904864
12.6353671875 0.8466777724287122 0.41393243781588795
12.636515625 0.8430670597470229 0.414247541023294
12.6376640625 0.841610591178397 0.41314892688612814
12.6388125 0.8333413319812184 0.4191313410716957
12.6399609375 0.8361266935550097 0.4206514215509529
12.641109375 0.8433301725790954 0.42557306832416697
12.6422578125 0.8365781479073737 0.4390748649394134
12.64340625 0.8336246847527302 0.4377459728816888
12.6445546875 0.8366447341139847 0.43764272787221814
12.645703125 0.8309529494867812 0.44179520683812457
12.6468515625 0.8258729337919445 0.44912219087619354
12.648 0.822447189908136 0.4428876978162455
12.6491484375 0.826950342142804 0.44543161348772364
12.650296875 0.83891010869113 0.4533372002850449
12.6514453125 0.8410932119466353 0.46578348123739866
12.65259375 0.8546546660960412 0.4659240251797556
12.6537421875 0.8556912980220699 0.4681790124907712
12.654890625 0.8467813122830823 0.4849881013069899
12.6560390625 0.8579101997647292 0.48439414757250154
12.6571875 0.8616559078881242 0.47022584228707265
12.6583359375 0.8580665817549042 0.45243700645493967
12.659484375 0.8726629251936839 0.4722950837879041
12.6606328125 0.8720734793517808 0.4755697671105166
12.66178125 0.871882416711199 0.4706585634617295
12.6629296875 0.882698559443564 0.46361234687030484
12.664078125 0.8760192970041314 0.4594190558177055
12.6652265625 0.8763981212754509 0.4540194421022338
12.666375 0.8862925781240092 0.47422323474021777
12.6675234375 0.8836457123236882 0.45893955316913293
12.668671875 0.8898492718512057 0.47297064987888116
12.6698203125 0.8857886504726538 0.4573619162605589
12.67096875 0.8870301206588979 0.4688582935980976
12.6721171875 0.891792260847845 0.45879420604742693
12.673265625 0.893297855590425 0.45045912515522635
12.6744140625 0.8903251211788274 0.4561274237803231
12.6755625 0.8889040095325693 0.4453113552165874
12.6767109375 0.8884583867701158 0.4531596276519949
12.677859375 0.8908939551048654 0.45124169648082135
12.6790078125 0.8935644655227409 0.44529112260556825
12.68015625 0.8848378828959726 0.45753592587946246
12.6813046875 0.8878117349654027 0.4457788168003317
12.682453125 0.9017164370796413 0.4569481476021904
12.6836015625 0.9018098992639405 0.45985701019731295
12.68475 0.8954924732967259 0.45619862960864943
12.6858984375 0.9048423101602985 0.4586628167859095
12.687046875 0.9078473382141564 0.4666493363432086
12.6881953125 0.8970925703715418 0.45982173527007075
12.68934375 0.896385202338787 0.4594647768101374
12.6904921875 0.9080636401380684 0.47094669697278335
12.691640625 0.9163685743403343 0.4728854594507764
12.6927890625 0.9217063290518908 0.47590455900260276
12.6939375 0.9368341187269708 0.474618812806225
12.6950859375 0.934934713978761 0.4690942248216554
12.696234375 0.9352540859755192 0.4624113666723154
12.6973828125 0.94104234468538 0.4660417043203937
12.69853125 0.9298157804116722 0.45446158181617813
12.6996796875 0.9415341663278005 0.4563058465514118
12.700828125 0.9306552513503485 0.4508182865661985
12.7019765625 0.9393963119855393 0.45291240806802624
12.703125 0.9420068781547185 0.447055904187565
12.7042734375 0.9486725332005708 0.4445116223735468
12.705421875 0.9431636020839569 0.43940646596016075
12.7065703125 0.9478403577595409 0.436566581880276
12.70771875 0.9456952233453797 0.43951009923954687
12.7088671875 0.9460871426758981 0.4296545349061315
12.710015625 0.9443786199701578 0.4303408396862257
12.7111640625 0.9412237535904465 0.42706709171579393
12.7123125 0.9469596119925858 0.42198832002202624
12.7134609375 0.9367416344285268 0.4241029450078142
12.714609375 0.9351077542040325 0.4172171879428448
12.7157578125 0.9330357162207245 0.4197290711869448
12.71690625 0.9361545880428525 0.4135842169039704
12.7180546875 0.9372173349835353 0.4179670814503713
12.719203125 0.932192248195346 0.4118331479265376
12.7203515625 0.9305445742027102 0.41046532636267785
12.7215 0.9258006152019497 0.4024866619571954
12.7226484375 0.919244732632019 0.4021932509545526
12.723796875 0.9195198243104767 0.3969061534613876
12.7249453125 0.9209424541015083 0.40871129821682217
12.72609375 0.9105644295716605 0.40790783702983124
12.7272421875 0.9060142754807479 0.4103677521970278
12.728390625 0.8973675990849215 0.4092180082245984
12.7295390625 0.9037291417284665 0.411657636013691
12.7306875 0.9098677139436818 0.42405695000004995
12.7318359375 0.9164364171679154 0.41881884181568174
12.732984375 0.9158769604995263 0.4151507096985878
12.7341328125 0.9081706254672879 0.4168104732646857
12.73528125 0.9155497218417608 0.41252129337417764
12.7364296875 0.9119525502955389 0.4123923553803257
12.737578125 0.9136269005365608 0.41422609540720623
12.7387265625 0.9087631485317637 0.41470733067136323
12.739875 0.9030927625970958 0.41045866584145474
12.7410234375 0.9034097980413116 0.41585013741039356
12.742171875 0.9000395867280144 0.41688161622826647
12.7433203125 0.9117260544058534 0.41845009968077507
12.74446875 0.8964708000104291 0.40692321030044853
12.7456171875 0.9128078597861347 0.4168415953474566
12.746765625 0.9034504229962164 0.4208335049778421
12.7479140625 0.90939262675981 0.40908819518522577
12.7490625 0.9120384500779478 0.4086236373737666
12.7502109375 0.914001538614603 0.4195149860077685
12.751359375 0.9203060801592298 0.4109912757088532
12.7525078125 0.9066572189466859 0.41779217233169597
12.75365625 0.9074917185910012 0.40596210873894956
12.7548046875 0.9156246196284973 0.4036561152726016
12.755953125 0.9083419133107635 0.4133795473696268
12.7571015625 0.9185228035610801 0.4112941515805182
12.75825 0.9140236581699713 0.4056240819897019
12.7593984375 0.9105086269116975 0.4063339150595998
12.760546875 0.9153678648080481 0.405252628754331
12.7616953125 0.9073555356806332 0.40280071914566606
12.76284375 0.9154033036371039 0.40567908533232533
12.7639921875 0.9141153472865449 0.4037170250329849
12.765140625 0.9219711116424453 0.4064076318920583
12.7662890625 0.9142456337083492 0.40827861595590864
12.7674375 0.9059230124326897 0.4093969970843765
12.7685859375 0.9074794719817427 0.408568618966478
12.769734375 0.9103118845817483 0.4101226822486337
12.7708828125 0.9133359877895209 0.40565939085023617
12.77203125 0.9168721178778023 0.41266712009116735
12.7731796875 0.9160553258967045 0.40953325462096857
12.774328125 0.9171363496156948 0.40830101774935423
12.7754765625 0.9153812398646385 0.4084638249534529
12.776625 0.9129301697118967 0.40215185510487483
12.7777734375 0.9081659381806979 0.40426199155621945
12.778921875 0.9108051116036524 0.4108781338273102
12.7800703125 0.9098111394383859 0.41296543454651835
12.78121875 0.9111005414650115 0.4199323328211624
12.7823671875 0.9142296544587927 0.4153677878619566
12.783515625 0.9162646588724888 0.4176969258365616
12.7846640625 0.9153538357459514 0.4152536595517632
12.7858125 0.9151188272300105 0.420086414689367
12.7869609375 0.9153914275342894 0.4256639877036962
12.788109375 0.915336962366248 0.4107010436415254
12.7892578125 0.9224428048738504 0.41409055028141184
12.79040625 0.9205736194921441 0.41548522773345065
12.7915546875 0.9189348740967608 0.4120086921778594
12.792703125 0.9325737082047856 0.4255815968639751
12.7938515625 0.9231787975670058 0.42076799215600413
12.795 0.9340848955770162 0.42200383684858367
12.7961484375 0.9366186409542125 0.39999067995491777
12.797296875 0.9332455913240396 0.4020473077620227
12.7984453125 0.9169639138173006 0.4209450576809801
12.79959375 0.9251058287518942 0.4044921375739513
12.8007421875 0.9428756406294989 0.40333843621237964
12.801890625 0.9287388260578977 0.4151430997359802
12.8030390625 0.9324128055376931 0.4057742093814004
12.8041875 0.9150957438698594 0.41512958303109293
12.8053359375 0.9135205613831752 0.40488965330368887
12.806484375 0.9222668575758269 0.4072506167276402
12.8076328125 0.9096100779690868 0.3879223650943133
12.80878125 0.92546263136605 0.3957428706447198
12.8099296875 0.9319760226140977 0.40085600641903096
12.811078125 0.9362091316372301 0.40429385672455764
12.8122265625 0.9195699589201338 0.4056551111869363
12.813375 0.9286570484671925 0.41057956101752335
12.8145234375 0.9072729849368819 0.4054298558773479
12.815671875 0.9244999338334394 0.3943826840176047
12.8168203125 0.9131788877658218 0.41430948991800853
12.81796875 0.9051870691913916 0.406019578237127
12.8191171875 0.9384320963262969 0.40203110435006695
12.820265625 0.9298602994028775 0.3993511482379132
12.8214140625 0.9297898460213514 0.39001985257086536
12.8225625 0.9490754450833297 0.40167327032140954
12.8237109375 0.9234904713227141 0.3929011065358883
12.824859375 0.9358314210139387 0.3962553092145167
12.8260078125 0.9476258282497794 0.4021889084716693
12.82715625 0.9419783832887523 0.38173023644667325
12.8283046875 0.9350486017009674 0.3982865057538927
12.829453125 0.9413228215873727 0.39788143247237184
12.8306015625 0.9431764073276684 0.38055365217464054
12.83175 0.9345642656742641 0.37038769453065
12.8328984375 0.9400519297534884 0.3729972803553121
12.834046875 0.9259688429823011 0.38463037062046956
12.8351953125 0.9286590801001072 0.36694939339915167
12.83634375 0.9259243486530551 0.3723877023123925
12.8374921875 0.9267251143699992 0.3756045480366156
12.838640625 0.9300849957407487 0.37824977562737083
12.8397890625 0.916280067782554 0.37479437089355006
12.8409375 0.9176478514358932 0.3876033016683753
12.8420859375 0.915214525322374 0.3781131525107426
12.843234375 0.915819627605506 0.3777125235977402
12.8443828125 0.9232613917777721 0.37266188479672446
12.84553125 0.9294955677457939 0.3936454456863462
12.8466796875 0.9190312339822913 0.39060932044767627
12.847828125 0.9240941226454149 0.3796333534494336
12.8489765625 0.9187407401040575 0.38910978473669033
12.850125 0.9270883738086957 0.3882070023078418
12.8512734375 0.9170688459974441 0.3917373100601471
12.852421875 0.9187364650112924 0.39626792291925383
12.8535703125 0.9282296259528983 0.389075477696723
12.85471875 0.9197309171313655 0.39180917945669913
12.8558671875 0.9286369520870335 0.39968474639925333
12.857015625 0.9387224847549955 0.398308750919697
12.8581640625 0.9335940332551431 0.3906725218612691
12.8593125 0.9366959869687498 0.3875417968598581
12.8604609375 0.9370859096409936 0.3826709060337271
12.861609375 0.9338105817230472 0.37937553920679423
12.8627578125 0.9290805857032823 0.3820937762757154
12.86390625 0.9318662789347241 0.3844404309330093
12.8650546875 0.9350826113653734 0.38209370528135234
12.866203125 0.9267092145894837 0.38293030846082243
12.8673515625 0.9322332656116227 0.3800367669582667
12.8685 0.9236848216152116 0.3803516613015192
12.8696484375 0.9319566948004511 0.3853759593932644
12.870796875 0.9273070439575457 0.3915262898898906
12.8719453125 0.9290966382362764 0.39100530474585005
12.87309375 0.9319146546600134 0.3868697987730292
12.8742421875 0.9428140911600802 0.38551837366059427
12.875390625 0.9409946845958035 0.3887426535505901
12.8765390625 0.9396428839058859 0.38442243367120665
12.8776875 0.9425305197733989 0.37842986586110217
12.8788359375 0.9346393996661047 0.38560327944857675
12.879984375 0.9350956086135209 0.3807682717170572
12.8811328125 0.9396662996804062 0.38276145658765137
12.88228125 0.9353835515846398 0.38639184425161055
12.8834296875 0.9257455578616265 0.3782105875409174
12.884578125 0.9408808893405836 0.383691427504415
12.8857265625 0.9298837608920953 0.38762339968213666
12.886875 0.9300023451763505 0.37783302139196673
12.8880234375 0.93768488968662 0.381181742248498
12.889171875 0.9356463081822026 0.3699919108438079
12.8903203125 0.9394742262021731 0.3758892282080334
12.89146875 0.9397519048852514 0.37333337854654336
12.8926171875 0.9356105548018493 0.37909766451735605
12.893765625 0.9333696820350115 0.3755565153231397
12.8949140625 0.9349060275484805 0.3768739517638128
12.8960625 0.9326845891267583 0.3717812181340596
12.8972109375 0.935055894594317 0.37422568873626183
12.898359375 0.9309093196507893 0.3747419019711985
12.8995078125 0.9359666653019757 0.37078612675210176
12.90065625 0.9355029227059312 0.3687439611412032
12.9018046875 0.9327144138340449 0.36357715167197147
12.902953125 0.9248547602008304 0.36076395056009636
12.9041015625 0.9213973109115088 0.36523255630084395
12.90525 0.9242802405440771 0.3682547913428347
12.9063984375 0.9268017952792771 0.3640302108976785
12.907546875 0.9191493175637278 0.36394199473439204
12.9086953125 0.9137420376087488 0.37405304497187086
12.90984375 0.9117027312204846 0.3743929138209693
12.9109921875 0.9170786536713738 0.38317629321142244
12.912140625 0.9292387286507808 0.38091052754584465
12.9132890625 0.9242727483914304 0.37636907182852875
12.9144375 0.930402490667749 0.3771815205416962
12.9155859375 0.9342195961219518 0.374059636663834
12.916734375 0.9435508000482249 0.37980817194754235
12.9178828125 0.9427029403747348 0.36677510432356375
12.91903125 0.9369830281292918 0.3627145408626725
12.9201796875 0.9337362471054833 0.36183805371230315
12.921328125 0.9359234499944553 0.36024330674561744
12.9224765625 0.9341817219298996 0.3543264400543631
12.923625 0.9338143911697785 0.353195915140036
12.9247734375 0.9306620189019392 0.35149391591709145
12.925921875 0.9316033726207806 0.35556792798972525
12.9270703125 0.9322131259694046 0.3596171674545044
12.92821875 0.9344155060374002 0.35574195643578
12.9293671875 0.9323437117343416 0.35566243609233905
12.930515625 0.9350840295329862 0.3553601731819286
12.9316640625 0.9352772534470188 0.3549322755376825
12.9328125 0.9442992014086871 0.3477619844758019
12.9339609375 0.9377719333845114 0.347796589477505
12.935109375 0.9314018891855143 0.3492934219509716
12.9362578125 0.9202630178842732 0.35123269509844085
12.93740625 0.9181874379660199 0.3537557450607156
12.9385546875 0.9109107154580258 0.36182804256458
12.939703125 0.9169901004238402 0.366020186031473
12.9408515625 0.9162948990640316 0.3669382430784694
12.942 0.9309742157061349 0.3758877916401302
12.9431484375 0.9311636283997025 0.36949113017331253
12.944296875 0.9350189782482689 0.37091588774813333
12.9454453125 0.9354888019775315 0.36445171309988156
12.94659375 0.9396046856885182 0.36629928609543216
12.9477421875 0.9402790446735273 0.360097925390648
12.948890625 0.9414818620147412 0.3507543073161591
12.9500390625 0.9426707817032858 0.3517897300592982
12.9511875 0.942659107310102 0.3480438398017814
12.9523359375 0.9424245799217872 0.3484653408932865
12.953484375 0.9378091010633026 0.3514484506031968
12.9546328125 0.9420289798492927 0.3458421965944364
12.95578125 0.9358162565114038 0.33839126245259726
12.9569296875 0.934754370631817 0.33513350366257577
12.958078125 0.9346248758183553 0.3277513371120946
12.9592265625 0.9270211721585442 0.32660332047509977
12.960375 0.9228233743101559 0.3325509933434616
12.9615234375 0.9165395553621847 0.3324220893291831
12.962671875 0.9155373712530558 0.33630783279952436
12.9638203125 0.9111539353223232 0.3413540177178499
12.96496875 0.9129804472073602 0.3403217187751189
12.9661171875 0.9139561778580753 0.33692076410440486
12.967265625 0.9134542043236229 0.3416702382774146
12.9684140625 0.9167191026502985 0.3357637035556562
12.9695625 0.9179624757111196 0.33821411098544096
12.9707109375 0.9157736500321239 0.32482770579574916
12.971859375 0.9148055200839555 0.3229654235495397
12.9730078125 0.9083974845200671 0.3158398469327872
12.97415625 0.9089175169370943 0.3191153178372119
12.9753046875 0.8969237945493931 0.3133788085338548
12.976453125 0.8930469402230827 0.3132952138225261
12.9776015625 0.8785839349016213 0.3247812526314039
12.97875 0.8705408872986546 0.3201399028252183
12.9798984375 0.8705701459119857 0.3258176331320394
12.981046875 0.861672177287248 0.3360466956473489
12.9821953125 0.8621053315999639 0.34394493522870895
12.98334375 0.8709441618073146 0.3481979942202885
12.9844921875 0.8686012117249573 0.3421410033512424
12.985640625 0.8716083803318793 0.34848661220497656
12.9867890625 0.8631526499528406 0.3494415915892821
12.9879375 0.8709201016618413 0.3489010594814148
12.9890859375 0.8608621685657171 0.3579090374700098
12.990234375 0.8574337771390865 0.3523518188136471
12.9913828125 0.8660945181709327 0.36349221325986225
12.99253125 0.8598007268210646 0.3650620486696662
12.9936796875 0.8626747175520667 0.36488363104016164
12.994828125 0.8570788341389308 0.367755071830526
12.9959765625 0.8528703435332053 0.3704656544115176
12.997125 0.8497044430471236 0.3767777134839131
12.9982734375 0.856295962353393 0.3787610266528739
12.999421875 0.863597589561353 0.38747947859120535
13.0005703125 0.8576787615795695 0.3795348439382036
13.00171875 0.8573243193804038 0.3712323339688667
13.0028671875 0.8569234960423607 0.3859304243903571
13.004015625 0.8565055287209707 0.3951270844881225
13.0051640625 0.8572102270093942 0.4040735865093491
13.0063125 0.8596307504432608 0.4098679000358455
13.0074609375 0.8730202224191872 0.4163729775957412
13.008609375 0.8817603034098731 0.42351038829232757
13.0097578125 0.901090176729255 0.42555685251515407
13.01090625 0.907458496265003 0.41576590385945367
13.0120546875 0.9205733849522579 0.4033300177208713
13.013203125 0.9173225689558526 0.3880506268279792
13.0143515625 0.9205462950958774 0.38248740095500433
13.0155 0.9129185339919398 0.3811643998618386
13.0166484375 0.9101873163282073 0.3767138733781241
13.017796875 0.9110703467470352 0.3837182146890781
13.0189453125 0.8976795641154044 0.38052207866985954
13.02009375 0.901323745341873 0.38391737296702344
13.0212421875 0.8957431898754552 0.38267532028375195
13.022390625 0.8895533672793264 0.39417086494597897
13.0235390625 0.8879696113485797 0.4078071129980383
13.0246875 0.8899930414019043 0.4057000442497475
13.0258359375 0.8976428495688499 0.41374124064673024
13.026984375 0.9099104517094521 0.4150153844551829
13.0281328125 0.9273950074775363 0.41904344884974354
13.02928125 0.9239875660178816 0.42203182894242436
13.0304296875 0.9294894350931511 0.415823687770125
13.031578125 0.9332305444777258 0.41080195970572314
13.0327265625 0.9433589860162919 0.4026459621883429
13.033875 0.9519006820396656 0.4047372277778663
13.0350234375 0.9532796814035971 0.3909610365837607
13.036171875 0.9465677984302341 0.3883665870270391
13.0373203125 0.9519198393490413 0.37448330146576486
13.03846875 0.942635989942457 0.3695435408240046
13.0396171875 0.9394049529336945 0.3726235282014173
13.040765625 0.9345141520161463 0.3780919708183635
13.0419140625 0.9383221438726912 0.37767658392112746
13.0430625 0.9360206627524443 0.37067804297302775
13.0442109375 0.9310353342481142 0.36482769990404473
13.045359375 0.9330278640459171 0.3641273710216202
13.0465078125 0.9321312523015721 0.36916316824617723
13.04765625 0.9280925138045748 0.3720437370279381
13.0488046875 0.93125036166068 0.37733772007869687
13.049953125 0.9357889294080226 0.36938011872634746
13.0511015625 0.9277888913008346 0.3698181436002492
13.05225 0.9256164591505749 0.3669703486861993
13.0533984375 0.9276458914166051 0.36790364804260894
13.054546875 0.930252666651717 0.36811308527457604
13.0556953125 0.9273865975224804 0.3642011146302193
13.05684375 0.9178895147424956 0.3604375924441789
13.0579921875 0.9124261183801926 0.3604108368326662
13.059140625 0.9120143693708682 0.3645322721600741
13.0602890625 0.9168568753581068 0.3716079646644831
13.0614375 0.9166140791338206 0.3731234331947137
13.0625859375 0.9194819516538293 0.3707284471025588
13.063734375 0.9133508735852278 0.3677914997203975
13.0648828125 0.9135941531895418 0.3711547337337525
13.06603125 0.9184759090248648 0.37440053152791364
13.0671796875 0.9177940088317145 0.3813214634601956
13.068328125 0.918880836589097 0.3668304431786801
13.0694765625 0.9177067328108202 0.3710198565086238
13.070625 0.918387985054081 0.370895171957033
13.0717734375 0.9162578659735208 0.37442763148381175
13.072921875 0.9184026128188905 0.3797298689612524
13.0740703125 0.9204801428439959 0.3733851467520036
13.07521875 0.9255790918750696 0.3740738414885164
13.0763671875 0.9188938525592275 0.3771063652095485
13.077515625 0.9220364090889884 0.3789123452940271
13.0786640625 0.919827279714931 0.38533859696478806
13.0798125 0.9230969186247912 0.37565002434675177
13.0809609375 0.9284567820469586 0.37167360236087965
13.082109375 0.9284515294513843 0.3844991912871813
13.0832578125 0.9213975373028134 0.3882409157453871
13.08440625 0.930571724407708 0.38735442717956603
13.0855546875 0.9215418376971234 0.3804695498984999
13.086703125 0.928426352428467 0.3834645175584334
13.0878515625 0.9286700457418893 0.3921298025099193
13.089 0.9253319800407637 0.3913698503000734
13.0901484375 0.9313635145499977 0.39435808721017884
13.091296875 0.9363798012327563 0.38965426647979234
13.0924453125 0.9409416610918946 0.393216899452414
13.09359375 0.9499468759064545 0.391575559636273
13.0947421875 0.9487171536218619 0.39673010997126323
13.095890625 0.9464437877988265 0.3871347815853639
13.0970390625 0.9607568628413394 0.38302787901500035
13.0981875 0.9559500796593462 0.38835244559458043
13.0993359375 0.9657372474766379 0.38305176427057186
13.100484375 0.9648717126238863 0.3734278165566359
13.1016328125 0.9673506107776644 0.36956633877288436
13.10278125 0.965953487498637 0.36621603820317117
13.1039296875 0.9609198287666799 0.3634874221934847
13.105078125 0.9612704895085823 0.3703546170826565
13.1062265625 0.9641725755454047 0.36443932081465635
13.107375 0.9643450714971115 0.3627015485146237
13.1085234375 0.9634738694437601 0.35479911836941647
13.109671875 0.9605663867806873 0.3559195591500565
13.1108203125 0.9598777888065457 0.35414832860803536
13.11196875 0.9543080274265889 0.35487319090262737
13.1131171875 0.9556436936952223 0.3568102050412648
13.114265625 0.9537918351318141 0.35324065207607247
13.1154140625 0.9535892703467059 0.3576494657921106
13.1165625 0.9544338723263508 0.3592265308912139
13.1177109375 0.9580082858044686 0.3625452168291102
13.118859375 0.9560556839725802 0.36161894165693087
13.1200078125 0.9548306114027711 0.36144138294594674
13.12115625 0.9569726400487107 0.35620892889528943
13.1223046875 0.9627335229622599 0.35685306683105333
13.123453125 0.9585039289350403 0.35865868738860873
13.1246015625 0.957718526319899 0.3557400717830555
13.12575 0.958406422866886 0.35338150329760537
13.1268984375 0.9595892098174715 0.35419306891438224
13.128046875 0.9580731308962871 0.3527979175722319
13.1291953125 0.956456534226952 0.35555480579728244
13.13034375 0.9566954159383803 0.35498424586843735
13.1314921875 0.9582436176028024 0.3544516072872052
13.132640625 0.957380090921369 0.3534433370085845
13.1337890625 0.9581967300930199 0.35675772660890925
13.1349375 0.9569706176747604 0.35229849666772123
13.1360859375 0.9550612073925653 0.35054046981954073
13.137234375 0.9555770879792075 0.34995650018885444
13.1383828125 0.9542707059780933 0.3539879261600366
13.13953125 0.9537982315040721 0.3535096962470623
13.1406796875 0.9541796338074224 0.35473070530530026
13.141828125 0.9528479964864444 0.35423028548744895
13.1429765625 0.9521315796371261 0.35361865540935183
13.144125 0.9543726158474857 0.35776291257207227
13.1452734375 0.9576018148067432 0.35624150080776495
13.146421875 0.9593112821722158 0.35708928771032344
13.1475703125 0.9606339492200002 0.3551799576520091
13.14871875 0.9617743686120646 0.35346289891380156
13.1498671875 0.9610473073418346 0.3509790842160904
13.151015625 0.9593991754791458 0.3466657748885013
13.1521640625 0.9583158629410202 0.3446880349210708
13.1533125 0.9641936322849615 0.34603493409833813
13.1544609375 0.9613403446312893 0.3439599119868085
13.155609375 0.9612242710660124 0.3448196472730122
13.1567578125 0.960829803513686 0.3424004879239454
13.15790625 0.9622625859184888 0.34305005124374294
13.1590546875 0.9629854003766691 0.34129681446934895
13.160203125 0.9619508119536935 0.340215098502198
13.1613515625 0.9609147288410582 0.34077144012859645
13.1625 0.9589794071051305 0.3413082859020258
13.1636484375 0.958786850963135 0.34032375457818964
13.164796875 0.9608230716828583 0.3410971208963605
13.1659453125 0.9606013676453534 0.3413667130035024
13.16709375 0.962318418965031 0.33853664616596313
13.1682421875 0.9641948903074885 0.33541212078723065
13.169390625 0.9583467633642975 0.3343030078255791
13.1705390625 0.958657348799745 0.3332803999160786
13.1716875 0.9618202151497948 0.3293684483968705
13.1728359375 0.9583484584398704 0.33235365871473566
13.173984375 0.9587520728080059 0.3335960389618965
13.1751328125 0.957716195998958 0.3293872675517425
13.17628125 0.9559198820706356 0.33493942936802246
13.1774296875 0.9583444810662992 0.3313970423754542
13.178578125 0.9544945647139864 0.3317387742640654
13.1797265625 0.9571580858570726 0.33295673051348607
13.180875 0.955955583954245 0.3302362639653419
13.1820234375 0.9580683685339524 0.3358780904533085
13.183171875 0.9590149519594278 0.3341164502974696
13.1843203125 0.9598640075056534 0.3321560418975701
13.18546875 0.9608619895465658 0.33053013819393917
13.1866171875 0.9616193373248182 0.32961465471264195
13.187765625 0.9609922382165113 0.3318946657516286
13.1889140625 0.9605996046763743 0.3294837867814868
13.1900625 0.9589043362557805 0.3288013780856524
13.1912109375 0.9572188881824308 0.3290378583739661
13.192359375 0.95746536770553 0.3294638277829998
13.1935078125 0.9573633884095522 0.32915364152987364
13.19465625 0.9581519241800759 0.33394717428217413
13.1958046875 0.9595823368975531 0.33020921518491303
13.196953125 0.9619415254165637 0.3296960506973997
13.1981015625 0.9605348547921725 0.33097552663081864
13.19925 0.9621897912131941 0.3307926168427374
13.2003984375 0.9633459361795716 0.33182681018681415
13.201546875 0.9647761206097051 0.32874114386146686
13.2026953125 0.9631716955131575 0.3278514953767716
13.20384375 0.9647549063137218 0.3300849441079277
13.2049921875 0.9680589760124412 0.33259621341831147
13.206140625 0.9633728076615292 0.3308156349346908
13.2072890625 0.9656246415589738 0.33383742606691463
13.2084375 0.9665695792904229 0.3338309579332272
13.2095859375 0.9670908457866261 0.3303856869957852
13.210734375 0.9690864022405381 0.3270683635922472
13.2118828125 0.9700643200457654 0.3254678242534718
13.21303125 0.9712793775990196 0.32423011266201673
13.2141796875 0.9710257292786826 0.3222093905862202
13.215328125 0.9720003339379077 0.3218235526390548
13.2164765625 0.9735703911789154 0.31734480220812267
13.217625 0.9716878288566816 0.31250790610605983
13.2187734375 0.9707786080261027 0.3177352777842546
13.219921875 0.9662877899908028 0.3143879522917711
13.2210703125 0.9630969076939927 0.3135598325306064
13.22221875 0.9649248510428408 0.312017566946699
13.2233671875 0.9591950249066051 0.31309412130325537
13.224515625 0.962929273441453 0.3125161055864857
13.2256640625 0.9659812337503201 0.3149412005030242
13.2268125 0.9616737369305762 0.31423601305497784
13.2279609375 0.961477191042519 0.3188290979149545
13.229109375 0.9614076301788484 0.314821283358919
13.2302578125 0.9604812105502446 0.3143126034333006
13.23140625 0.9627745571007879 0.31724081260938286
13.2325546875 0.9572423880265227 0.3167080875584549
13.233703125 0.9608295482466414 0.32320112233071463
13.2348515625 0.9696135535295648 0.318580278579514
13.236 0.9653200554408078 0.3164782768229988
13.2371484375 0.9664279648196106 0.3160563983927864
13.238296875 0.9700454213109027 0.3145190182535462
13.2394453125 0.9655174279485594 0.3075854447541492
13.24059375 0.9671608881127786 0.3071757892497068
13.2417421875 0.9668660684448065 0.3097472842144556
13.242890625 0.9727177189618339 0.3048764874898596
13.2440390625 0.9700363022597679 0.30673605733666787
13.2451875 0.973861429566145 0.30229316205379636
13.2463359375 0.9727057737753079 0.298926965678287
13.247484375 0.9678068742283764 0.30820394797797124
13.2486328125 0.9679893093417324 0.304117726266639
13.24978125 0.9646517757701605 0.3012647104658662
13.2509296875 0.9640854263004477 0.3065952169032664
13.252078125 0.9638504740643632 0.2997817650446514
13.2532265625 0.9640001366548908 0.2976420652882676
13.254375 0.9643833862026842 0.2980565592609286
13.2555234375 0.9623630737584579 0.30020896308607026
13.256671875 0.9611073063497616 0.2995421612513608
13.2578203125 0.9630294316021328 0.2982024359195583
13.25896875 0.9618322645646148 0.29913313289621996
13.2601171875 0.9593657475514361 0.30028399455601384
13.261265625 0.9573332775230038 0.3046228183296118
13.2624140625 0.9576956768110927 0.3002950697882092
13.2635625 0.9593665969692644 0.3047143207291789
13.2647109375 0.9593447804849526 0.30406860570170724
13.265859375 0.9609754066071237 0.3038554115982546
13.2670078125 0.9609163766349845 0.3014695410836524
13.26815625 0.9589560934190745 0.3030901813902973
13.2693046875 0.9606772197389688 0.3036688356208058
13.270453125 0.9618118364793735 0.30299935395815186
13.2716015625 0.9600695330297799 0.304269704478117
13.27275 0.9586502644604522 0.3029849443505852
13.2738984375 0.9606834952020822 0.3035364170072279
13.275046875 0.9598809911109315 0.30606211061722965
13.2761953125 0.961249510050923 0.30599861161811315
13.27734375 0.9620467680140143 0.3068842313819571
13.2784921875 0.9605161678444094 0.30477368392978654
13.279640625 0.9633441638595014 0.3022971480824958
13.2807890625 0.9618556496443011 0.30252647099534724
13.2819375 0.9615585394874415 0.30318866122738697
13.2830859375 0.9605208869995647 0.30681917584293855
13.284234375 0.9606267840048135 0.3093400292661565
13.2853828125 0.9599845149042767 0.30920230172990165
13.28653125 0.9628295962566021 0.30811220975092385
13.2876796875 0.9651634343527883 0.3075645727805191
13.288828125 0.9662105702570478 0.30761436991997515
13.2899765625 0.9649548259009939 0.3081686953319831
13.291125 0.9668029365439009 0.308238748672345
13.2922734375 0.9649724005090284 0.3063290532956207
13.293421875 0.9650439389942381 0.30430246080703915
13.2945703125 0.9648009514042917 0.30350826798608954
13.29571875 0.9629700832766873 0.3038355809586153
13.2968671875 0.9634497447504178 0.3042745466257548
13.298015625 0.9622829354484376 0.30498637676333684
13.2991640625 0.9664750440852412 0.3034095359892207
13.3003125 0.9657027618987031 0.3058459029639818
13.3014609375 0.9656857038579028 0.30527773098586747
13.302609375 0.9650859869599155 0.3043118421719203
13.3037578125 0.9631108313104491 0.30630544476131943
13.30490625 0.9628453476383037 0.30535990725601037
13.3060546875 0.9630650564338901 0.30368388963273163
13.307203125 0.9645341013351048 0.3047332546024396
13.3083515625 0.963614865438545 0.30545451046760475
13.3095 0.9665275907999877 0.3065697031451759
13.3106484375 0.967315613909983 0.3080374715064312
13.311796875 0.9685067685151496 0.305604450199062
13.3129453125 0.9684911503269054 0.30632622406476895
13.31409375 0.9683937353872646 0.30636263082644605
13.3152421875 0.9688522034736111 0.3063102858928852
13.316390625 0.9709970109641978 0.305782799737099
13.3175390625 0.9721335788872408 0.3051740192824667
13.3186875 0.9731420270974629 0.30545849080558457
13.3198359375 0.9741978016038126 0.30204710708136245
13.320984375 0.973737439137655 0.3013398477061085
13.3221328125 0.9741037425164097 0.3000971112263869
13.32328125 0.9722596377010417 0.29916677621600163
13.3244296875 0.9741635546190877 0.29851633603596583
13.325578125 0.9733996845712385 0.2962876183011939
13.3267265625 0.9740087478699585 0.2959589563581696
13.327875 0.9741407197011475 0.2950814845980102
13.3290234375 0.9736030649010503 0.29348794119494637
13.330171875 0.97386953883335 0.29299984988104466
13.3313203125 0.9737415777815851 0.289459555931196
13.33246875 0.9731332326811989 0.2895974930040778
13.3336171875 0.9712962422347602 0.28820684406723107
13.334765625 0.9704390845179982 0.2890890333060623
13.3359140625 0.9699302749178602 0.2885817006047505
13.3370625 0.9690671161992479 0.2896043529601827
13.3382109375 0.9687419095822303 0.2894357937176391
13.339359375 0.9675324775487257 0.2888787398880057
13.3405078125 0.9687880248679446 0.2893605717383118
13.34165625 0.9676800929951677 0.2895242488479327
13.3428046875 0.9679905584294357 0.2889376973145166
13.343953125 0.9677846576505449 0.289297557465396
13.3451015625 0.9692146542119892 0.28954341629212155
13.34625 0.9685921164771794 0.2899888666272916
13.3473984375 0.9695981886154609 0.28884255825500393
13.348546875 0.9688591061007698 0.28812855469012577
13.3496953125 0.9700468548741319 0.288536536952693
13.35084375 0.9690957995508839 0.2869539076358825
13.3519921875 0.9697638193942992 0.2872403867039183
13.353140625 0.9690194254962816 0.287143096739417
13.3542890625 0.9687753931529355 0.2866469464165814
13.3554375 0.9676385757947372 0.2876527923829555
13.3565859375 0.965978364958923 0.28697699764000667
13.357734375 0.9658322664981859 0.28903929019743513
13.3588828125 0.9667439111725022 0.28949714875963306
13.36003125 0.9673554737376513 0.28902382892765155
13.3611796875 0.9685566590626415 0.28929841666551476
13.362328125 0.9680247113586153 0.2873455753071591
13.3634765625 0.9664975911091843 0.28779845860459813
13.364625 0.9676113463607967 0.2877520541556533
13.3657734375 0.965751045749323 0.2890864427076639
13.366921875 0.9664565198586299 0.29001575319551814
13.3680703125 0.9683675455677478 0.2913856553139998
13.36921875 0.9685575329164879 0.29106851328118727
13.3703671875 0.9692534249469107 0.28969396709565287
13.371515625 0.9694543249693082 0.28807279485026327
13.3726640625 0.9690905867075289 0.28825374119374414
13.3738125 0.9695056473572887 0.2877558444923239
13.3749609375 0.9697446370991364 0.2887395852935294
13.376109375 0.9701853992065226 0.2880418241750932
13.3772578125 0.969010507427521 0.28777073332447994
13.37840625 0.9686876087426795 0.2882595444676469
13.3795546875 0.9672967717470623 0.2889523290883124
13.380703125 0.9670401271843485 0.2899540384062381
13.3818515625 0.9691548608697893 0.2904665452306523
13.383 0.968625592436433 0.2918778891918437
13.3841484375 0.9690353326951587 0.2910880053723051
13.385296875 0.9706475109335618 0.29179810747985224
13.3864453125 0.970224163586863 0.290979339364845
13.38759375 0.9715199706373683 0.29109176445485185
13.3887421875 0.9738342317376226 0.2916590925734078
13.389890625 0.974561355139981 0.28994796094950337
13.3910390625 0.9746418138569852 0.2879290547740267
13.3921875 0.9739472746190668 0.28535026270641256
13.3933359375 0.9732026361435373 0.28684579479355077
13.394484375 0.9719775927153824 0.28786515401377455
13.3956328125 0.9734144006659669 0.2891661157411442
13.39678125 0.9743583654235402 0.2884510646828241
13.3979296875 0.9751874794773603 0.2898506990404338
13.399078125 0.9769498385867725 0.28919617523992314
13.4002265625 0.9757544651661507 0.28939967713194825
13.401375 0.9783448934925274 0.2891893271121644
13.4025234375 0.9771006726176578 0.2883330461216058
13.403671875 0.9764277036132576 0.2860248617113435
13.4048203125 0.977317390535486 0.2871579236712411
13.40596875 0.9799760312524306 0.28660858485261553
13.4071171875 0.9786612546423876 0.2852152565211399
13.408265625 0.9788768037629607 0.2852342653676412
13.4094140625 0.9804026468205802 0.2842843126014349
13.4105625 0.979352488222428 0.28462195138640156
13.4117109375 0.980158464733274 0.28305434097395943
13.412859375 0.9811118935558273 0.2818687701182946
13.4140078125 0.977835350516846 0.2831716982294299
13.41515625 0.9794340536721284 0.2828372746838951
13.4163046875 0.9813567667763671 0.28353166389122697
13.417453125 0.9796027832813112 0.28169195754890286
13.4186015625 0.9813669951227306 0.2806262969360759
13.41975 0.9817229976902263 0.2803937005108754
13.4208984375 0.9798958171903549 0.2806165021082654
13.422046875 0.9796983560397798 0.2799025348233757
13.4231953125 0.98194498457131 0.2806261166681171
13.42434375 0.9818639592895333 0.2789865167671275
13.4254921875 0.9820846743692817 0.2782751453636815
13.426640625 0.9822853484862684 0.2790287578351933
13.4277890625 0.9815586228008832 0.27843072229979404
13.4289375 0.9803999337215668 0.27937524600112373
13.4300859375 0.9820840292522177 0.2805663823961468
13.431234375 0.9835975867541392 0.2773072375851784
13.4323828125 0.9820188199847596 0.27601407650045506
13.43353125 0.9820834927904877 0.27882050126343283
13.4346796875 0.9800635654022498 0.27728009904059875
13.435828125 0.9799088135342728 0.2789551753864058
13.4369765625 0.9809759756770375 0.27862289256199874
13.438125 0.9829230461101035 0.27769190747635464
13.4392734375 0.9829570747678195 0.27701608132332367
13.440421875 0.9840374060959504 0.2783173656187038
13.4415703125 0.9840579760338662 0.27813310465650454
13.44271875 0.9818522992885577 0.27891669816230125
13.4438671875 0.9847708373577702 0.2771924657031647
13.445015625 0.9862381651310059 0.27754128151830526
13.4461640625 0.9859662636334386 0.2767712989396077
13.4473125 0.9853988903697651 0.27677841114856644
13.4484609375 0.9863394929096877 0.2769823683274493
13.449609375 0.986639103400837 0.2751429760024027
13.4507578125 0.9873155440435297 0.27453552317329843
13.45190625 0.986456840906394 0.27580915076349266
13.4530546875 0.9893593324363377 0.27576804432163665
13.454203125 0.9884453378938068 0.27482259692822514
13.4553515625 0.9893810147598954 0.27399300336975174
13.4565 0.9901712191744685 0.2724921080126497
13.4576484375 0.9894352735536658 0.2718451543152749
13.458796875 0.9895543532441808 0.2710943234614048
13.4599453125 0.9886950499567098 0.27171338722896854
13.46109375 0.9856572995388091 0.2696098251192066
13.4622421875 0.9886999547585432 0.2689927280983444
13.463390625 0.9891486976811595 0.267074483814966
13.4645390625 0.9875191715942404 0.2687528733531592
13.4656875 0.9868820150736466 0.26961829036103874
13.4668359375 0.9868210831841006 0.26894573683286116
13.467984375 0.9894429652756407 0.2684280946004218
13.4691328125 0.9878781409617903 0.2679738454371371
13.47028125 0.9871926340844261 0.2654572186368416
13.4714296875 0.9877608782913323 0.2665271868658042
13.472578125 0.9886360663306472 0.26716755585817453
13.4737265625 0.9886594810973337 0.2670138870611937
13.474875 0.9881844211435046 0.26552241030226553
13.4760234375 0.9864998244908122 0.26265696285113393
13.477171875 0.9884591154079494 0.2633105966968282
13.4783203125 0.9898002978152323 0.2635283587260796
13.47946875 0.9877834112759044 0.26428176923842345
13.4806171875 0.9901834638832182 0.26423577449678887
13.481765625 0.9897091490553095 0.2629688970796539
13.4829140625 0.9897885003703473 0.2629051466735422
13.4840625 0.9910732713349046 0.26171807019854837
13.4852109375 0.9897810879166375 0.26068164198903915
13.486359375 0.9890288077652472 0.25982780162093005
13.4875078125 0.9912468463519313 0.2595784180955794
13.48865625 0.9895052574346515 0.2597039514422681
13.4898046875 0.9888292058946929 0.2601757058378953
13.490953125 0.9885368864672341 0.2587558362265471
13.4921015625 0.9913432156823131 0.25923954663093574
13.49325 0.9896642397763817 0.2617007999187748
13.4943984375 0.9893804840017042 0.25653708892217236
13.495546875 0.9891236675117475 0.2582002558555062
13.4966953125 0.9888374895515611 0.25823750855245636
13.49784375 0.9889762576379724 0.25938242019595975
13.4989921875 0.9888743617729784 0.25882698955935896
13.500140625 0.9908821884414535 0.2579547260801117
13.5012890625 0.9899028810262179 0.25521707320399833
13.5024375 0.9896890283886333 0.25536924068079647
13.5035859375 0.9901080042191016 0.2561501477557769
13.504734375 0.9908764411660256 0.2557305873643506
13.5058828125 0.9924530068291205 0.2542147368113149
13.50703125 0.9912645507792075 0.2528503255067285
13.5081796875 0.9902545968411621 0.25258893142128824
13.509328125 0.9897730497631224 0.2541242883689666
13.5104765625 0.9886353228235558 0.25117053937411843
13.511625 0.9868381745608354 0.25176520783640044
13.5127734375 0.9859013630651555 0.2533180378548472
13.513921875 0.9877093802704717 0.25276578538599737
13.5150703125 0.9860735163783564 0.25263190698289817
13.51621875 0.9875348212368168 0.2564576374658441
13.5173671875 0.9882664962323641 0.2552893699710618
13.518515625 0.9892651801101031 0.25597026877863976
13.5196640625 0.991775349138619 0.25514280150684066
13.5208125 0.9910306423254908 0.2536071044084144
13.5219609375 0.9924085089542909 0.2515241320580177
13.523109375 0.9921363779143522 0.25018510522358894
13.5242578125 0.9928285826631609 0.2502799917130608
13.52540625 0.990865533803982 0.25114632548755217
13.5265546875 0.9912848563381222 0.2500736161530988
13.527703125 0.991816888621645 0.24872305481588977
13.5288515625 0.9920103930430081 0.2486533638702837
13.53 0.993439498827823 0.2485948593514645
13.5311484375 0.992626077221005 0.24610091022593653
13.532296875 0.9917590667325773 0.24584243845848042
13.5334453125 0.9919550058171089 0.24600963233067835
13.53459375 0.9930571040085614 0.24570535468920696
13.5357421875 0.9909573303240837 0.24288063044437158
13.536890625 0.9914163876792149 0.24265877524658616
13.5380390625 0.9904887779335878 0.2428109973728213
13.5391875 0.9889006167362924 0.24183856563008316
13.5403359375 0.9874543827402784 0.24099810330606708
13.541484375 0.9882762417712346 0.24144150554445964
13.5426328125 0.9883211517783845 0.24148537117748678
13.54378125 0.9872940865469381 0.24285087850344794
13.5449296875 0.987333271901979 0.24323527741288792
13.546078125 0.9856181574017253 0.2420366480408545
13.5472265625 0.9870389593406023 0.24193657554165832
13.548375 0.9891756295537059 0.24161253128756965
13.5495234375 0.9889405039892663 0.2393423326555979
13.550671875 0.988341423949795 0.23756479828290958
13.5518203125 0.9862134994652202 0.23773048788470078
13.55296875 0.985646866733636 0.23897289759630458
13.5541171875 0.9824352741588914 0.234675486746122
13.555265625 0.9830301057687806 0.23880123240646411
13.5564140625 0.9830058207901479 0.2393187566044656
13.5575625 0.9828509395776213 0.24065322455746918
13.5587109375 0.9833754276242521 0.2382362454245031
13.559859375 0.9798479998067886 0.23890581173970177
13.5610078125 0.9833084466281575 0.23903697520956307
13.56215625 0.9819179558365451 0.23768028284659323
13.5633046875 0.9827436120701762 0.23967712971615623
13.564453125 0.9825824843450028 0.23736765618075784
13.5656015625 0.9788547386634207 0.23602040768117877
13.56675 0.9808387184514644 0.23922873503823366
13.5678984375 0.9787675029206853 0.23790518359029222
13.569046875 0.9808282290085341 0.24007962594965104
13.5701953125 0.9794388647463184 0.24103817997312854
13.57134375 0.9799317123759347 0.24414304754842878
13.5724921875 0.9800837096353651 0.24388080207183083
13.573640625 0.9784780667197897 0.24729292491724775
13.5747890625 0.9816660165378367 0.24657314712528638
13.5759375 0.9821876454562948 0.24442091248320952
13.5770859375 0.9837633965749873 0.2461012362709255
13.578234375 0.9872664834524667 0.24579015260413267
13.5793828125 0.985250333784065 0.24476957193520205
13.58053125 0.98441381845301 0.2422978330988591
13.5816796875 0.9836337981895533 0.2433631193247829
13.582828125 0.9860967218622496 0.24224277811021033
13.5839765625 0.9854328624383668 0.24259175515330897
13.585125 0.9850481818898655 0.24297035030096958
13.5862734375 0.9858200841339327 0.2462352229249965
13.587421875 0.984392294327967 0.24410631309895653
13.5885703125 0.9853970516492541 0.243439259966707
13.58971875 0.9868745974076674 0.24337953967685566
13.5908671875 0.9877617196445617 0.24528034013162747
13.592015625 0.9876727336292862 0.24334391958208673
13.5931640625 0.9874582979902282 0.2423869596026635
13.5943125 0.9871838576797887 0.24455654784658432
13.5954609375 0.9911851056682599 0.2446067460397674
13.596609375 0.9914512046317906 0.24663087710974202
13.5977578125 0.992710622520147 0.24312788503071958
13.59890625 0.9931768302619067 0.24321971701042205
13.6000546875 0.9928632151518333 0.24116266187920282
13.601203125 0.9924197826250623 0.24118715004550215
13.6023515625 0.9921027805105136 0.2415308959737239
13.6035 0.9944990696303831 0.24103835776247956
13.6046484375 0.993374813142778 0.2404252598963671
13.605796875 0.992180060793442 0.23956368121049487
13.6069453125 0.9914165397764428 0.2390789539449737
13.60809375 0.9907542729830897 0.23590804070396015
13.6092421875 0.994092706469628 0.24146228637880168
13.610390625 0.9913546414298287 0.2390491013943517
13.6115390625 0.9922892868618206 0.23978091972040896
13.6126875 0.9931894809856954 0.239646704865073
13.6138359375 0.9921267029491705 0.23658401664453269
13.614984375 0.9945828069305827 0.23815916013755217
13.6161328125 0.9960027397940869 0.23539603266956766
13.61728125 0.9947472906859828 0.23604649850814569
13.6184296875 0.9939691010828056 0.23560637925019934
13.619578125 0.9942858944406486 0.23311300959928888
13.6207265625 0.9965223801597917 0.2334807187349061
13.621875 0.9968720151420788 0.23227687817808726
13.6230234375 0.9969769629763457 0.23128606134004487
13.624171875 0.9945176474189881 0.23229637475963538
13.6253203125 0.9933888990294102 0.23394413406384834
13.62646875 0.9949856868802767 0.2322482246619354
13.6276171875 0.9978846261251536 0.23329557732258577
13.628765625 0.9977465273289039 0.22989577280165047
13.6299140625 0.9943032066666246 0.22996948685093754
13.6310625 0.9944530007677127 0.22818971198378157
13.6322109375 0.9971802562187458 0.23312890992534135
13.633359375 0.9919356214506045 0.23253560366888987
13.6345078125 0.9963089842276948 0.23415578338181026
13.63565625 0.9973557515441813 0.233229237526264
13.6368046875 1.0014217574849764 0.23235298921626824
13.637953125 0.9966171562537744 0.23109900157679475
13.6391015625 1.0002224129635096 0.2263601323181661
13.64025 0.9964109419243621 0.22523478817905196
13.6413984375 0.9979001610621069 0.22586169950513046
13.642546875 0.999058992908585 0.22335571887688965
13.6436953125 1.000509346959348 0.23001928958778722
13.64484375 0.9972084716738113 0.22598576786042895
13.6459921875 0.9997554828901026 0.22240981887355754
13.647140625 0.9983074323489747 0.22210007108565682
13.6482890625 1.0015127694691097 0.22174261324845188
13.6494375 1.0010125662082197 0.21988670788383924
13.6505859375 1.0037705070520317 0.23023552329465335
13.651734375 0.9998637732026437 0.22366788942145663
13.6528828125 0.993959005146729 0.21826656585686713
13.65403125 0.9960788382760943 0.22109728731528613
13.6551796875 1.0011920367736373 0.22327791921663778
13.656328125 1.0008639613208672 0.22387124136731168
13.6574765625 0.9976865214583577 0.22603226573009977
13.658625 0.9911403290670158 0.22213282406993962
13.6597734375 0.9903965252810445 0.2199394411785799
13.660921875 0.9989779012776819 0.2223747321222703
13.6620703125 0.9963963296822858 0.22671609298080192
13.66321875 1.0015678228146583 0.22224986837115718
13.6643671875 1.0003261615323504 0.22288919402224278
13.665515625 1.0022125979778043 0.22202735508774882
13.6666640625 0.9964961593205885 0.225368870725994
13.6678125 1.000435725119718 0.21991512886573233
13.6689609375 1.0068960219630902 0.21475717961227514
13.670109375 1.0053032885959947 0.21929147015416686
13.6712578125 1.0022179948040857 0.21687897995775854
13.67240625 0.999334032063862 0.2165496816688328
13.6735546875 0.996596870100488 0.21361123101767507
13.674703125 1.0016570384055599 0.21340180972617248
13.6758515625 0.9988592316926256 0.2139587793501692
13.677 0.9967063975841651 0.21385548572785462
13.6781484375 0.9984989761662643 0.21044108292466285
13.679296875 0.9963063788317217 0.21096342589839429
13.6804453125 0.9940437543246061 0.21490934890232585
13.68159375 0.9955890641643106 0.21355423269149848
13.6827421875 0.9934246786030123 0.21222668487847096
13.683890625 0.9948340072928915 0.21299078264335447
13.6850390625 0.9918257127608817 0.2114100065182407
13.6861875 0.9879140912952651 0.21377840565835637
13.6873359375 0.9916576250386288 0.2142754875774115
13.688484375 0.9939285506709664 0.21555159902452464
13.6896328125 0.9892805010568755 0.21668656686796844
13.69078125 0.9895440008218623 0.214831424708953
13.6919296875 0.9908719619380135 0.2162566198796177
13.693078125 0.9917478740686261 0.2139205330316845
13.6942265625 0.9911100457462612 0.21624202810806759
13.695375 0.9917627729113481 0.21151386836842584
13.6965234375 0.9922584561879201 0.2115768007856748
13.697671875 0.9910296741760285 0.21013794843874078
13.6988203125 0.9894152180900929 0.2111255427672301
13.69996875 0.9864923554509044 0.2112055582468036
13.7011171875 0.9855018884073656 0.21121231519997846
13.702265625 0.9830199926975969 0.21172967845717294
13.7034140625 0.9830737833669037 0.2129496264969008
13.7045625 0.9815294308675642 0.21404742802314108
13.7057109375 0.981517789494101 0.21570735262368018
13.706859375 0.9827908386020042 0.21895071466691973
13.7080078125 0.9806672876823281 0.21952816061109942
13.70915625 0.9816985658386101 0.22044003444832638
13.7103046875 0.9841711175576813 0.22293380893492892
13.711453125 0.9832380051082683 0.22441522643106193
13.7126015625 0.9837083390358614 0.22482953038074593
13.71375 0.9852865787845863 0.225042433566205
13.7148984375 0.9872400629887187 0.22332806265772803
13.716046875 0.9879483171701146 0.22421188337744924
13.7171953125 0.9861265608787373 0.2253263499485827
13.71834375 0.9864339534045337 0.22672258474228146
13.7194921875 0.9883405347810538 0.22759601632693555
13.720640625 0.9908151421015294 0.22667922134764162
13.7217890625 0.9886963070566713 0.22767026546894142
13.7229375 0.9912914005635505 0.22809737863836027
13.7240859375 0.9936122538453471 0.22870834825066172
13.725234375 0.9939131873917787 0.22874103945266117
13.7263828125 0.9911398626161377 0.22935942379992869
13.72753125 0.9934574882980957 0.22937636048508447
13.7286796875 0.991454750730882 0.2335182786547983
13.729828125 0.9953762150231262 0.2329285491118271
13.7309765625 0.9957172591199275 0.23329227362853
13.732125 1.0006864688808779 0.2330182796529578
13.7332734375 1.0028569367738402 0.23361476873224424
13.734421875 1.0024544173508396 0.23107260020366208
13.7355703125 1.0048856248396212 0.22982019915876242
13.73671875 1.0064474873648033 0.22885358441575762
13.7378671875 1.0073013704437173 0.22340753190100693
13.739015625 1.0057302147445817 0.22634455530973902
13.7401640625 1.005529607731487 0.22953196769019393
13.7413125 1.0039722927269144 0.22687600025531218
13.7424609375 1.0081485859938224 0.22779856822413222
13.743609375 1.0098473002794486 0.2275363867753334
13.7447578125 1.0096349735122878 0.22791170754357148
13.74590625 1.016532457339623 0.22463915842953386
13.7470546875 1.0146317602025037 0.2226691294628936
13.748203125 1.015037799053749 0.22287869719488693
13.7493515625 1.0151442636573151 0.22238525236359546
13.7505 1.0185254796290564 0.21977306730994162
13.7516484375 1.01584787297372 0.2204850731333562
13.752796875 1.0177805199256607 0.2184837097041924
13.7539453125 1.015329780155721 0.213988816239243
13.75509375 1.0161878132089697 0.21697202039624236
13.7562421875 1.0171484584184727 0.21466172656704519
13.757390625 1.0187366950187806 0.215382152778597
13.7585390625 1.018293028605334 0.21575375757815118
13.7596875 1.020722048053747 0.21506671411911374
13.7608359375 1.0220889946682306 0.21247819426469036
13.761984375 1.0217617403496817 0.20886635403997156
13.7631328125 1.0219972661615289 0.2089094079365296
13.76428125 1.0234367806142446 0.2053372566610085
13.7654296875 1.0227165598947823 0.20518026837927492
13.766578125 1.0208310949133812 0.2050587717604671
13.7677265625 1.021237105972077 0.20344436395608587
13.768875 1.0215490072747793 0.2004472411852217
13.7700234375 1.0189010157772698 0.1974785065924688
13.771171875 1.019776651438355 0.1973242881182951
13.7723203125 1.0158937565498403 0.19736482077338965
13.77346875 1.0126286890120615 0.19823238660487935
13.7746171875 1.0150039097233963 0.20235910306801147
13.775765625 1.0126473788516077 0.201351185504684
13.7769140625 1.013457390533822 0.20217591946053426
13.7780625 1.014783135792959 0.20146378977575616
13.7792109375 1.0165143726517836 0.20058945969367015
13.780359375 1.0172413494913748 0.20138169530281408
13.7815078125 1.0181425881660375 0.1967334711038682
13.78265625 1.0196379242271112 0.196027240665172
13.7838046875 1.0156182119721038 0.19532026213484693
13.784953125 1.015853564430399 0.1932573929294794
13.7861015625 1.0156959039868285 0.1950332788417476
13.78725 1.0169488767342956 0.19622560909241313
13.7883984375 1.012278461783302 0.1991985958556321
13.789546875 1.014992013783019 0.1975505666879892
13.7906953125 1.0157473009627354 0.19553990499642596
13.79184375 1.0138855656857508 0.19065586304408927
13.7929921875 1.0113170252713017 0.19985824745522865
13.794140625 1.0134772139492103 0.1971202809646045
13.7952890625 1.012683984273699 0.19911959417653732
13.7964375 1.01442176956294 0.1975026918312221
13.7975859375 1.0146413857447394 0.19710974783290017
13.798734375 1.0169221484608477 0.19893893707996102
13.7998828125 1.017951570974191 0.1994037192614317
13.80103125 1.0155689737899096 0.20147938656530562
13.8021796875 1.019869257597473 0.19943043900956622
13.803328125 1.0202651696212643 0.1949318808248085
13.8044765625 1.0206974804943585 0.19340349902342852
13.805625 1.0200333788490805 0.19434718750219965
13.8067734375 1.0183579856103464 0.19218679698630348
13.807921875 1.0180336352564863 0.19590232785359113
13.8090703125 1.0176483116163828 0.19301006684114894
13.81021875 1.0183227494831046 0.19248413350195814
13.8113671875 1.015562581556516 0.19306088302542318
13.812515625 1.0154422392687708 0.19402910645851368
13.8136640625 1.0143821635102404 0.19363042355593074
13.8148125 1.0164520493201312 0.1922926951759622
13.8159609375 1.0119030191037868 0.19515055695583905
13.817109375 1.0155110946482875 0.19558307004584163
13.8182578125 1.0185062792788346 0.1960039052666248
13.81940625 1.0156760314907616 0.19902051797201448
13.8205546875 1.0187582377221518 0.1973379486427822
13.821703125 1.0195690175839833 0.19215353566407256
13.8228515625 1.0182850944301662 0.19671526307795667
13.824 1.0227255557192392 0.19214150995660106
13.8251484375 1.0239982303717785 0.19125898751113424
13.826296875 1.0241523494578675 0.18873755510286894
13.8274453125 1.0241419625865462 0.19211457371301832
13.82859375 1.021154884443623 0.18820758736898358
13.8297421875 1.021060199695774 0.18605927827037816
13.830890625 1.024373287702915 0.18848190376768847
13.8320390625 1.0239599320687807 0.1865706257327202
13.8331875 1.0240251757315966 0.1878707972355772
13.8343359375 1.0210580217471863 0.19161379589326155
13.835484375 1.0207001546674521 0.18979578996369362
13.8366328125 1.022128757581379 0.1919896620879652
13.83778125 1.0222577102573451 0.1925468802886825
13.8389296875 1.0230591908438755 0.19295948901390025
13.840078125 1.027373643143727 0.19257484878119224
13.8412265625 1.0262885132202175 0.18722096765771545
13.842375 1.0259772016551754 0.18770115489307215
13.8435234375 1.0275972479464526 0.18476112307862202
13.844671875 1.023693001814956 0.18643652158380375
13.8458203125 1.0244297325946303 0.1835710132542988
13.84696875 1.026140188275345 0.1838387394143537
13.8481171875 1.021765931476276 0.18251217696245492
13.849265625 1.017990850358101 0.18521401698913043
13.8504140625 1.0213363943438267 0.18540530733442007
13.8515625 1.0210805914686378 0.18326954864836653
13.8527109375 1.0250240454359296 0.18476630507531633
13.853859375 1.0272780081110806 0.18470592881661585
13.8550078125 1.023359313871275 0.18250538916030878
13.85615625 1.024161891153346 0.18135305744929153
13.8573046875 1.0253303742481985 0.18781695197701365
13.858453125 1.024637008680192 0.18591720359559116
13.8596015625 1.0208024499123236 0.18375694679481303
13.86075 1.021294492740838 0.18679225924046805
13.8618984375 1.0214861406944569 0.18658702135003258
13.863046875 1.0239773668949284 0.18932930481237864
13.8641953125 1.0243219178888467 0.19154565591988093
13.86534375 1.0265118173210264 0.18714067900675302
13.8664921875 1.0285436828215007 0.18825784495253484
13.867640625 1.025197300891301 0.18643160998653752
13.8687890625 1.02855138612097 0.1877568999486423
13.8699375 1.0274979396091095 0.18464966622309442
13.8710859375 1.0267832220277708 0.18618197677297044
13.872234375 1.0279327568470125 0.18837980468187776
13.8733828125 1.0281245845490172 0.1859350426184888
13.87453125 1.0301434741850235 0.18624050067356268
13.8756796875 1.0327697397861855 0.18409353014434726
13.876828125 1.0334418551948497 0.18284254830611435
13.8779765625 1.0355672154693094 0.18290745396789787
13.879125 1.0362629781416273 0.18098693725244885
13.8802734375 1.037643872529428 0.17834239191914136
13.881421875 1.0382895871326152 0.17767087684062732
13.8825703125 1.0355198916820259 0.17531751673399076
13.88371875 1.0376218369363837 0.1747083852596455
13.8848671875 1.0365591443844713 0.17267064686106892
13.886015625 1.035779861735851 0.1703468622517641
13.8871640625 1.0339776572864752 0.1712151544554471
13.8883125 1.0330586919697435 0.16687702350941847
13.8894609375 1.0338673323023013 0.16589594517939743
13.890609375 1.0326553254096218 0.16738063273513637
13.8917578125 1.0311427383978502 0.16948429831160672
13.89290625 1.0318858218850646 0.16587905193727648
13.8940546875 1.0321687585820165 0.16650818707317772
13.895203125 1.03174917596016 0.16511913204976297
13.8963515625 1.0308977887993533 0.1636801384772103
13.8975 1.0313321350684932 0.16259862841762313
13.8986484375 1.0303860522635726 0.16326163285568712
13.899796875 1.0273785767784454 0.16156923316883104
13.9009453125 1.0262209076058626 0.1619942530447553
13.90209375 1.0291211183779942 0.1622372628328787
13.9032421875 1.0300384406376117 0.16119623377921943
13.904390625 1.0290755403098222 0.1603770410203108
13.9055390625 1.026684348501965 0.1631646486483439
13.9066875 1.0263933591784897 0.16295544138091367
13.9078359375 1.0247151419863472 0.16120613201486
13.908984375 1.025829183598344 0.16202866759600537
13.9101328125 1.0253766413334597 0.16069095070243195
13.91128125 1.0255711424849252 0.15791036354097165
13.9124296875 1.0230411654645577 0.15912202910074624
13.913578125 1.0244114078950373 0.15887540124023558
13.9147265625 1.021834865880981 0.15953902542136705
13.915875 1.022827612373465 0.15878329874004832
13.9170234375 1.0244770462400006 0.1567328082372147
13.918171875 1.0231496977156134 0.15766960059856414
13.9193203125 1.0222486016194148 0.1561483817953375
13.92046875 1.0186193786130577 0.1583075725753384
13.9216171875 1.018876740529196 0.15825698812619954
13.922765625 1.0195168172204274 0.15767468107127097
13.9239140625 1.0168098093983804 0.15668786251706046
13.9250625 1.0166500568216306 0.1573524802984977
13.9262109375 1.0135295747220037 0.15806131461817494
13.927359375 1.0163392823731214 0.15763671456175787
13.9285078125 1.01647357719173 0.15892627521460487
13.92965625 1.015546189904657 0.1603881055816981
13.9308046875 1.0136231290401556 0.1574840352444829
13.931953125 1.0132208025914597 0.15938566740844826
13.9331015625 1.0117080956267763 0.15892782616858078
13.93425 1.0124793193837973 0.16078432025497374
13.9353984375 1.014373526588191 0.16016442893760235
13.936546875 1.0124835419483647 0.16071425293759328
13.9376953125 1.011399814578033 0.16124782869960297
13.93884375 1.0105292745372938 0.16020157022468728
13.9399921875 1.0098627234472346 0.16213360260622528
13.941140625 1.009962130331838 0.16089327406514203
13.9422890625 1.007236522948594 0.16086009579008154
13.9434375 1.007366082409983 0.16576533300023705
13.9445859375 1.0069525597150843 0.16428466492679872
13.945734375 1.008913202349837 0.16798127037061938
13.9468828125 1.0077251913591274 0.16738628723389437
13.94803125 1.0066836176376441 0.17027413400902114
13.9491796875 1.0081348530141112 0.17306496446816455
13.950328125 1.0060658790343322 0.17392161564867709
13.9514765625 1.0092480257269576 0.1755585204728065
13.952625 1.0100036905685221 0.17456007063531254
13.9537734375 1.0077540571099755 0.17340604826762135
13.954921875 1.010482888391369 0.1782209382671487
13.9560703125 1.0093400316876617 0.17911168023608653
13.95721875 1.0113165209772277 0.18305564944183594
13.9583671875 1.0103630443624894 0.18594434676382865
13.959515625 1.0116876493150342 0.18726080084250785
13.9606640625 1.0141392623241217 0.186454001799775
13.9618125 1.0172892851118127 0.1921659985118408
13.9629609375 1.0210468033875701 0.19269402628885723
13.964109375 1.0228930211458171 0.19031255865903451
13.9652578125 1.023166423016494 0.18994285133114064
13.96640625 1.0297232065894735 0.19115738395172666
13.9675546875 1.0288348192921988 0.19021723859596285
13.968703125 1.0301033704652882 0.18802474135105463
13.9698515625 1.0329514800974868 0.1886807359722713
13.971 1.0342877996248412 0.19044997336962655
13.9721484375 1.034731732924795 0.18621464334689697
13.973296875 1.038565010873893 0.1803852203834485
13.9744453125 1.0406654523350634 0.1843762715573538
13.97559375 1.040265741427742 0.18119531551015255
13.9767421875 1.0447513116391938 0.17915985420847025
13.977890625 1.0428446696168734 0.18108039544350585
13.9790390625 1.043366470693945 0.17728004919800622
13.9801875 1.0446577127385572 0.170999358580191
13.9813359375 1.0470994489158516 0.17233374003934676
13.982484375 1.046344186052826 0.1703443501277142
13.9836328125 1.0464479428489195 0.16790150927960623
13.98478125 1.0505664382822175 0.16524275818771694
13.9859296875 1.042738729009361 0.16239081125556054
13.987078125 1.0446675364872526 0.16251947951393164
13.9882265625 1.0462667100956429 0.16032811496549737
13.989375 1.0437183126140719 0.16502742251305536
13.9905234375 1.0471087357510562 0.1643597227130711
13.991671875 1.0468444835820883 0.16523275058782505
13.9928203125 1.0446102479606272 0.16347224076543898
13.99396875 1.046362837126947 0.1605986773015945
13.9951171875 1.045021139399409 0.157380311513186
13.996265625 1.0455719572994184 0.16045211949336646
13.9974140625 1.0460628483932215 0.15905293792225217
13.9985625 1.0431261021923226 0.15568060514246018
13.9997109375 1.0475077917103464 0.15552760304310576
14.000859375 1.044570887649269 0.15379165777879034
14.0020078125 1.0448406471953486 0.15249184174669883
14.00315625 1.0471002238864455 0.15247279766267663
14.0043046875 1.0439142441397313 0.15384602405936498
14.005453125 1.0414281646895942 0.14989085814763392
14.0066015625 1.0408824378972348 0.14975503392743195
14.00775 1.0389776767090197 0.14949222937729112
14.0088984375 1.03903396670596 0.15132650516363733
14.010046875 1.0362948008159836 0.15055664240293087
14.0111953125 1.0365400757405696 0.15453573845587187
14.01234375 1.0386795858854012 0.1521833401194076
14.0134921875 1.037277618169253 0.1513585193536997
14.014640625 1.0368334461613757 0.15330391892287432
14.0157890625 1.0403491257069528 0.15239735217937134
14.0169375 1.0401086455481305 0.14950010957530646
14.0180859375 1.0404849199906916 0.15109838877615356
14.019234375 1.0411713383744825 0.15296636940226926
14.0203828125 1.0429558141053537 0.15046800440890007
14.02153125 1.0450717026542913 0.1511246910761488
14.0226796875 1.0458415583256042 0.14988722931056087
14.023828125 1.0507387872361242 0.14577913129355413
14.0249765625 1.0452306457493505 0.14716782852352783
14.026125 1.0460780075843283 0.14671577817046144
14.0272734375 1.0458120820912862 0.1479279088466554
14.028421875 1.0431901671784842 0.13946023857470102
14.0295703125 1.0429587297700365 0.14544939092439446
14.03071875 1.0428543219167856 0.1461800197683698
14.0318671875 1.0452217889978166 0.14164057736561575
14.033015625 1.0469812829723308 0.14628996272300976
14.0341640625 1.0464365496595611 0.13923628076726746
14.0353125 1.0479665277996313 0.13579230186483104
14.0364609375 1.0399628812356858 0.13477893735844326
14.037609375 1.0413053984490666 0.13335488504916704
14.0387578125 1.0384568265377916 0.1342941936914126
14.03990625 1.0394100745255757 0.12935869101907216
14.0410546875 1.0358055577860228 0.1336386742719754
14.042203125 1.0347257445397402 0.13659741523742452
14.0433515625 1.0292353908734302 0.1398082767883213
14.0445 1.0352088090406601 0.13514682317377602
14.0456484375 1.035803649608365 0.13853940965351086
14.046796875 1.0457526201962817 0.13314166193718158
14.0479453125 1.0359131797703487 0.12893927202044642
14.04909375 1.028988683393818 0.12950221773208392
14.0502421875 1.0357516798311097 0.13580158504922257
14.051390625 1.026775207404983 0.1309094682092109
14.0525390625 1.0305208005260655 0.12471527407741467
14.0536875 1.0277427890571713 0.12789340428164075
14.0548359375 1.0297775442050046 0.13192618593785188
14.055984375 1.0258601075116531 0.1355092309584458
14.0571328125 1.0236177654973535 0.13016995319176483
14.05828125 1.0229540275220237 0.1328394059964495
14.0594296875 1.0215060924081594 0.135188650940121
14.060578125 1.0264079286730365 0.13033522591570235
14.0617265625 1.0252034668168435 0.13529282484348126
14.062875 1.026989386613376 0.13666879872637872
14.0640234375 1.0291990808110065 0.1405569635583399
14.065171875 1.0314267398786183 0.1362508605088587
14.0663203125 1.0269723156854509 0.1377385693563098
14.06746875 1.0247079912800716 0.14244398323788443
14.0686171875 1.0262465426085714 0.1407687874433542
14.069765625 1.0292166218741852 0.14347552671049502
14.0709140625 1.0288072268141288 0.14158945155370473
14.0720625 1.0310142186998255 0.1441106109966026
14.0732109375 1.030962595455071 0.1410576622340376
14.074359375 1.0352814577572838 0.1409584849175466
14.0755078125 1.033205122515009 0.13907108167743631
14.07665625 1.0257465083244268 0.13986686938078496
14.0778046875 1.0304814212363778 0.14257323908054875
14.078953125 1.0319012313732154 0.14031503810285506
14.0801015625 1.0276627805213778 0.13942023211866406
14.08125 1.0327230505771898 0.14125263173337188
14.0823984375 1.0359453659793383 0.13949701585825036
14.083546875 1.035788311168437 0.14049998735053082
14.0846953125 1.037204142044971 0.13939350755739777
14.08584375 1.0363712866937873 0.14191801235730028
14.0869921875 1.042468941667798 0.13719912460768247
14.088140625 1.042686502252065 0.13336737303855783
14.0892890625 1.0398456055821343 0.1327855006335864
14.0904375 1.0373407240046297 0.13291607153246454
14.0915859375 1.037316394084079 0.1326400347828085
14.092734375 1.038610301855727 0.13466443982127374
14.0938828125 1.0394442335121914 0.1328072279336715
14.09503125 1.042569811644069 0.13420084073465866
14.0961796875 1.0444929723810568 0.13137351635268535
14.097328125 1.0441049104855042 0.1299743660317132
14.0984765625 1.045009092039682 0.12926014116143414
14.099625 1.0439682161855397 0.12890701962839968
14.1007734375 1.0455467704899422 0.1253930989884311
14.101921875 1.040659717092293 0.12219690670868721
14.1030703125 1.039884789612404 0.12320973627217469
14.10421875 1.0420258866716217 0.12177671407207624
14.1053671875 1.041302140558326 0.11946158627848258
14.106515625 1.0436654819250033 0.11607354668227599
14.1076640625 1.0422060133205089 0.11495185516926743
14.1088125 1.0400272134047617 0.11588255036861206
14.1099609375 1.037583366829251 0.11566087427279836
14.111109375 1.0380938118357819 0.11407601513830823
14.1122578125 1.0352269752549816 0.11129886200657535
14.11340625 1.0357562239557212 0.11218756501384985
14.1145546875 1.0306034813326717 0.11228561769140455
14.115703125 1.0348293726116937 0.11329571328643995
14.1168515625 1.0287776059442357 0.11404594239441557
14.118 1.0296590435700796 0.11430283142282716
14.1191484375 1.0287742800775586 0.11577266545460951
14.120296875 1.0267364852016412 0.11297057178795056
14.1214453125 1.0271769137105493 0.10853599157089422
14.12259375 1.0231852126850378 0.1084707211863668
14.1237421875 1.0250637576343016 0.11437741216771546
14.124890625 1.0218404493255944 0.11365943517994237
14.1260390625 1.0185338785343991 0.11717592556116152
14.1271875 1.021444483203219 0.11233683804944006
14.1283359375 1.017557744972493 0.1186921933454741
14.129484375 1.0196383162778977 0.12068372429479879
14.1306328125 1.0169334581775717 0.1152033020920954
14.13178125 1.0225492683148292 0.11285266473348343
14.1329296875 1.016878980684861 0.11649637934734469
14.134078125 1.0144041600665719 0.11756589866373324
14.1352265625 1.0161263402049143 0.12106015576562046
14.136375 1.010389556354693 0.12164293406410176
14.1375234375 1.0132512580195205 0.12286754211867879
14.138671875 1.0107989127825932 0.12390433350462504
14.1398203125 1.0152638044637232 0.12873770571278775
14.14096875 1.0148024779143503 0.1253914460227299
14.1421171875 1.0132545424750923 0.12568231683446007
14.143265625 1.008077927047884 0.12667683674096386
14.1444140625 1.00724346351894 0.1207690393524995
14.1455625 1.0090717858611469 0.12255949696339674
14.1467109375 1.0081113681119276 0.12087279475667978
14.147859375 1.0080228270285203 0.12612737112348715
14.1490078125 1.008394817135604 0.12727479541067965
14.15015625 1.0090280129251668 0.12635348402865154
14.1513046875 1.0084129588732713 0.12853419211396566
14.152453125 1.0095597280004533 0.1282265357139819
14.1536015625 1.0069510166053077 0.12868126066006336
14.15475 1.0062738986121744 0.12721327569343266
14.1558984375 1.0001187718277054 0.13232529187648645
14.157046875 1.0009601939399295 0.13600660614737603
14.1581953125 1.0057738275958032 0.13251151798269567
14.15934375 1.0021095879833344 0.13420079372035376
14.1604921875 1.0029682095428079 0.13623977874159765
14.161640625 1.0004662721813915 0.13682786974374095
14.1627890625 1.000591940390702 0.14265058749225668
14.1639375 1.0016664287207289 0.14703040862832095
14.1650859375 1.0031858072961037 0.14595440691637995
14.166234375 1.0009583930481882 0.14838811059145873
14.1673828125 1.0018741279041243 0.15169344627244274
14.16853125 0.9974086757475565 0.15061810841023393
14.1696796875 1.001576462174686 0.15186982256864834
14.170828125 1.0045779228041698 0.15406157449933366
14.1719765625 1.0049633281585115 0.15027735784491325
14.173125 1.0029197026932313 0.1530711522718442
14.1742734375 1.000968516801246 0.15677443889832798
14.175421875 1.0025089835128622 0.15767960257722236
14.1765703125 1.004903654850757 0.15623032939284043
14.17771875 1.0049283000981402 0.15550935467225768
14.1788671875 1.0055778163252094 0.15757809995692484
14.180015625 1.003785667294605 0.15710131984137599
14.1811640625 1.0035707232863198 0.15678576404213773
14.1823125 1.0042233214616132 0.1575433463158653
14.1834609375 1.0060732420689216 0.15876270418197524
14.184609375 1.0016300765490591 0.161691067405338
14.1857578125 1.0016643051710563 0.16363461416652458
14.18690625 1.0030107957415926 0.16380922418031896
14.1880546875 1.0033397158620325 0.16962540287307726
14.189203125 1.0024578215567115 0.16783759173463797
14.1903515625 1.0007566195464732 0.16606428535705442
14.1915 1.0021781090696584 0.16970981351341985
14.1926484375 0.9977744785642386 0.17196252922549382
14.193796875 0.9969863363384485 0.17947113482362242
14.1949453125 0.9996628702247161 0.18179249021493804
14.19609375 0.997242965770619 0.18365647248992878
14.1972421875 0.9966330722121386 0.18487806827411046
14.198390625 0.9947422805908291 0.18950137225030517
14.1995390625 0.9968897416089677 0.19561780437666987
14.2006875 0.9968939704215494 0.20073382336040335
14.2018359375 0.9985571355789071 0.20243303660345957
14.202984375 1.0007918475923825 0.20634219048948343
14.2041328125 1.00071855537084 0.2095460053452518
14.20528125 0.9956190550602064 0.21176679366097706
14.2064296875 1.002461935254501 0.21276699869062177
14.207578125 0.9988244263114285 0.2169596497162245
14.2087265625 1.0001979286148543 0.21780775109203176
14.209875 1.0045633046884035 0.2232835362932305
14.2110234375 1.006776960587062 0.22775262000534302
14.212171875 1.0092659327655251 0.2307963143745001
14.2133203125 1.009033918057424 0.23392182228422342
14.21446875 1.0123636243015801 0.23339511101117705
14.2156171875 1.012589839044078 0.2352444273855957
14.216765625 1.0174887728124127 0.2328566735116555
14.2179140625 1.0094437123860833 0.23782749575952122
14.2190625 1.016321059583233 0.23667890923857615
14.2202109375 1.0104179228353383 0.23729925078042513
14.221359375 1.0104244939756382 0.24380483372862305
14.2225078125 1.016601036132481 0.24334781353835833
14.22365625 1.017357300049758 0.2466874309404482
14.2248046875 1.0197136727378924 0.2530998952142427
14.225953125 1.0199232473693565 0.2562367956724839
14.2271015625 1.0235421052386182 0.26262937894038385
14.22825 1.0243730841303873 0.2612173254753297
14.2293984375 1.0279508811591502 0.2638108723174095
14.230546875 1.0398430752644894 0.2702345083119595
14.2316953125 1.0419311591029832 0.26953320915204637
14.23284375 1.044610068593474 0.26495523252123576
14.2339921875 1.0533333735317323 0.2676031444904934
14.235140625 1.050952804690549 0.256272913159007
14.2362890625 1.0553368198250361 0.2587457740230181
14.2374375 1.0571788272935299 0.2632682786560061
14.2385859375 1.0662330300464022 0.2558474076493489
14.239734375 1.0568052720284786 0.24697756558948214
14.2408828125 1.0637949134519034 0.251093236135039
14.24203125 1.069608794385509 0.256518620508706
14.2431796875 1.0603927895349372 0.2456358612249655
14.244328125 1.0573725669430198 0.2560124627354762
14.2454765625 1.0671895718613347 0.26597123751549623
14.246625 1.070126026366165 0.2702210482609235
14.2477734375 1.0760714637161457 0.26646715096550555
14.248921875 1.084186553980186 0.27274330216893783
14.2500703125 1.0897358275172153 0.2704630272530546
14.25121875 1.0864051521864466 0.2677613147551464
14.2523671875 1.0852663056227863 0.26739894853043633
14.253515625 1.0883383759614973 0.2752074071434698
14.2546640625 1.0837241393990658 0.27062325169278356
14.2558125 1.0964505954101977 0.26898734024423987
14.2569609375 1.0853293874575796 0.27091984905167854
14.258109375 1.0970772521785093 0.26636883575870685
14.2592578125 1.0973439086790593 0.2667532898622966
14.26040625 1.1068511092427313 0.27062718556821785
14.2615546875 1.0982772282684696 0.271116979641699
14.262703125 1.1001408820988052 0.2759444691775672
14.2638515625 1.1021342200099313 0.28672493297214585
14.265 1.1011518169928982 0.28867305881852245
14.2661484375 1.1024630506184154 0.2880494385198158
14.267296875 1.1008276884315251 0.2870507704706462
14.2684453125 1.1032335333805656 0.2865207523875938
14.26959375 1.112812725123772 0.2884339736692867
14.2707421875 1.1190517885637081 0.2900283921037361
14.271890625 1.112733702513018 0.2854934778169056
14.2730390625 1.113573825043988 0.28352301063297725
14.2741875 1.1159971209692534 0.2764086444792221
14.2753359375 1.1215339523057002 0.2800337638464153
14.276484375 1.113748279169484 0.2728445150147032
14.2776328125 1.1244057241044416 0.2783540865249492
14.27878125 1.1293689203403636 0.27492112944913316
14.2799296875 1.124154751294944 0.2696254516404807
14.281078125 1.1232769457772271 0.2536566624598542
14.2822265625 1.1271127465726969 0.2572187731950637
14.283375 1.1277367231423008 0.2546449236816587
14.2845234375 1.1341090647827436 0.245726097612867
14.285671875 1.129685601196197 0.24564845848105799
14.2868203125 1.1273682157414644 0.24437731076421199
14.28796875 1.1266166681556573 0.24022085250327052
14.2891171875 1.1268236898698025 0.23778201016379152
14.290265625 1.128253881025287 0.2336144701721775
14.2914140625 1.127452243596017 0.2243378393583243
14.2925625 1.1179820321030283 0.2163416974107234
14.2937109375 1.1139564317089543 0.21732819951940163
14.294859375 1.1111266159039939 0.2152851785141492
14.2960078125 1.1129478919222777 0.2218485206973747
14.29715625 1.1155597323963928 0.2205215113188882
14.2983046875 1.1127473876490896 0.22230755849618478
14.299453125 1.1183102290449536 0.22040692764532888
14.3006015625 1.1222731679471238 0.22107978213477053
14.30175 1.1187727155139688 0.22112512104312165
14.3028984375 1.1227913357447736 0.2139013767158705
14.304046875 1.1240113462176964 0.21267694467900222
14.3051953125 1.1228543786338034 0.20991218260885502
14.30634375 1.1250664123252354 0.21066313875846793
14.3074921875 1.125364894570244 0.19978262391534762
14.308640625 1.1225946586398778 0.19475312772064507
14.3097890625 1.1266140414856565 0.19346086951721764
14.3109375 1.1262345188479959 0.18229957590871582
14.3120859375 1.1260892577711596 0.17782588483501305
14.313234375 1.1256297085348685 0.1725028650527619
14.3143828125 1.116659213288802 0.1647453441220279
14.31553125 1.1168813480873674 0.15551737961298068
14.3166796875 1.1119760730305301 0.15105531666017769
14.317828125 1.1030261140915993 0.15107486021146382
14.3189765625 1.097768062395103 0.14758998396014444
14.320125 1.0948201099211181 0.14634303897820777
14.3212734375 1.0922717023015722 0.14517560549346592
14.322421875 1.0939723682544746 0.1466632188419556
14.3235703125 1.0899100423528947 0.14218160349267134
14.32471875 1.0867215440356683 0.14629897573892725
14.3258671875 1.0830645908139651 0.1404276293906323
14.327015625 1.0821270896019386 0.1400479918264944
14.3281640625 1.073917370016511 0.1359855713629355
14.3293125 1.0725464407641059 0.14115717629161578
14.3304609375 1.0797698082169522 0.1415137099072859
14.331609375 1.0738533615574144 0.14020229289260605
14.3327578125 1.077063880562372 0.13943949895809268
14.33390625 1.0763184339836718 0.13589085841672313
14.3350546875 1.0750174760054407 0.13925597101906825
14.336203125 1.080146708469048 0.13285527054464477
14.3373515625 1.0767856724610148 0.13409656466961378
14.3385 1.0759432744698785 0.1332750668369666
14.3396484375 1.079171777636832 0.12966599841537163
14.340796875 1.0781620708474038 0.11923074842223619
14.3419453125 1.0761156359338075 0.12214287258841544
14.34309375 1.0726882399595765 0.12137688134158686
14.3442421875 1.0706339458598995 0.1279500287029006
14.345390625 1.0702783589531046 0.1310735616901463
14.3465390625 1.0695501061385986 0.12987561461758096
14.3476875 1.0691523985128903 0.13242163240227037
14.3488359375 1.0705658978891448 0.13534214606302242
14.349984375 1.0699976694101685 0.1355736934636273
14.3511328125 1.07818923838118 0.14180297030778696
14.35228125 1.0831668299107675 0.15045460052062323
14.3534296875 1.087906113076476 0.1434165447595765
14.354578125 1.0943733560931634 0.14215527578540668
14.3557265625 1.0996425772067853 0.14364843996063822
14.356875 1.1006803432475807 0.14165233704816638
14.3580234375 1.106660398150594 0.13642421713609637
14.359171875 1.1145886993582355 0.13321333094427557
14.3603203125 1.1200016044076424 0.1253370140039705
14.36146875 1.121877370812407 0.11955968675885087
14.3626171875 1.1209299130530923 0.1108314416717488
14.363765625 1.1206955416233042 0.10990228137064034
14.3649140625 1.1237369583193129 0.10028974541249042
14.3660625 1.1262344604504533 0.09175273622039049
14.3672109375 1.1166352902847614 0.08042812853682829
14.368359375 1.115390054286179 0.07218034033642051
14.3695078125 1.1082286736111011 0.06314761532098734
14.37065625 1.1008494273954181 0.060775688419576424
14.3718046875 1.0940744946296632 0.06143126880649419
14.372953125 1.0873779787935256 0.06153457818406044
14.3741015625 1.0828688247852885 0.06177818158699516
14.37525 1.0788230065858326 0.06033100312852524
14.3763984375 1.0752908373869474 0.06244319491566391
14.377546875 1.072525478267123 0.06399440679347479
14.3786953125 1.066826699063478 0.06315796442242361
14.37984375 1.067320188057626 0.06449655104131724
14.3809921875 1.0628662692549438 0.06265424335878866
14.382140625 1.0653122474068835 0.06271707493980061
14.3832890625 1.0627357317598118 0.06397749724580071
14.3844375 1.0606575557442603 0.05699782606429221
14.3855859375 1.0550341086490964 0.06036833780016537
14.386734375 1.0578125323066012 0.06435187584805468
14.3878828125 1.0596170207856526 0.06197092513190183
14.38903125 1.058476053336059 0.06213747823039639
14.3901796875 1.0610476453182471 0.05878910585685426
14.391328125 1.0560643322892025 0.06122750102855157
14.3924765625 1.0477929812924112 0.05704574211692798
14.393625 1.0446666851605724 0.05072399926856336
14.3947734375 1.0442077684731508 0.052265189545072366
14.395921875 1.03761387882821 0.05399754399951473
14.3970703125 1.0370854284538975 0.05708796041024955
14.39821875 1.0412821096016724 0.05627604099332684
14.3993671875 1.0366147978949791 0.054642511949860584
14.400515625 1.0308430664772745 0.0600131936207679
14.4016640625 1.0312967188077218 0.05887082975746638
14.4028125 1.032650801689813 0.0717728769918814
14.4039609375 1.0394030240114398 0.07125784538941127
14.405109375 1.0409369820465117 0.06418505837967337
14.4062578125 1.0468442917041534 0.062066670345239605
14.40740625 1.046655921272356 0.06162231830729503
14.4085546875 1.0462887642384715 0.053668277467215475
14.409703125 1.0399978043844988 0.050014113491775536
14.4108515625 1.0383613997157146 0.048563722355780214
14.412 1.034801443294891 0.04420789676843584
14.4131484375 1.0319607910927133 0.04537249344882199
14.414296875 1.0252418971098152 0.048731571432752196
14.4154453125 1.0274702529934043 0.051344907826121444
14.41659375 1.0275510899117362 0.050793091730454154
14.4177421875 1.0237072394656783 0.053286419945858865
14.418890625 1.0204036907030831 0.05279564901765332
14.4200390625 1.025716460521883 0.051743456051316805
14.4211875 1.0259881673672573 0.05484086557734047
14.4223359375 1.0266659842944275 0.05221848472996643
14.423484375 1.0218033124889732 0.053873167233173036
14.4246328125 1.020301262837379 0.04923063298569119
14.42578125 1.0170823105314888 0.05311838062334845
14.4269296875 1.0222268564705814 0.05500145207092705
14.428078125 1.018372374896701 0.05521320105956945
14.4292265625 1.0199919928628158 0.057247734054023336
14.430375 1.0153608180579947 0.05591180153344827
14.4315234375 1.0157960108019657 0.06240697452274646
14.432671875 1.0173032864796192 0.06387144948895279
14.4338203125 1.0129170416315494 0.06524298889035218
14.43496875 1.0225156145843488 0.06528761206919376
14.4361171875 1.0224440841189164 0.07100675632207915
14.437265625 1.022868465499806 0.07054885618034268
14.4384140625 1.0196982881063723 0.0681552006440505
14.4395625 1.0239062269248442 0.06738580094020163
14.4407109375 1.026982381412528 0.06440035139137523
14.441859375 1.0304478091813531 0.0655433404412828
14.4430078125 1.0322851677056026 0.06779037201290367
14.44415625 1.030067012589895 0.06896877778900454
14.4453046875 1.0290153238157262 0.06480650617661035
14.446453125 1.0312224120032039 0.05923982650026047
14.4476015625 1.0280696786201327 0.06509687326193855
14.44875 1.0358470819436365 0.06206589045051669
14.4498984375 1.033269499298327 0.06981244411169796
14.451046875 1.0353813562621592 0.06085426665609964
14.4521953125 1.0309747593177248 0.050357410327651786
14.45334375 1.029579702204354 0.053964273955713016
14.4544921875 1.0314113230464346 0.05087421592398203
14.455640625 1.0343917071367397 0.04614761847671647
14.4567890625 1.03116215989336 0.0465509585254435
14.4579375 1.0316216346839129 0.05036969465966577
14.4590859375 1.0293741002947567 0.044468370233937765
14.460234375 1.02753215579335 0.03946560692475323
14.4613828125 1.0283433919346932 0.03718692769081623
14.46253125 1.0271153149423355 0.03407564865764019
14.4636796875 1.0130551560202379 0.03589258542604967
14.464828125 1.0066029175077797 0.03728576180143431
14.4659765625 1.0126035087788414 0.04269371979844577
14.467125 1.0097511691100824 0.040678668926336856
14.4682734375 1.0070407429794919 0.045793764683553506
14.469421875 1.0055517425606344 0.051245638372458706
14.4705703125 1.0071821035240642 0.04860342355161554
14.47171875 1.0044685903335056 0.05147940930638574
14.4728671875 1.0089377161507402 0.05369136802122154
14.474015625 1.0150497780509007 0.05060295395747074
14.4751640625 1.0156478122190558 0.05236377477942606
14.4763125 1.0144855267274373 0.05012048683587147
14.4774609375 1.0077367087810971 0.0518962053340567
14.478609375 1.0065311275681945 0.04043714934014753
14.4797578125 1.0056127931780063 0.04184426090638686
14.48090625 1.0007853275691185 0.04779026346806557
14.4820546875 0.9984500494108514 0.04732050741068312
14.483203125 0.9973168280499093 0.0477506435768016
14.4843515625 0.9963198999739783 0.05338815065887283
14.4855 0.9949892179562394 0.05399408121939833
14.4866484375 0.9984376636431995 0.05285753164010103
14.487796875 0.9952368551536022 0.06207306572004795
14.4889453125 0.9996042644642327 0.06499029458774458
14.49009375 1.0086210586180289 0.06880134023383813
14.4912421875 1.010783612900984 0.06884350863469497
14.492390625 1.01906754602301 0.06801740734412359
14.4935390625 1.0227234793510054 0.05759788017381469
14.4946875 1.0152224567542154 0.051872965225089676
14.4958359375 1.013586811189198 0.047290296457161846
14.496984375 1.0113581969238203 0.0500395550413266
14.4981328125 1.009911058801106 0.054166093170581756
14.49928125 1.0066408096848125 0.050481333933038705
14.5004296875 1.0089817533579821 0.04744996673687402
14.501578125 0.9980301192023636 0.04931796830385052
14.5027265625 0.9973651222319128 0.051747125530377344
14.503875 1.0002534784177677 0.05433033474055117
14.5050234375 0.9969765162329909 0.05489544951429665
14.506171875 1.000248429224447 0.05770180058099264
14.5073203125 0.99841263421364 0.054659931370389284
14.50846875 0.997785058312235 0.0565039794567671
14.5096171875 0.994010011622461 0.05656556952068096
14.510765625 0.9920338673558758 0.058804952709729075
14.5119140625 0.9891305336066225 0.06343509156253813
14.5130625 0.9855340173312618 0.06666489218084193
14.5142109375 0.9831743096183823 0.07819324483360325
14.515359375 0.9920673798216908 0.08778393188877913
14.5165078125 0.995973783833896 0.09351547490228374
14.51765625 1.00287519475113 0.09128254669428172
14.5188046875 1.0044766535290937 0.09245356875623562
14.519953125 1.0178396950823014 0.09125621361460538
14.5211015625 1.0210228396668497 0.09248600128287962
14.52225 1.025676659095238 0.09288820739853895
14.5233984375 1.0259158958366517 0.08823717036501369
14.524546875 1.0302996453407578 0.08399378128293332
14.5256953125 1.0275776632313733 0.08395923244485548
14.52684375 1.0317336324826638 0.07573030035112993
14.5279921875 1.0299192079463348 0.07361592031641018
14.529140625 1.0320331599889432 0.07908309028575909
14.5302890625 1.0362306460933202 0.07978603508464921
14.5314375 1.036679378361407 0.08093217859276157
14.5325859375 1.0426427030100167 0.07657476574402165
14.533734375 1.0488768843221499 0.07495325834561135
14.5348828125 1.0380361972484398 0.07178139074300141
14.53603125 1.0459134641996595 0.07275721074727332
14.5371796875 1.0464678451907923 0.06655917281114614
14.538328125 1.0477222214835793 0.06845494546722487
14.5394765625 1.0455683730283414 0.06093019494214376
14.540625 1.0394853514323366 0.06498633585797052
14.5417734375 1.0382982374881402 0.05983364560894083
14.542921875 1.0402225323824854 0.05800838135583107
14.5440703125 1.0467070333097612 0.061578657927245
14.54521875 1.0480932013185358 0.06211643820093049
14.5463671875 1.0460143235802437 0.053148186803893466
14.547515625 1.048608837706954 0.052521718249333146
14.5486640625 1.0445919605244802 0.050942413434631045
14.5498125 1.0484451034450852 0.048491631094424795
14.5509609375 1.0466834538514593 0.049390846000254326
14.552109375 1.0428289881422796 0.04112392273986331
14.5532578125 1.0484761714476853 0.0400394349992475
14.55440625 1.0425094893569506 0.04320907551020489
14.5555546875 1.0394513162949102 0.03451605580039394
14.556703125 1.0385408143512131 0.0372870152806577
14.5578515625 1.0411073426529531 0.0385229892925147
14.559 1.0345538158427638 0.035460176667406716
14.5601484375 1.031482170633286 0.039327936664630844
14.561296875 1.0347022633712104 0.041541216106900425
14.5624453125 1.0368409016819926 0.040763203455727315
14.56359375 1.038787955185086 0.035249012345088725
14.5647421875 1.0397278992981385 0.031417580289968154
14.565890625 1.0399418106751661 0.03532861881224056
14.5670390625 1.036997225793417 0.03266128015685704
14.5681875 1.0349062709669756 0.029754807554609745
14.5693359375 1.038561867996694 0.02725382295359865
14.570484375 1.0358957206775523 0.025826727061455942
14.5716328125 1.0385917021790867 0.02453151841194295
14.57278125 1.0334484863406557 0.025103470716450964
14.5739296875 1.0366556967604759 0.023951964353369694
14.575078125 1.0358703458741407 0.022163203856076875
14.5762265625 1.0329544560349044 0.020970527728321794
14.577375 1.0313762289861368 0.01724752965116999
14.5785234375 1.027324657453568 0.016517946633506732
14.579671875 1.0281614725023298 0.014953784013477203
14.5808203125 1.026053612505409 0.016466791976418545
14.58196875 1.0220031133322869 0.015192109368397433
14.5831171875 1.0233151453315286 0.016003116012352575
14.584265625 1.0158102950955281 0.015692148857585964
14.5854140625 1.0186808951686543 0.020022950946314885
14.5865625 1.019176700887583 0.02058998928510726
14.5877109375 1.0212794028386445 0.021065187399256155
14.588859375 1.021336337827116 0.02068372410983188
14.5900078125 1.0218044638979418 0.021705225855331328
14.59115625 1.0173897548701356 0.019981235613615103
14.5923046875 1.0208470453491598 0.019010444817162242
14.593453125 1.0209409337422952 0.0261368444625959
14.5946015625 1.02054130757203 0.027846380193468537
14.59575 1.0165243767488603 0.02656286645031969
14.5968984375 1.0217482167620147 0.02979192398387126
14.598046875 1.0223226276316248 0.030113807642118573
14.5991953125 1.0209168066112986 0.030158047236860552
14.60034375 1.0281720183781542 0.028693614118089156
14.6014921875 1.024392107035052 0.02506260935324134
14.602640625 1.0240719996056593 0.023203135470210273
14.6037890625 1.026915319119599 0.025716848828558597
14.6049375 1.0271906990064386 0.03151414759587087
14.6060859375 1.0265994880864513 0.029998148323672313
14.607234375 1.0332888094076 0.025775223548928916
14.6083828125 1.0290872463664575 0.022246178281749962
14.60953125 1.0339346415059332 0.01944181027820535
14.6106796875 1.0306728308511994 0.022460072163935668
14.611828125 1.0406966470235994 0.020747188543970674
14.6129765625 1.0304517751895705 0.019958803985059503
14.614125 1.0290682456949822 0.020242716014783224
14.6152734375 1.0340630589646134 0.01721311038759213
14.616421875 1.034504348247156 0.016836006304579765
14.6175703125 1.0360390688971506 0.013888061633606119
14.61871875 1.033237394844862 0.010969505528657664
14.6198671875 1.0330082491324986 0.00990706146284151
14.621015625 1.0326691010772144 0.011303345309046753
14.6221640625 1.0307572351762868 0.0033327468501710977
14.6233125 1.0341873675747741 0.0013211173454024394
14.6244609375 1.0355139845187145 0.005058580459455259
14.625609375 1.040017215250618 -0.0022734849191629325
14.6267578125 1.0276854384746679 -0.0019264107673252484
14.62790625 1.0245614878887366 -0.003820844856178396
14.6290546875 1.0262161874779914 -0.008603705278422469
14.630203125 1.0230981600709719 -0.0066054556225955685
14.6313515625 1.0237774120821697 -0.006317750369109365
14.6325 1.0234464352035668 -0.00745328298419623
14.6336484375 1.0179961692005202 -0.00640729818972105
14.634796875 1.016207513155604 -0.005454030493840273
14.6359453125 1.0147679784858092 -0.005942703693027157
14.63709375 1.0143212852751349 -0.00378952950042577
14.6382421875 1.0088782477858804 -0.0028192793188396292
14.639390625 1.014341456225833 -0.0018440923826715805
14.6405390625 1.0154345058015386 -0.0113075410976535
14.6416875 1.0067386307308626 -0.006869557166315793
14.6428359375 1.010758840868374 -0.0074433789380360105
14.643984375 1.0075650916442394 -0.00013867151351037998
14.6451328125 1.0084716968368657 -0.0019613350209188862
14.64628125 1.0104430549233117 -4.229214380974122e-05
14.6474296875 1.0107843821948626 -0.005168165799632057
14.648578125 1.0114392273165633 -0.004294667511159533
14.6497265625 1.0145766141008408 -0.002311692463574877
14.650875 1.0133952667060484 -0.001505140997661747
14.6520234375 1.0092344863222267 -9.34641932756608e-05
14.653171875 1.0083071106638608 0.00011137563075930279
14.6543203125 1.0065292070900635 -0.0018180431910428396
14.65546875 1.0062182821672578 -0.0005600923719550344
14.6566171875 1.0087408739568697 -0.0047124390727553145
14.657765625 1.0069967314667714 -0.0034050771391728185
14.6589140625 1.0091557590871574 -0.004120247424214185
14.6600625 1.0092017679295402 -0.0036823899264425974
14.6612109375 1.0060054607409652 -0.0012234152777160778
14.662359375 1.0029628819784886 -0.0057297201949681464
14.6635078125 1.0142468398355604 0.0017715461768005314
14.66465625 1.0092661742528135 0.004074352417944904
14.6658046875 1.0157252400542216 0.0004557283306690363
14.666953125 1.0086472992629592 -0.010932515173421531
14.6681015625 1.0095180450806511 -0.0006257984834230346
14.66925 1.0047646698812136 0.002301032854490903
14.6703984375 1.0077956429709645 0.0015672243746958081
14.671546875 1.0114994436506 -0.0009273560846749795
14.6726953125 1.004768986412655 -0.00012442633935327851
14.67384375 1.007746303916545 0.0021542085760570817
14.6749921875 1.0044060133402757 0.006038765867719231
14.676140625 1.007095433493929 0.006315763798585783
14.6772890625 1.0090020342694213 0.01139572148403073
14.6784375 1.012238814246536 0.010352725604100055
14.6795859375 1.0149520106506122 0.010420247923816961
14.680734375 1.004428685498438 0.011632386759568458
14.6818828125 1.012994101077148 0.007757694217519706
14.68303125 1.0161726946358187 0.0013986523034951182
14.6841796875 1.0103382554338276 0.008535496366752326
14.685328125 1.0085580207396825 0.004710659164239628
14.6864765625 1.0109053244479782 0.005308823269633445
14.687625 1.0076285818782293 0.003426024832318464
14.6887734375 1.0081791126407298 0.009883130853250044
14.689921875 1.0150188540945027 0.006843334029489223
14.6910703125 1.0153602068226617 0.0054274683602679175
14.69221875 1.0145880566609167 0.008627614338945155
14.6933671875 1.009062963031207 0.012791565402335836
14.694515625 1.012739677689935 0.012989127948707213
14.6956640625 1.0134581615397962 0.01410515025007597
14.6968125 1.0177378980414364 0.015831349993711386
14.6979609375 1.0194102860840277 0.020512050427533346
14.699109375 1.0142424519010094 0.022015802777865634
14.7002578125 1.0189369765117595 0.026172087553094192
14.70140625 1.0240078727343396 0.02241744456703043
14.7025546875 1.0297329012941652 0.02591562641288625
14.703703125 1.036247142665887 0.01967114513652979
14.7048515625 1.0387397187154919 0.015942538465176348
14.706 1.0378503400778074 0.01769302683500784
14.7071484375 1.0353610417988577 0.011883290393825519
14.708296875 1.0442820490612452 0.008729963287572695
14.7094453125 1.0430994543906849 0.008412959967246558
14.71059375 1.0447396418548753 0.00751881157055001
14.7117421875 1.0449311928354819 0.010455869992277989
14.712890625 1.0452067980531916 0.009635729712552998
14.7140390625 1.0499981535343779 0.00929913794283077
14.7151875 1.0509432365299596 0.003875191925091337
14.7163359375 1.060796903723903 -0.002480896282522571
14.717484375 1.0578036789355092 0.0069716943741824355
14.7186328125 1.056650069922815 0.0046696635062229985
14.71978125 1.0636774263709114 -0.002888245312684168
14.7209296875 1.072618637831736 -0.001967138135900437
14.722078125 1.0788443774670597 -0.00814656889868437
14.7232265625 1.0922404976187416 -0.0288312541321748
14.724375 1.0889920539498412 -0.03413313980227317
14.7255234375 1.0854945603193928 -0.050185471723563246
14.726671875 1.0846742356249048 -0.05445257125482161
14.7278203125 1.0809875475409154 -0.06475279890001184
14.72896875 1.0720876987695975 -0.06307616492118184
14.7301171875 1.0683992576554298 -0.07028246005663408
14.731265625 1.0724646144700904 -0.07650913837118423
14.7324140625 1.0617938800416622 -0.07816281761476451
14.7335625 1.0618013335351608 -0.091601190429909
14.7347109375 1.0561973955281208 -0.09538093653635438
14.735859375 1.046860630842521 -0.10450088735246643
14.7370078125 1.038413335573107 -0.1144147417739344
14.73815625 1.0252875280597584 -0.1116179075806355
14.7393046875 1.0199829735683188 -0.10541539259451105
14.740453125 1.019832150610761 -0.11529140725379605
14.7416015625 1.0050125383668007 -0.12156427787144208
14.74275 0.9938328785787769 -0.1166672536038067
14.7438984375 0.9856863159645975 -0.11683804617038951
14.745046875 0.9733623702787945 -0.11296959012120478
14.7461953125 0.9659590115520027 -0.10325073810862584
14.74734375 0.9615099299164889 -0.09690676854310942
14.7484921875 0.9602429043103339 -0.08481851265812157
14.749640625 0.9528349142479662 -0.08792747866731854
14.7507890625 0.9509298722904549 -0.0739274807764786
14.7519375 0.9518289990264058 -0.06624912108591696
14.7530859375 0.950659383506845 -0.06320660373902931
14.754234375 0.9533969336712027 -0.055569439717802926
14.7553828125 0.9569455805863696 -0.051519045581654876
14.75653125 0.9624764268851088 -0.04719646058712412
14.7576796875 0.9652047070422283 -0.045303049237106374
14.758828125 0.9649016467915796 -0.0473560093277865
14.7599765625 0.9616330549020012 -0.039297274431564166
14.761125 0.9654200461678113 -0.03335389179285386
14.7622734375 0.9724137620940929 -0.030435868183570136
14.763421875 0.9766755986653095 -0.030927570691419826
14.7645703125 0.9828692391310029 -0.032170104434895874
14.76571875 0.9862769470149615 -0.036069340110955306
14.7668671875 0.9882361412925094 -0.03877447347726881
14.768015625 0.9840870187532001 -0.04436939103088178
14.7691640625 0.9797467738104247 -0.041441836738417726
14.7703125 0.9790394686433235 -0.03974340854870961
14.7714609375 0.9770304107254452 -0.037696036553801604
14.772609375 0.9787175309497342 -0.0371795827856074
14.7737578125 0.9795447627379023 -0.036083677783810164
14.77490625 0.981241361763475 -0.03570362795371235
14.7760546875 0.9818437446118252 -0.03622832844421531
14.777203125 0.9815340129013091 -0.03918504617115609
14.7783515625 0.9825807940356552 -0.04162233943351823
14.7795 0.9767866980311131 -0.043933668979728335
14.7806484375 0.973243099038628 -0.044672704971776
14.781796875 0.9694523201991982 -0.045685774523818445
14.7829453125 0.9650631657537887 -0.04660788856113102
14.78409375 0.9595115524718314 -0.041323408750161716
14.7852421875 0.955961891603623 -0.035445432930509724
14.786390625 0.9545103898926035 -0.028584313363162472
14.7875390625 0.958620740283441 -0.022208899601361187
14.7886875 0.9558227477833937 -0.01599698184341075
14.7898359375 0.9619651926592707 -0.008651125225340284
14.790984375 0.9652627729072408 -0.007777091980885498
14.7921328125 0.9718070459708688 -0.007078455165998476
14.79328125 0.974511048402871 -0.007340474713737666
14.7944296875 0.9799919386208344 -0.006180398588695235
14.795578125 0.9825085411285029 -0.00968721965345476
14.7967265625 0.9856811901561323 -0.012387446199842167
14.797875 0.9848650919611289 -0.01534721368756048
14.7990234375 0.9854931296319012 -0.015147820874153672
14.800171875 0.9809609840673271 -0.015310522437338436
14.8013203125 0.9795037921553646 -0.01368559720980378
14.80246875 0.9815205841972463 -0.007922463864115104
14.8036171875 0.9901436154771817 -0.00987234379151114
14.804765625 0.9897983852080917 -0.008951592113946194
14.8059140625 0.9931923901287365 -0.011360779048604053
14.8070625 0.9975778473130434 -0.01348479104330369
14.8082109375 0.9986789135533947 -0.013985793937554725
14.809359375 1.0024863732023601 -0.02059878563505435
14.8105078125 0.9994422868962416 -0.022053160663036975
14.81165625 0.9998288290463324 -0.025124430645342477
14.8128046875 0.9973796045422283 -0.027490022514724932
14.813953125 0.9956862083635623 -0.02819670748460512
14.8151015625 0.9955170810771304 -0.02886836041529517
14.81625 1.000562521526376 -0.028410016001782723
14.8173984375 1.0016673697998268 -0.03517419633473329
14.818546875 1.0006160037102645 -0.037625200436362305
14.8196953125 0.9956902827781682 -0.03526330710359982
14.82084375 0.9905614656416449 -0.037869065919016176
14.8219921875 0.9922564646083052 -0.04152775977278078
14.823140625 0.9896056876802012 -0.041824987639669686
14.8242890625 0.981575891053287 -0.044458134222567725
14.8254375 0.9812830160322191 -0.04587272214979987
14.8265859375 0.9792920548424023 -0.041891440000575875
14.827734375 0.9731290090434028 -0.038190983284825286
14.8288828125 0.9752956829151542 -0.03778511544038299
14.83003125 0.9741671534893499 -0.0366706895102521
14.8311796875 0.971282939753626 -0.03622363332198664
14.832328125 0.9696721019992806 -0.03701393273617315
14.8334765625 0.9683129444607667 -0.032318074596815016
14.834625 0.9630855269649515 -0.02980780526900484
14.8357734375 0.9627547306868464 -0.025254559942618493
14.836921875 0.9659201095698089 -0.01815088880207183
14.8380703125 0.9637600579357155 -0.01446320953998792
14.83921875 0.9666120040957649 -0.01106428275889837
14.8403671875 0.9724310207384181 -0.008182493068339736
14.841515625 0.9777136414633695 -0.008127757382597744
14.8426640625 0.9738291170323667 -0.009874397733687257
14.8438125 0.9728506468543178 -0.011491489006297817
14.8449609375 0.9775386248243896 -0.011026878386722228
14.846109375 0.9776923251750236 -0.01021584274584153
14.8472578125 0.9769991596573094 -0.006842146345058975
14.84840625 0.9779748224017538 -0.004251371987290864
14.8495546875 0.9833066008624005 -0.0016838184181109384
14.850703125 0.9811158126394743 -0.00208640431526097
14.8518515625 0.9807159102327636 -0.009031307556219725
14.853 0.9825297520311518 -0.000626358004552241
14.8541484375 0.9864064465211968 -0.005142976375267505
14.855296875 0.9799559404594522 -0.008709143608070846
14.8564453125 0.9788009790848069 -0.010616486847877082
14.85759375 0.9751905297694731 -0.004021133108005448
14.8587421875 0.9782002470943552 0.0050154684249850146
14.859890625 0.9799153508003952 0.01990711675547807
14.8610390625 0.9919692076383064 0.012413774896002261
14.8621875 0.9988592670808265 0.010384121760033338
14.8633359375 1.0003953015361264 0.006599842269661149
14.864484375 0.9971804890663574 -0.0017336346688525683
14.8656328125 0.9942388914843956 0.008300037123357917
14.86678125 1.0033526425074655 -0.004131063835545179
14.8679296875 1.0060022836540472 -0.0011687814087977255
14.869078125 0.9893878685285995 -0.0009893499126327754
14.8702265625 0.9888665899060656 -0.00642613493196742
14.871375 0.9972932799580789 0.0018723480916638113
14.8725234375 0.9892195045773278 0.00413927421314253
14.873671875 0.9973495444659121 0.007717264348338526
14.8748203125 1.0056795733936277 0.015119358534438465
14.87596875 1.0167550506695004 0.008717697211263697
14.8771171875 1.0168447115433574 0.007227707536893169
14.878265625 1.0134019551219104 0.005362218623470749
14.8794140625 1.0124712186007556 -0.0034661855298083744
14.8805625 1.0099446625420327 -0.006566270470125035
14.8817109375 1.0047442145489252 -0.002084556818242378
14.882859375 1.012731494249637 -0.008782636631389451
14.8840078125 1.0067344895593997 -0.007693844461354127
14.88515625 1.0053133773445586 0.005831399602629572
14.8863046875 1.0061585190347853 0.004755407758034291
14.887453125 1.0109897289068521 0.015205056529442151
14.8886015625 1.0091984949567652 0.010629060730841022
14.88975 1.0084801711176508 0.002819689513235746
14.8908984375 1.0171359298822187 -0.0022414454564987363
14.892046875 1.0163036424139693 0.0025101533001481435
14.8931953125 1.012414292914882 0.005474338418619551
14.89434375 1.0141064418912449 0.006187238898116787
14.8954921875 1.0295209062962962 0.006789669086183281
14.896640625 1.0297122295854284 0.0064534753783687115
14.8977890625 1.0371299960731823 0.002145791668360042
14.8989375 1.0348223425701912 3.706399872704935e-05
14.9000859375 1.035058198824518 -0.0045404834862710075
14.901234375 1.0327727331307268 -0.009343292892986854
14.9023828125 1.0317347820601692 -0.008485473711534519
14.90353125 1.0297623541739944 -0.0092347293283217
14.9046796875 1.0367724661970448 -0.009795397892715885
14.905828125 1.040041448979439 -0.01146295952109444
14.9069765625 1.038026452368213 -0.008167007193172315
14.908125 1.0413890589607464 -0.006747841358274442
14.9092734375 1.048583013019764 -0.014830434859302244
14.910421875 1.0433561596302183 -0.017942814942911056
14.9115703125 1.0464566353589548 -0.02591510416792886
14.91271875 1.045411786883145 -0.03057323191803163
14.9138671875 1.0368217860267053 -0.03310310042999731
14.915015625 1.0320794812293936 -0.031022545166835114
14.9161640625 1.0253402334411716 -0.030022216528856394
14.9173125 1.0240787092287778 -0.028735708252234593
14.9184609375 1.0242967139018317 -0.021130382997668118
14.919609375 1.0212452195130606 -0.02178948531632563
14.9207578125 1.0200543769308785 -0.016696899675449073
14.92190625 1.0200143313467205 -0.011269656065437506
14.9230546875 1.0249281477100973 -0.0040881328810735695
14.924203125 1.0322182705967664 -0.002361505417282528
14.9253515625 1.0386867873778594 -0.0040680570637270375
14.9265 1.0411698280453943 -0.0034807376414471847
14.9276484375 1.0411355496201125 -0.005623389673545587
14.928796875 1.0368373896972614 -0.0026614298403844217
14.9299453125 1.0417548667219423 0.00046474512421790237
14.93109375 1.048460884246424 0.0038896841320885667
14.9322421875 1.0659688129885314 0.008283479271487981
14.933390625 1.069065664547151 -0.003686161667496357
14.9345390625 1.0715950589257388 -0.010876162113425236
14.9356875 1.068752371588157 -0.015553484523978311
14.9368359375 1.0646963218424532 -0.018652324668209985
14.937984375 1.0657001610366867 -0.018290049920192453
14.9391328125 1.0685615301413924 -0.014319831390908977
14.94028125 1.0756895899131216 -0.012348605111698663
14.9414296875 1.0806307735754996 -0.012093744991385491
14.942578125 1.0868710104028203 -0.019188964010813714
14.9437265625 1.0913660338495952 -0.024509618229183516
14.944875 1.0918645273182728 -0.03336538675502765
14.9460234375 1.0879255236146137 -0.03895449039013943
14.947171875 1.0947044216377033 -0.03743998537033888
14.9483203125 1.0939791341219183 -0.043511727044886594
14.94946875 1.0835078600409478 -0.050128790452291794
14.9506171875 1.09105026141364 -0.048096885230472564
14.951765625 1.081682404695976 -0.054405510176073146
14.9529140625 1.087708167476672 -0.04906701294881305
14.9540625 1.0855867423096164 -0.057979092918560016
14.9552109375 1.080093939080598 -0.06465840562127051
14.956359375 1.0805956619118788 -0.06967310050466496
14.9575078125 1.0751101137244337 -0.06915871973544307
14.95865625 1.0691765692047668 -0.0668194212616699
14.9598046875 1.0690381666143218 -0.06985591017377418
14.960953125 1.0634805309027815 -0.0636134923038369
14.9621015625 1.0592317575984935 -0.0637224117100893
14.96325 1.0581575372668734 -0.05263017579192619
14.9643984375 1.0647902092261818 -0.0466681893101239
14.965546875 1.0664767022994 -0.0506453208350372
14.9666953125 1.0748828550738285 -0.04803217275595617
14.96784375 1.0860183273699273 -0.049600525123510764
14.9689921875 1.0920048694314295 -0.051444650645877
14.970140625 1.093815025031263 -0.05518313574388606
14.9712890625 1.0964827364010357 -0.06396286983416744
14.9724375 1.0995715010651708 -0.07392429852744331
14.9735859375 1.094161961156983 -0.0797339299031225
14.974734375 1.0885577663749837 -0.08292252172745074
14.9758828125 1.087096189671343 -0.07905416686996436
14.97703125 1.0925056334867629 -0.08072330879959799
14.9781796875 1.0945881000803999 -0.08327518902573772
14.979328125 1.0990324253892163 -0.0841242195242402
14.9804765625 1.0964819234516248 -0.08733017579481217
14.981625 1.0987823566723094 -0.08947371111613078
14.9827734375 1.1102828202676605 -0.09734678269755836
14.983921875 1.111088609954298 -0.11271085095069622
14.9850703125 1.1054800441137695 -0.12629459749895977
14.98621875 1.0958348693146038 -0.13010050199112133
14.9873671875 1.089994066465923 -0.13070743598131518
14.988515625 1.0826060330702507 -0.1282723011559288
14.9896640625 1.0835613964620532 -0.13114748976638657
14.9908125 1.0859601462935276 -0.135415612407351
14.9919609375 1.0769350179439168 -0.14163481493446706
14.993109375 1.0760817000234932 -0.14743946303644573
14.9942578125 1.0689534626250605 -0.1453006338116557
14.99540625 1.0655823556832993 -0.14479738072364068
14.9965546875 1.0657458718878636 -0.1462082413619863
14.997703125 1.0627018075647507 -0.15073331905424237
14.9988515625 1.0572688041908371 -0.15697185542250414
15.0 1.05287272170841 -0.1542572512825099
