! Created with skrf 1.8.0 (http://scikit-rf.org).
# GHz S RI R 50.0 
!freq ReS11 ImS11
0.3 -0.9527187708890984 0.11801985930879483
0.3011484375 -0.9518869656222586 0.11992384077205809
0.302296875 -0.9512818490797031 0.12206398273342389
0.3034453125 -0.9526656779366096 0.12315464252295966
0.30459375 -0.952939889263482 0.1243941801286943
0.3057421875 -0.9536812667186945 0.12465682318111532
0.306890625 -0.9537092947024682 0.12492396936093814
0.3080390625 -0.9555724552924296 0.12429074722749356
0.3091875 -0.9549534861270537 0.1231576321941083
0.3103359375 -0.9549283158820572 0.12398879485149009
0.311484375 -0.955670272012259 0.12568776111266788
0.3126328125 -0.9561960369333787 0.1253356745004452
0.31378125 -0.9564256468698418 0.12601548498063958
0.3149296875 -0.9547656127738835 0.1258130728157301
0.316078125 -0.9570688998102301 0.1275789452999253
0.3172265625 -0.9564187350289559 0.12724597106036
0.318375 -0.9553893916503509 0.12491014526191369
0.3195234375 -0.9548811388745295 0.12676795005769126
0.320671875 -0.9560788499796402 0.12652519689801547
0.3218203125 -0.9547381641431303 0.1267230545898626
0.32296875 -0.9545246287902422 0.12672636124555436
0.3241171875 -0.954788710830389 0.12631423913381568
0.325265625 -0.9564154731379537 0.12809789078901285
0.3264140625 -0.957715578799239 0.1286238309647389
0.3275625 -0.9569887084799408 0.12789310172103396
0.3287109375 -0.9564615559725219 0.1288340970476441
0.329859375 -0.9566969278709805 0.12997676775864164
0.3310078125 -0.9575484080783008 0.13035734053449938
0.33215625 -0.9555179703616996 0.13242623411527907
0.3333046875 -0.955087934747888 0.1288538493464923
0.334453125 -0.9551638887369671 0.12954628517514907
0.3356015625 -0.9542954068201625 0.13176710980498307
0.33675 -0.9549261178782249 0.13020622697035217
0.3378984375 -0.9547595957558912 0.13194813839126246
0.339046875 -0.954597262923214 0.13427045824750466
0.3401953125 -0.9552788205899984 0.133776456208813
0.34134375 -0.9550562434929589 0.1357954705502717
0.3424921875 -0.9539940229510946 0.1343147732336203
0.343640625 -0.95449764443749 0.13528352933502047
0.3447890625 -0.9555715984681576 0.13499257432104306
0.3459375 -0.9568670036679602 0.13251816321118576
0.3470859375 -0.9553885522101377 0.13609124330951805
0.348234375 -0.9566285351514374 0.1346738192357248
0.3493828125 -0.9552725611848623 0.13636583092648374
0.35053125 -0.9574537257116358 0.13487024514682633
0.3516796875 -0.9557111736016888 0.13840095996776441
0.352828125 -0.9529365299097045 0.13782676117534992
0.3539765625 -0.9540171179996133 0.13919355752025125
0.355125 -0.9554848064788047 0.1376945420191356
0.3562734375 -0.9542478876500446 0.13929767583635716
0.357421875 -0.9555005588217675 0.1402147158816323
0.3585703125 -0.9551928113256554 0.1413160477549522
0.35971875 -0.9545844545044028 0.14172925058515778
0.3608671875 -0.9540430172308135 0.1427822544287325
0.362015625 -0.9546697510140697 0.1432764116434337
0.3631640625 -0.9537315869973855 0.14360945812454823
0.3643125 -0.9544561644615273 0.14510637844328023
0.3654609375 -0.953800715245869 0.14544159901711845
0.366609375 -0.9550391671143461 0.14554100635197065
0.3677578125 -0.9544393084886971 0.14679689478260877
0.36890625 -0.9543567846799114 0.147180700331781
0.3700546875 -0.9534358454864673 0.14749037206739435
0.371203125 -0.9546216981240969 0.14892464396631094
0.3723515625 -0.9538304071954347 0.14830025062694085
0.3735 -0.954738694786831 0.14989362510701787
0.3746484375 -0.953601373505325 0.1500759172697012
0.375796875 -0.9537257862288306 0.15112076255099566
0.3769453125 -0.9533730006714797 0.15203577199213053
0.37809375 -0.9539925450949422 0.15278656720449502
0.3792421875 -0.9535594425708139 0.15301630818662795
0.380390625 -0.9538784473639988 0.15460997923587208
0.3815390625 -0.9539845333117949 0.15529762174111117
0.3826875 -0.9539515065739129 0.15597725635424683
0.3838359375 -0.9549803610664604 0.15666605989075907
0.384984375 -0.9550741534076271 0.15643733794129833
0.3861328125 -0.9552521513405665 0.15682716113476036
0.38728125 -0.9548438361317803 0.15751241657087112
0.3884296875 -0.9548099514750155 0.15792091016161136
0.389578125 -0.9548473017580839 0.15848573915279
0.3907265625 -0.9542886400523385 0.15914629387393953
0.391875 -0.9545952689738791 0.16119052497759734
0.3930234375 -0.9542604669752877 0.16018916545981882
0.394171875 -0.9542422573979845 0.16089224585514106
0.3953203125 -0.9548508208852985 0.16216912135388625
0.39646875 -0.9543353100052285 0.16222509027995513
0.3976171875 -0.9546549950642303 0.16290227817642708
0.398765625 -0.954471806375154 0.16315866776852864
0.3999140625 -0.9546855828687157 0.16412841500229383
0.4010625 -0.954921321604325 0.16454035381311666
0.4022109375 -0.9553109124190086 0.16544808714669068
0.403359375 -0.9549774905805839 0.16542832084867914
0.4045078125 -0.95528395315433 0.16528993147776075
0.40565625 -0.9541822548456849 0.1651103863101802
0.4068046875 -0.954495451601256 0.16639785606017635
0.407953125 -0.9541874969387723 0.16646222398234686
0.4091015625 -0.953995563293375 0.16814539330959136
0.41025 -0.953606673005408 0.16770688417358084
0.4113984375 -0.9536024112483195 0.1679804177406051
0.412546875 -0.9537547744873609 0.1685982770120529
0.4136953125 -0.9537899764456463 0.16839779829355458
0.41484375 -0.9536021732489953 0.16937403642404403
0.4159921875 -0.9533882993906502 0.17041423620579899
0.417140625 -0.9535711504376718 0.17097769571175808
0.4182890625 -0.9534313845844734 0.17098381692167952
0.4194375 -0.9542530844636543 0.17176745562740514
0.4205859375 -0.9537793441217332 0.17282765490179713
0.421734375 -0.9532466522782712 0.1729693408931479
0.4228828125 -0.9541034412118992 0.17305241497521048
0.42403125 -0.953717401894658 0.1740635112083293
0.4251796875 -0.9540392416354639 0.17454175757718693
0.426328125 -0.9539391187375001 0.17563642158992285
0.4274765625 -0.9539761935364446 0.17596768352301495
0.428625 -0.9524143496375946 0.17515554884215864
0.4297734375 -0.9545010005543272 0.17641503205213988
0.430921875 -0.953551738845775 0.17725922867426613
0.4320703125 -0.9526353934891522 0.1767378599619676
0.43321875 -0.9534676317300813 0.17817150270152973
0.4343671875 -0.9524064088643096 0.17712589549680652
0.435515625 -0.9534394360276818 0.1789606083919263
0.4366640625 -0.9532766898281966 0.17973185579871032
0.4378125 -0.952453628831462 0.18013510973745428
0.4389609375 -0.9530634716194634 0.18000837770731737
0.440109375 -0.953542333655534 0.1822260943004395
0.4412578125 -0.9520308882025399 0.1816784248749036
0.44240625 -0.9523130900803293 0.18188772424804656
0.4435546875 -0.9521347731421841 0.1814184919456761
0.444703125 -0.953101668280026 0.18272488491960293
0.4458515625 -0.9518817113391985 0.18376511069877616
0.447 -0.9533754435618342 0.18518857807006622
0.4481484375 -0.950940107678324 0.1823379589816434
0.449296875 -0.9520502134040516 0.18537020353832684
0.4504453125 -0.952978665476154 0.18525548763909894
0.45159375 -0.9525820330763282 0.18687698807619196
0.4527421875 -0.9532126511785772 0.18579156777266825
0.453890625 -0.9535470143612019 0.18726171823769072
0.4550390625 -0.9533648906235828 0.18672300699103156
0.4561875 -0.952809775320388 0.18658796860963867
0.4573359375 -0.9534529080688416 0.18804197067124573
0.458484375 -0.9533597398121398 0.1881841066576912
0.4596328125 -0.9539117784605421 0.18695280966405814
0.46078125 -0.9541010321227503 0.19125292037446423
0.4619296875 -0.9528491028278888 0.18950502932521618
0.463078125 -0.9537209398615385 0.19085846408124968
0.4642265625 -0.9523775735766541 0.1904503442931752
0.465375 -0.9536539145540839 0.19038829973746418
0.4665234375 -0.9535709395515896 0.19218818280728256
0.467671875 -0.952832694524826 0.19079720396722033
0.4688203125 -0.9519570190293739 0.19396111634560126
0.46996875 -0.9532425834604539 0.1926440248157713
0.4711171875 -0.9523764857118877 0.19374970849657863
0.472265625 -0.9524599875261041 0.19458346745124488
0.4734140625 -0.9519379190387254 0.1938618060806621
0.4745625 -0.9518216227151758 0.1936866398811489
0.4757109375 -0.9519857711290832 0.19376094480311254
0.476859375 -0.9514600653374184 0.1939020378079066
0.4780078125 -0.9519096008834536 0.1944569109435935
0.47915625 -0.9514736663227239 0.19553425198031993
0.4803046875 -0.950789163783579 0.19632227724373152
0.481453125 -0.9513841853961379 0.19649951207494845
0.4826015625 -0.9515179004981631 0.1970271663448956
0.48375 -0.9509705326645331 0.19795346224990243
0.4848984375 -0.9510472689431172 0.19761649066837048
0.486046875 -0.951059146071192 0.19802769613059637
0.4871953125 -0.95126552485313 0.19835008258459755
0.48834375 -0.9509041301146705 0.19765563407336084
0.4894921875 -0.9507318016655092 0.19799773212907354
0.490640625 -0.9504051886218019 0.19849036084420896
0.4917890625 -0.9499916467065265 0.1984789828970163
0.4929375 -0.949118781659346 0.1993828008047123
0.4940859375 -0.9494608892346179 0.1994437205462652
0.495234375 -0.9488605600609945 0.2003667349626292
0.4963828125 -0.9490532168258166 0.2008678611025621
0.49753125 -0.9492153957722729 0.2014038739332263
0.4986796875 -0.9484090360647175 0.20185825224234766
0.499828125 -0.9486240102728601 0.203520074909176
0.5009765625 -0.9483977404828207 0.20405079853421554
0.502125 -0.9480135961879583 0.2049882549719414
0.5032734375 -0.9474985174524985 0.20557643862278735
0.504421875 -0.9484492932280749 0.20583176509912984
0.5055703125 -0.9489868726652892 0.20690449568858138
0.50671875 -0.9483036386049535 0.20710859401393128
0.5078671875 -0.9484265302616439 0.20754505549649427
0.509015625 -0.9489498216989916 0.20846412879457588
0.5101640625 -0.9484720971019766 0.20927841001289438
0.5113125 -0.9501707085626867 0.21070191159371343
0.5124609375 -0.9495543077966353 0.21017881736974617
0.513609375 -0.9496615788016922 0.2108588102598374
0.5147578125 -0.9495013798052695 0.21075225897920333
0.51590625 -0.9492685935810091 0.21107543763922915
0.5170546875 -0.9493419436153021 0.21201580687168153
0.518203125 -0.9492189759794101 0.21237568246940175
0.5193515625 -0.9492728602345889 0.21305290231541413
0.5205 -0.948091926991912 0.21306433118308188
0.5216484375 -0.9481630241716179 0.21414814964542894
0.522796875 -0.9486296108290814 0.21467694201005655
0.5239453125 -0.9486653699625865 0.2153773333584218
0.52509375 -0.9486824594425596 0.21623767821935674
0.5262421875 -0.9490348933480359 0.21682089251013528
0.527390625 -0.9489432184669521 0.21740825449695583
0.5285390625 -0.9487417207576039 0.21813295984083006
0.5296875 -0.9479787420901671 0.21818882179892282
0.5308359375 -0.9487283782263821 0.21871556066309633
0.531984375 -0.9489764110474428 0.21980937060566813
0.5331328125 -0.9481955938288454 0.2198446884702619
0.53428125 -0.9484223036871204 0.22093328462572404
0.5354296875 -0.948801439835441 0.22136155633937
0.536578125 -0.948259752475737 0.22195405961508624
0.5377265625 -0.9488290731423176 0.22240657966957939
0.538875 -0.9487012144856787 0.22319255752313677
0.5400234375 -0.9483381387636388 0.22453994927674498
0.541171875 -0.9487257850721654 0.2244488576083079
0.5423203125 -0.9488520800399611 0.22503613544657058
0.54346875 -0.9486227560395549 0.22470061157129761
0.5446171875 -0.9491145749610934 0.22578025325932327
0.545765625 -0.9488177244731192 0.22626219348181445
0.5469140625 -0.9487437350532963 0.22647155168273683
0.5480625 -0.9486654320666337 0.22654553797425164
0.5492109375 -0.9489169879989463 0.22764683281560366
0.550359375 -0.94850153309087 0.228510133817112
0.5515078125 -0.9484314238723169 0.2288977290706537
0.55265625 -0.9483888169744559 0.22920131006071187
0.5538046875 -0.9479137523756098 0.22933610291261236
0.554953125 -0.9480593133602093 0.23068637940765868
0.5561015625 -0.9479598749220215 0.23085875015405738
0.55725 -0.9479013619147747 0.2317371661297249
0.5583984375 -0.9479201421482215 0.23198723520342213
0.559546875 -0.9479803973606451 0.23303424362074346
0.5606953125 -0.9487340019016751 0.2331100547516245
0.56184375 -0.9482162826162772 0.2334821816464622
0.5629921875 -0.9467287162291251 0.2346480339588566
0.564140625 -0.9469569347784341 0.23516930560232024
0.5652890625 -0.9471480707499114 0.23553056129867686
0.5664375 -0.9465856912424964 0.2364562567928965
0.5675859375 -0.9467432480292932 0.23687482465534107
0.568734375 -0.946163287021916 0.2371378302280831
0.5698828125 -0.946347616975643 0.23707968945645877
0.57103125 -0.9461952146394575 0.23844936139838205
0.5721796875 -0.9462539329988209 0.23881883848087793
0.573328125 -0.9456808228528137 0.23937539499929913
0.5744765625 -0.9456058779362021 0.24025241268817282
0.575625 -0.9457743552174087 0.24079870200934106
0.5767734375 -0.945845222913915 0.24242986754126794
0.577921875 -0.9465698747349081 0.24265599384989206
0.5790703125 -0.9449534784101499 0.24330168090446141
0.58021875 -0.9452693393124466 0.24393088886002803
0.5813671875 -0.9451446436854913 0.24408534860639813
0.582515625 -0.9448279705486977 0.24562402979893314
0.5836640625 -0.9446907308283237 0.2460480773151635
0.5848125 -0.9443421067611281 0.24641025068508457
0.5859609375 -0.9445693144839727 0.24772641176364646
0.587109375 -0.9442459938742529 0.24821908931728937
0.5882578125 -0.944280439607482 0.24857110681049724
0.58940625 -0.9441875682099165 0.24894563513449555
0.5905546875 -0.9444525898789289 0.24989045910718988
0.591703125 -0.9442028013413863 0.250529500481441
0.5928515625 -0.9440448862847581 0.2508382747461104
0.594 -0.943878377520355 0.2512819816050902
0.5951484375 -0.9444204706088409 0.2518335872219102
0.596296875 -0.9438289355555816 0.25250414707700974
0.5974453125 -0.9441114813435132 0.2529041823716349
0.59859375 -0.9447153674643736 0.25321242378358283
0.5997421875 -0.944478902881154 0.25431541226882287
0.600890625 -0.9446553729162492 0.2548948138671849
0.6020390625 -0.9445609736851573 0.25515472060335626
0.6031875 -0.9444518336254621 0.25616528834544416
0.6043359375 -0.9447137927953525 0.2565480965172406
0.605484375 -0.945028570891262 0.25696945968921475
0.6066328125 -0.9449639661993172 0.25750210242037075
0.60778125 -0.9456021961731775 0.2577109030384175
0.6089296875 -0.9446889329795587 0.2574387636571764
0.610078125 -0.9449545739429195 0.2574178925949166
0.6112265625 -0.9448360824033595 0.2579315713060314
0.612375 -0.9445780926708556 0.2587086704337259
0.6135234375 -0.944523588028708 0.25883124373597727
0.614671875 -0.9439805027566128 0.2594240631386156
0.6158203125 -0.9433840445258528 0.25982902220003734
0.61696875 -0.9430968491202183 0.2601576963837436
0.6181171875 -0.9434322985982029 0.2606875343915501
0.619265625 -0.9431784817819839 0.2613168555930742
0.6204140625 -0.9433789880091583 0.26200087905221425
0.6215625 -0.9435920288325761 0.262755387323817
0.6227109375 -0.9434419691145868 0.2628497208175003
0.623859375 -0.9434994907238192 0.26351022800237583
0.6250078125 -0.9438610399350604 0.26363038107324643
0.62615625 -0.9435298256194601 0.2641861058233324
0.6273046875 -0.9432479783963376 0.2635159153883462
0.628453125 -0.9432117371965768 0.26474692377853454
0.6296015625 -0.942819052022946 0.26524755680777284
0.63075 -0.9432068064352408 0.2667634530480576
0.6318984375 -0.9424385414250077 0.26621161044290176
0.633046875 -0.9426604286648103 0.26671737463031137
0.6341953125 -0.9410471126688477 0.26735725273308036
0.63534375 -0.9395515345514466 0.2666132261039129
0.6364921875 -0.9415377747707558 0.2675689934610667
0.637640625 -0.9417378956163388 0.26799380011324314
0.6387890625 -0.9403435335956711 0.26891171471277864
0.6399375 -0.9414299109961817 0.26894755430366185
0.6410859375 -0.9408506146013853 0.26922842638138655
0.642234375 -0.939229902849619 0.2708589515140539
0.6433828125 -0.9409433724020307 0.27043759251719485
0.64453125 -0.9406633026077834 0.2708798000244428
0.6456796875 -0.9394855284076172 0.27229814669758967
0.646828125 -0.9408971753075503 0.27176800126562944
0.6479765625 -0.9407121479275238 0.27243587745732195
0.649125 -0.9394944483545833 0.2754745337477332
0.6502734375 -0.9400601349157917 0.27413010578627534
0.651421875 -0.9404634408294754 0.27398533419202503
0.6525703125 -0.9404923581443262 0.27501960906104145
0.65371875 -0.9403532040612064 0.2755063463643338
0.6548671875 -0.9407387551557278 0.27505688682780327
0.656015625 -0.939675057161114 0.2785966026805053
0.6571640625 -0.939763756533033 0.2764819075891849
0.6583125 -0.9399428191809867 0.2770121387466713
0.6594609375 -0.9395147639525291 0.27683578189707536
0.660609375 -0.9396527124286096 0.27784174233353853
0.6617578125 -0.9390727369687711 0.27892713125297974
0.66290625 -0.9394075251333397 0.27962496995263514
0.6640546875 -0.9401058209957531 0.2804812022790159
0.665203125 -0.9400819222958582 0.2816408634104025
0.6663515625 -0.9389130783561348 0.28101005002607415
0.6675 -0.9396757863988385 0.2815765834835694
0.6686484375 -0.9385748263924617 0.28258531396770314
0.669796875 -0.9393416085870108 0.2833534127902105
0.6709453125 -0.9382006718757139 0.2842763701503355
0.67209375 -0.9396604363341056 0.2845924232892199
0.6732421875 -0.9393766286686054 0.2846269342542406
0.674390625 -0.9392668900351449 0.2848252214496297
0.6755390625 -0.9390545403005521 0.2864085835217881
0.6766875 -0.9390343602729135 0.286052617360644
0.6778359375 -0.9389026331292203 0.2857516997912033
0.678984375 -0.9389009080379195 0.2870891671220815
0.6801328125 -0.9388155034244696 0.28716771565038507
0.68128125 -0.939014357431276 0.2881426878705908
0.6824296875 -0.9387640257371559 0.2885263320767629
0.683578125 -0.938966687282029 0.28874068171119127
0.6847265625 -0.9385485822660814 0.2894735679215064
0.685875 -0.9386509249462205 0.2903181904783853
0.6870234375 -0.9388778709629433 0.29046952430909634
0.688171875 -0.9384843562891928 0.2910924421092783
0.6893203125 -0.9392347976316684 0.29144797882269413
0.69046875 -0.9388969289567467 0.2914085944505724
0.6916171875 -0.9387542903232178 0.291878211655174
0.692765625 -0.9379854814258842 0.2920670803600798
0.6939140625 -0.9379024718821556 0.29266738736835035
0.6950625 -0.9371535872632507 0.29319624007518263
0.6962109375 -0.9375126373287297 0.2942352717115583
0.697359375 -0.9374168769440508 0.29465352327735195
0.6985078125 -0.9373278442794736 0.2955356585056492
0.69965625 -0.9374235009649431 0.2960874586296658
0.7008046875 -0.937121571426676 0.29641587657260415
0.701953125 -0.9366647755245244 0.2969099661093181
0.7031015625 -0.9369535946276081 0.2974894434507535
0.70425 -0.9366729166991649 0.29816343301147785
0.7053984375 -0.9360267563487276 0.2979956297401247
0.706546875 -0.9364373620126281 0.2989766787272178
0.7076953125 -0.9362174574692489 0.29942218111244345
0.70884375 -0.9360876476099341 0.2999579217179975
0.7099921875 -0.9362019239672468 0.3002552420151071
0.711140625 -0.9356047535325089 0.30040457648932306
0.7122890625 -0.935424964257004 0.3014560896428463
0.7134375 -0.9355990938892237 0.30291454977029764
0.7145859375 -0.9348899513673998 0.3033251773539246
0.715734375 -0.9348530493739255 0.30395313519274136
0.7168828125 -0.9347265957950133 0.3044429348616986
0.71803125 -0.9347863336624401 0.30554195560130304
0.7191796875 -0.9341995634781304 0.305125964948095
0.720328125 -0.9340799098043558 0.3072113382685087
0.7214765625 -0.9336880418599378 0.3067495096975987
0.722625 -0.9334453736264949 0.3076359009956222
0.7237734375 -0.9333904810552989 0.3083313070347663
0.724921875 -0.9330397475764546 0.30926286087914445
0.7260703125 -0.9330295358234951 0.30901678310564873
0.72721875 -0.9324765471057871 0.31002209746412807
0.7283671875 -0.9326392186728487 0.3107868024601377
0.729515625 -0.9320118777537302 0.31165020475047145
0.7306640625 -0.932103470412539 0.31231435141843666
0.7318125 -0.9320453495944072 0.3128926671636878
0.7329609375 -0.9320693942004322 0.3135966448546531
0.734109375 -0.9319186097276406 0.3144565052608187
0.7352578125 -0.9317932070503732 0.315186791559938
0.73640625 -0.9315589690424699 0.31583104939032136
0.7375546875 -0.9315661490186051 0.3167915178452634
0.738703125 -0.9313780053503131 0.3174358563016767
0.7398515625 -0.9309603721806026 0.31790186363307893
0.741 -0.9310177464361485 0.3187474235154892
0.7421484375 -0.9307537923729019 0.31932191144605854
0.743296875 -0.9306448865866681 0.3197474528940479
0.7444453125 -0.9301882722449248 0.3205303831794212
0.74559375 -0.9306109884899394 0.32142872306418113
0.7467421875 -0.930659467116956 0.32163448503690756
0.747890625 -0.9305582769241225 0.3221147623173997
0.7490390625 -0.9301120810954813 0.3221863737864503
0.7501875 -0.9301207505760193 0.322962925861983
0.7513359375 -0.9299937956301896 0.32389429337464903
0.752484375 -0.9294017887421895 0.3246103803707157
0.7536328125 -0.9291973996578853 0.32525876768823053
0.75478125 -0.9289877453735769 0.32614883557969565
0.7559296875 -0.9291343979042437 0.3267196519577542
0.757078125 -0.9289910219277926 0.3270563699174782
0.7582265625 -0.9294302139156131 0.32748226053627266
0.759375 -0.9291023288816243 0.32800389030145183
0.7605234375 -0.9290205149395833 0.3287933633670854
0.761671875 -0.9290026602571068 0.3296010823919513
0.7628203125 -0.9286392938042085 0.32974583452305317
0.76396875 -0.9284706052971974 0.330619616823255
0.7651171875 -0.9286183945581026 0.33076359875388806
0.766265625 -0.9286365540029584 0.3316869334212747
0.7674140625 -0.9281243157110405 0.33224303306263003
0.7685625 -0.9279255885033575 0.3330072895658394
0.7697109375 -0.9280966050841829 0.33347178936819266
0.770859375 -0.9285000036522864 0.33346126351696637
0.7720078125 -0.9282324206360834 0.33455922067571753
0.77315625 -0.9274057987546458 0.3349256770438096
0.7743046875 -0.9274856847023301 0.3360657189641979
0.775453125 -0.9268466563773045 0.3358673167159871
0.7766015625 -0.927589482479281 0.3354846619717572
0.77775 -0.9275111024671876 0.3365358945614105
0.7788984375 -0.9273806374057849 0.33734687500489224
0.780046875 -0.927423157119295 0.3381118228798726
0.7811953125 -0.9264139439967447 0.3382337296842295
0.78234375 -0.9267345501169597 0.33919514907760495
0.7834921875 -0.9262495106005904 0.339400253875033
0.784640625 -0.9256727599885182 0.3398254425236955
0.7857890625 -0.9260211534397573 0.34031966657428214
0.7869375 -0.9255574954767336 0.3410090031920866
0.7880859375 -0.925169481362605 0.34078972723793244
0.789234375 -0.9256581928924792 0.3415513768040031
0.7903828125 -0.9253343986356906 0.34254829842230317
0.79153125 -0.9254966895446396 0.34221727548774683
0.7926796875 -0.9245484218470806 0.34257659202828483
0.793828125 -0.9249751776054709 0.3434371686997161
0.7949765625 -0.9242933038421961 0.3441319874818607
0.796125 -0.9249898711814855 0.3444305427698244
0.7972734375 -0.9247200307392719 0.3451379488493181
0.798421875 -0.9244090794310997 0.345720508193587
0.7995703125 -0.9244986339496202 0.34669280157018106
0.80071875 -0.9238121107709452 0.34661814048317463
0.8018671875 -0.9238045645026438 0.3479601847256284
0.803015625 -0.9238569747970659 0.34803163662926073
0.8041640625 -0.9233048071549667 0.34864223779646136
0.8053125 -0.92334564324496 0.3490957060780271
0.8064609375 -0.9233259319297766 0.3497130094820257
0.807609375 -0.9233514245421891 0.35005075916106465
0.8087578125 -0.9233654270977125 0.350530494145496
0.80990625 -0.9233000304951238 0.3508452090393065
0.8110546875 -0.9232120343670001 0.35083649636694775
0.812203125 -0.9227468174363439 0.35129341261672387
0.8133515625 -0.9227456535331192 0.3515911077885046
0.8145 -0.9224162370810014 0.3522279279467759
0.8156484375 -0.9223277322498521 0.3527474897978101
0.816796875 -0.9217029821281871 0.3533625761782778
0.8179453125 -0.9221709432455625 0.35376571537673973
0.81909375 -0.9218820685318436 0.3540662892335402
0.8202421875 -0.9218246137829136 0.35508306453796357
0.821390625 -0.9217911271185231 0.35540718351487127
0.8225390625 -0.9219186791580037 0.3555284712878793
0.8236875 -0.9217625995285804 0.3560675618933415
0.8248359375 -0.9215634820624272 0.35619066414326994
0.825984375 -0.921457172379164 0.35695884656681937
0.8271328125 -0.9210331564089461 0.3575837930823176
0.82828125 -0.9206722918896846 0.35731368704740757
0.8294296875 -0.9218781871681391 0.35813714849923384
0.830578125 -0.9214248685570684 0.3583656640129392
0.8317265625 -0.9206906453385301 0.35927469756395997
0.832875 -0.9215409375704955 0.3603383120959275
0.8340234375 -0.9213493259527598 0.360100687401242
0.835171875 -0.9204689329458129 0.36119190981490146
0.8363203125 -0.9207836210269202 0.36115912620290724
0.83746875 -0.9210962817017407 0.36091941728618926
0.8386171875 -0.9205842922081672 0.3621470699083076
0.839765625 -0.9200564407592038 0.3628814574525181
0.8409140625 -0.9193519925481702 0.36330498136126
0.8420625 -0.9202127153913419 0.36280266302860587
0.8432109375 -0.9205770439194734 0.3631733483197789
0.844359375 -0.9200867662949017 0.36493672093946605
0.8455078125 -0.9209866709970368 0.36643986217524743
0.84665625 -0.9194301613096185 0.36532746990209186
0.8478046875 -0.9185386755712397 0.36599310959850556
0.848953125 -0.919015681843896 0.3660563286048002
0.8501015625 -0.9170847752651332 0.3670618867426899
0.85125 -0.9171222356997415 0.3672120485686124
0.8523984375 -0.917918963361688 0.3687738101105281
0.853546875 -0.9168470811816659 0.3689162839916339
0.8546953125 -0.9184314948921635 0.3700879190377303
0.85584375 -0.9182389040919148 0.36963884504684325
0.8569921875 -0.9180514362928827 0.3710287547816245
0.858140625 -0.9192385381040356 0.37160338104726603
0.8592890625 -0.917619239809853 0.3723101459319102
0.8604375 -0.9180715676613703 0.37214824761881293
0.8615859375 -0.9162361984394044 0.37233786570012073
0.862734375 -0.9166990435072624 0.3733037788560293
0.8638828125 -0.9164050812371656 0.3732516363599818
0.86503125 -0.9164917568326915 0.3743038651899002
0.8661796875 -0.9155704119312369 0.37439557766976794
0.867328125 -0.9151704581761866 0.3750711388933939
0.8684765625 -0.9153790759404699 0.3757044387969723
0.869625 -0.9155592397041216 0.37711631202302076
0.8707734375 -0.9153304880736542 0.37682690697348276
0.871921875 -0.9142125235393319 0.3773833250750973
0.8730703125 -0.9147962353709137 0.37800817533587633
0.87421875 -0.9146142400112243 0.3783218236764291
0.8753671875 -0.9143955898078886 0.3796383554097448
0.876515625 -0.9142015940382517 0.37977663535865036
0.8776640625 -0.9140439375380335 0.38010253386075066
0.8788125 -0.9140079806679718 0.3806863448212209
0.8799609375 -0.913760962472163 0.38124623139828606
0.881109375 -0.9133739493459717 0.38179407913551233
0.8822578125 -0.9133695644645682 0.38266572707795643
0.88340625 -0.9130947594117577 0.38324484078353194
0.8845546875 -0.912882390102662 0.3837402088678739
0.885703125 -0.9128034843822845 0.3845306633052127
0.8868515625 -0.912679065867464 0.3850221636175044
0.888 -0.912756520144765 0.38552040328288006
0.8891484375 -0.9127088042163496 0.3860263567020393
0.890296875 -0.9124894864806158 0.3865385186906374
0.8914453125 -0.9118509219065554 0.3868193226920909
0.89259375 -0.9116387541424241 0.3870800585420016
0.8937421875 -0.9115887866840775 0.38775887193469444
0.894890625 -0.9115731507892555 0.3886397510184643
0.8960390625 -0.9112037265142783 0.3890604926473702
0.8971875 -0.9111138172663619 0.38968115970223083
0.8983359375 -0.9107822625366508 0.3902876466640303
0.899484375 -0.9104801093822916 0.3906982718117894
0.9006328125 -0.9100349281984279 0.3914428133785597
0.90178125 -0.9100191036450003 0.39194746191469354
0.9029296875 -0.9096800398156397 0.3927157619606504
0.904078125 -0.909187061209505 0.39291943887564806
0.9052265625 -0.9089743359463518 0.3938670235635438
0.906375 -0.9091154482758309 0.3939545774608747
0.9075234375 -0.9087662920646418 0.3944718048830691
0.908671875 -0.9081876356075006 0.3954761246590406
0.9098203125 -0.9080311257866707 0.39561524371782936
0.91096875 -0.9078996536876756 0.39620488217237504
0.9121171875 -0.9073459908409125 0.39690814736744284
0.913265625 -0.907696053370922 0.3973005882639722
0.9144140625 -0.907307039772498 0.3982523881471102
0.9155625 -0.9066550342314748 0.3985225283251435
0.9167109375 -0.9060363279773354 0.3994693232633571
0.917859375 -0.9063752400058662 0.40009427956880933
0.9190078125 -0.9058767464602188 0.400425985021989
0.92015625 -0.9053887789225699 0.401133816142265
0.9213046875 -0.9060167064685045 0.4021018457829196
0.922453125 -0.9055225741121323 0.40284426354481
0.9236015625 -0.9047335083224899 0.4029925896641328
0.92475 -0.9043263361279694 0.4039525375663688
0.9258984375 -0.9042185523992784 0.40354230970697624
0.927046875 -0.9039701290389908 0.40478780198307224
0.9281953125 -0.9035418857800726 0.40554437920222963
0.92934375 -0.9033385472546164 0.4060019465178045
0.9304921875 -0.902824999865895 0.406422363308782
0.931640625 -0.9024099889174406 0.40735953161764615
0.9327890625 -0.9026277151850044 0.40828531887708475
0.9339375 -0.9022572157663886 0.4083637244791374
0.9350859375 -0.9018549714366904 0.40899046167840636
0.936234375 -0.9016508450878722 0.409121931233178
0.9373828125 -0.901127072883692 0.40998313071287684
0.93853125 -0.9009859570335165 0.4115532888392066
0.9396796875 -0.9007738781290542 0.4116896386050344
0.940828125 -0.9005370946550146 0.4123843939888844
0.9419765625 -0.9002757329096127 0.4125932309598237
0.943125 -0.8997520130591675 0.4130962245195129
0.9442734375 -0.8995135554327824 0.4136287351055351
0.945421875 -0.8994691366140628 0.41467480255289213
0.9465703125 -0.8992743081982882 0.41559008289135585
0.94771875 -0.8992990621303706 0.4157334029531289
0.9488671875 -0.8990045339949657 0.4167919606911
0.950015625 -0.8990525651339608 0.4172166600994289
0.9511640625 -0.8991587032922624 0.417655620503129
0.9523125 -0.8989207661470809 0.41815784235046927
0.9534609375 -0.8990149071155411 0.4187623254752224
0.954609375 -0.8988282153347811 0.41941825579281355
0.9557578125 -0.8988733009400426 0.41968197183352896
0.95690625 -0.8986446916546602 0.4202835101516159
0.9580546875 -0.8985252461332618 0.4205202978533927
0.959203125 -0.8977758331872636 0.42120676855516004
0.9603515625 -0.897833908360928 0.42129901903015154
0.9615 -0.8971064601880605 0.42187762382033067
0.9626484375 -0.8967781928568408 0.42234080023910847
0.963796875 -0.8972020723497602 0.42282058415246165
0.9649453125 -0.8966158093428238 0.4235211039877667
0.96609375 -0.8969044402548083 0.423646797390709
0.9672421875 -0.8957986015815801 0.4246683755445123
0.968390625 -0.8962291934344228 0.4251584022072442
0.9695390625 -0.8962803093561381 0.42485478598801735
0.9706875 -0.8969363120614446 0.42595826402434317
0.9718359375 -0.8961275700323799 0.42610351146935543
0.972984375 -0.8966728617165912 0.42602694780797834
0.9741328125 -0.8959152045009078 0.42740824113888864
0.97528125 -0.8961603192122092 0.42777883343379863
0.9764296875 -0.8962207161076637 0.4286649326980795
0.977578125 -0.8959320507524415 0.4289265972916072
0.9787265625 -0.8952980681164885 0.4295976778840445
0.979875 -0.8952441851028213 0.42894865873067756
0.9810234375 -0.8953872753546437 0.4294637137492603
0.982171875 -0.8942325143104833 0.4300531372857399
0.9833203125 -0.8945562260935122 0.4308813273754293
0.98446875 -0.8946021478466237 0.4312572230577297
0.9856171875 -0.894945205430335 0.4318513915457989
0.986765625 -0.8939283242684709 0.4324016450805876
0.9879140625 -0.8940705582093217 0.43372067026724753
0.9890625 -0.8943466691051913 0.4339146386833404
0.9902109375 -0.8942120344778834 0.4343526717657112
0.991359375 -0.8932537789197537 0.4335075522525081
0.9925078125 -0.8928262160666405 0.4341542987247816
0.99365625 -0.8927326141281955 0.4351765927067793
0.9948046875 -0.8922388698778564 0.436387300872771
0.995953125 -0.892206839860607 0.4366884642470688
0.9971015625 -0.8920737402924642 0.43626456501405253
0.99825 -0.8919302536246004 0.43722900509377033
0.9993984375 -0.8912380972549747 0.43663235922126314
1.000546875 -0.8907934656091003 0.4369343885183046
1.0016953125 -0.8907047753496031 0.437711716597769
1.00284375 -0.8903696690968579 0.4379438487158436
1.0039921875 -0.8906704838756062 0.43874366864204695
1.005140625 -0.8902375797021166 0.43924154608531174
1.0062890625 -0.8897478255602932 0.43967636028699386
1.0074375 -0.8898569113676862 0.43983139720840647
1.0085859375 -0.8887337525769133 0.44052559175169437
1.009734375 -0.889049754684884 0.4407130837839103
1.0108828125 -0.8882269512700954 0.44172260996251844
1.01203125 -0.8878550427233288 0.4420007950973525
1.0131796875 -0.8877796560942244 0.4426660500817953
1.014328125 -0.8871922008255813 0.4433793450497574
1.0154765625 -0.8873587180405129 0.4441583920104702
1.016625 -0.8873791607050185 0.44478378866207285
1.0177734375 -0.8875781384964676 0.4454341770857084
1.018921875 -0.887943617006521 0.4457647639253612
1.0200703125 -0.8872174528420804 0.44632288668042486
1.02121875 -0.8870308772338342 0.44630094519619745
1.0223671875 -0.8872885452977675 0.44705335548506064
1.023515625 -0.8870012090640222 0.44730378312077423
1.0246640625 -0.8874645627602702 0.44748900447359174
1.0258125 -0.8866354572180041 0.4485097050728891
1.0269609375 -0.8867556972298509 0.4486221703401361
1.028109375 -0.8861136950314964 0.4491546048609086
1.0292578125 -0.88654161620606 0.4495841992785282
1.03040625 -0.8867711111229565 0.450360899733337
1.0315546875 -0.8869603219497101 0.45089342871087024
1.032703125 -0.8869154790755385 0.45032674690161617
1.0338515625 -0.8849981283779942 0.4512152813832272
1.035 -0.8848094652869607 0.45104084627415597
1.0361484375 -0.8858476573014915 0.452206581816272
1.037296875 -0.8842621077252025 0.45202693062331484
1.0384453125 -0.88470106437971 0.454479467726575
1.03959375 -0.8855468764720043 0.4538295831013037
1.0407421875 -0.8851144987038353 0.4534063935033611
1.041890625 -0.8843055205809056 0.45476454432410746
1.0430390625 -0.88396560048039 0.45368809245786546
1.0441875 -0.8843340477889574 0.4559524801586495
1.0453359375 -0.8841039969383192 0.45586692459382644
1.046484375 -0.8837733826130229 0.4555429247044487
1.0476328125 -0.8829295719233318 0.45646145978577224
1.04878125 -0.8833264293610855 0.45692909713669827
1.0499296875 -0.8825980656715884 0.458007172367718
1.051078125 -0.8819976885832421 0.45861000606660923
1.0522265625 -0.8824924247127223 0.45956763991609817
1.053375 -0.8818177012050694 0.46168105034476564
1.0545234375 -0.8810266342409834 0.4604078499047677
1.055671875 -0.8811706227134323 0.46099145782589
1.0568203125 -0.8801597540225733 0.46113686335598086
1.05796875 -0.8805603994779936 0.462003991285449
1.0591171875 -0.880017290112771 0.46313986066329493
1.060265625 -0.879788346867594 0.4633627214804154
1.0614140625 -0.8798335211847379 0.4633122880621085
1.0625625 -0.880319060295976 0.4638219944375007
1.0637109375 -0.8783359203906339 0.4641920214011497
1.064859375 -0.8783466895255039 0.46505308488040337
1.0660078125 -0.8783764649569265 0.464691456997898
1.06715625 -0.8785005940975031 0.4653919927231694
1.0683046875 -0.8780406514789468 0.46628773767278753
1.069453125 -0.8773243471132005 0.46666067170810366
1.0706015625 -0.8765326846743436 0.46659908353435253
1.07175 -0.8761746844654656 0.46710251880450326
1.0728984375 -0.8759121716063617 0.46757008647948656
1.074046875 -0.8757440042637863 0.46835665222859707
1.0751953125 -0.8759250370438686 0.4693221167388368
1.07634375 -0.8750433824920063 0.46938769899175453
1.0774921875 -0.8750528734106038 0.4698667391117208
1.078640625 -0.8747841668358466 0.47002574195144564
1.0797890625 -0.8739673040300235 0.47112098831848054
1.0809375 -0.8732024607930124 0.47158769387929894
1.0820859375 -0.8730062107768531 0.47241519127511045
1.083234375 -0.8728680283417839 0.4735083898272784
1.0843828125 -0.8730218539382615 0.4738541664346071
1.08553125 -0.8724718992200232 0.4743101766062356
1.0866796875 -0.8722352802332546 0.47477284982030543
1.087828125 -0.8719451448454394 0.4750706856307031
1.0889765625 -0.8714074272990778 0.476075745585279
1.090125 -0.8712629010577804 0.4766992379545799
1.0912734375 -0.8711868700272213 0.47758115922343547
1.092421875 -0.8711012270044255 0.47777924205462513
1.0935703125 -0.8712225446931343 0.4784544378179834
1.09471875 -0.8710150909268654 0.47852432406897516
1.0958671875 -0.8714168330141691 0.47925644629720476
1.097015625 -0.8706111852746253 0.47993962070858437
1.0981640625 -0.8698852784311039 0.4803310994269659
1.0993125 -0.8699580192164744 0.4806190388051553
1.1004609375 -0.869733958026439 0.48124425066320975
1.101609375 -0.8688914551817025 0.48171311212881196
1.1027578125 -0.8688814645459421 0.4827439698264584
1.10390625 -0.8691088724271563 0.48364087298178254
1.1050546875 -0.868626376875374 0.4834927627270037
1.106203125 -0.8671806373846349 0.48391144659179464
1.1073515625 -0.8676081719763391 0.48519115958093406
1.1085 -0.8668826313780643 0.4848013920801873
1.1096484375 -0.8669016407876831 0.48578656870723946
1.110796875 -0.8663209842427951 0.48609335759880956
1.1119453125 -0.866407161499527 0.48691066020705953
1.11309375 -0.8664445899485437 0.4880553855891207
1.1142421875 -0.8661943655572926 0.4878623353428246
1.115390625 -0.865709436232394 0.4882170128541635
1.1165390625 -0.8656216712792995 0.48911185300604054
1.1176875 -0.8653017795559586 0.48929556531013635
1.1188359375 -0.8654668343691172 0.4900544734911465
1.119984375 -0.8651118463574649 0.4901343190875018
1.1211328125 -0.8645730341150989 0.4914096085904036
1.12228125 -0.8644476872061748 0.4907255408608751
1.1234296875 -0.8640004497784193 0.49156074686028306
1.124578125 -0.8644814013167772 0.49266325084510987
1.1257265625 -0.8640180539630806 0.49230530367082437
1.126875 -0.8638263498373483 0.4934508793893562
1.1280234375 -0.8626747325624604 0.49353511717386545
1.129171875 -0.8624132322174038 0.4944859617192242
1.1303203125 -0.8620259639403381 0.4948501468001903
1.13146875 -0.862297002415584 0.4949019889445058
1.1326171875 -0.8618561577713578 0.49556261836843474
1.133765625 -0.861496459590844 0.49583831703525916
1.1349140625 -0.8611910073937885 0.4958904787133198
1.1360625 -0.8608275067195332 0.49688589772009994
1.1372109375 -0.8606763647272808 0.49724180777339266
1.138359375 -0.8605917648393958 0.49735449269577336
1.1395078125 -0.8603274361576468 0.4977904665343441
1.14065625 -0.8602424335911166 0.4980801446839048
1.1418046875 -0.8599481205102488 0.4982922037115156
1.142953125 -0.8590330675649893 0.49864567897422396
1.1441015625 -0.8583226827894745 0.49913232057855556
1.14525 -0.8581408717510858 0.5002755095375054
1.1463984375 -0.857715069477952 0.500618306354139
1.147546875 -0.8579809029652068 0.5007570084115684
1.1486953125 -0.8579278693268503 0.5019108925142414
1.14984375 -0.8582601560114422 0.5014411886052487
1.1509921875 -0.8575498052850028 0.5023780052283495
1.152140625 -0.8575755948301654 0.5031517396885565
1.1532890625 -0.8570806239352864 0.5034755691766649
1.1544375 -0.8568355463623978 0.5037179346759113
1.1555859375 -0.8577024039762905 0.5037958257198669
1.156734375 -0.8576535408583766 0.5047266199031528
1.1578828125 -0.8571890352414028 0.5050548547489873
1.15903125 -0.8569860904623146 0.5051947009603635
1.1601796875 -0.8564474548306115 0.5062619955135248
1.161328125 -0.8565190690437312 0.5062372772224417
1.1624765625 -0.8563755850636373 0.506918501322698
1.163625 -0.8562370015116518 0.5074051378050742
1.1647734375 -0.855865568775862 0.5071907934379658
1.165921875 -0.8550976045628845 0.5076940704124727
1.1670703125 -0.8562728891772015 0.507712772512936
1.16821875 -0.8560394774467757 0.5075808636936652
1.1693671875 -0.8554154793509262 0.5076837770172924
1.170515625 -0.8552235562609802 0.5076197174904538
1.1716640625 -0.8537553299769408 0.5082534113032626
1.1728125 -0.8544465693268642 0.5102294551393854
1.1739609375 -0.8535467611432163 0.5095178796723213
1.175109375 -0.8531893935884781 0.5104663857500782
1.1762578125 -0.8525917987435568 0.5110028334031244
1.17740625 -0.8526481003427147 0.5103733556955314
1.1785546875 -0.8524006056938591 0.5115320238257519
1.179703125 -0.851863972009838 0.5112418550442829
1.1808515625 -0.8510120784579792 0.5118305709763019
1.182 -0.8513669629201893 0.5120745886095925
1.1831484375 -0.8502417362969018 0.5137007846775572
1.184296875 -0.8504270987215645 0.5133380325213381
1.1854453125 -0.850978696789397 0.5129376708161495
1.18659375 -0.8497542124489685 0.5138586444631351
1.1877421875 -0.8501831312163641 0.5142186285060941
1.188890625 -0.8499980898176428 0.5150259642754502
1.1900390625 -0.8494435655128624 0.5142543289117713
1.1911875 -0.8490335463432319 0.5156555363949943
1.1923359375 -0.847993343421645 0.5162455591406548
1.193484375 -0.8471656774450813 0.516819883514922
1.1946328125 -0.8476385531833979 0.517537506381122
1.19578125 -0.8471715730672671 0.5181638327018183
1.1969296875 -0.8476183656591788 0.5192112457521041
1.198078125 -0.8468980373687005 0.5183570114005326
1.1992265625 -0.8464753353234531 0.519184870850032
1.200375 -0.8454323050447144 0.5191849010789646
1.2015234375 -0.8454433411133884 0.5199455578962018
1.202671875 -0.8458381371660972 0.5199258692905924
1.2038203125 -0.8456337417425623 0.5196284587479536
1.20496875 -0.8445543284531247 0.5208606506298945
1.2061171875 -0.8438674141442026 0.5208606432831927
1.207265625 -0.8432119120487005 0.5220271924354295
1.2084140625 -0.8420455634461865 0.5224397415592555
1.2095625 -0.8418434992006395 0.5227902466263963
1.2107109375 -0.8412222647147092 0.523941777384499
1.211859375 -0.8411808209865539 0.524452628891141
1.2130078125 -0.8411318032778259 0.525466264719691
1.21415625 -0.8412766057115747 0.5256139037568067
1.2153046875 -0.8409921958021354 0.5265586406916688
1.216453125 -0.8402825513269211 0.5276353227060174
1.2176015625 -0.8405687705119139 0.5277155186872309
1.21875 -0.8406264768839566 0.5282889097703208
1.2198984375 -0.8401131945401696 0.5295252241667991
1.221046875 -0.8408496289305716 0.5290527857637668
1.2221953125 -0.8400134588973812 0.5299199487276047
1.22334375 -0.839616590832539 0.5301310348187595
1.2244921875 -0.8391728889501523 0.5304175231855723
1.225640625 -0.8400376171345026 0.5317627623390877
1.2267890625 -0.8394625699647664 0.5319810803756165
1.2279375 -0.839993990768784 0.53232254954297
1.2290859375 -0.840464625469609 0.5330321863293154
1.230234375 -0.8402915822538757 0.5339778157029493
1.2313828125 -0.8404661853049108 0.535087408217543
1.23253125 -0.840213444657093 0.5345800169538738
1.2336796875 -0.8395189933291943 0.535858264176153
1.234828125 -0.8386954808830258 0.5356522999549882
1.2359765625 -0.8384538596536983 0.5360623201123935
1.237125 -0.8378199652048084 0.5363632084664112
1.2382734375 -0.8366096783975857 0.5355960067711737
1.239421875 -0.8368562990886748 0.5371674971798104
1.2405703125 -0.8374475912714359 0.5373961353408513
1.24171875 -0.8377320151469966 0.5371239039567229
1.2428671875 -0.8376930997827385 0.5385483583489237
1.244015625 -0.8370911313493202 0.5388036113074027
1.2451640625 -0.8370892419783506 0.5394106163767857
1.2463125 -0.836264826655247 0.5390556765371117
1.2474609375 -0.8362825697728242 0.5393789416727638
1.248609375 -0.8348993848652397 0.5402765681730639
1.2497578125 -0.8347389062409534 0.5395691184120268
1.25090625 -0.8355445455703485 0.5408616493617603
1.2520546875 -0.8345768006128763 0.5415556359060887
1.253203125 -0.8340283724759998 0.5417006910798886
1.2543515625 -0.8332603344058436 0.5414343295252535
1.2555 -0.8336396458575013 0.541795497840957
1.2566484375 -0.8324899589116447 0.5422878982450956
1.257796875 -0.8330489211906293 0.5426362167527683
1.2589453125 -0.832730509706593 0.543692861262542
1.26009375 -0.8315050347096417 0.543989745007083
1.2612421875 -0.8307617156621366 0.5438708696266009
1.262390625 -0.8311963114714446 0.5441476262848238
1.2635390625 -0.8302209514483595 0.544845359120231
1.2646875 -0.8305663150501224 0.5456648676986519
1.2658359375 -0.8303185565120246 0.546408433209328
1.266984375 -0.8294509409933055 0.5472740434125898
1.2681328125 -0.8286873616061188 0.5467557563192638
1.26928125 -0.828780650427538 0.5471090551218853
1.2704296875 -0.8282738718536382 0.5481634404567439
1.271578125 -0.8276026105170173 0.5482495449414254
1.2727265625 -0.8275044079026199 0.5492297926516595
1.273875 -0.826803819778169 0.5491856632666257
1.2750234375 -0.826535667786458 0.5493166142617023
1.276171875 -0.8258061710574529 0.549993620624181
1.2773203125 -0.8253951663899202 0.5509700730317474
1.27846875 -0.8248019632157916 0.5506746308931245
1.2796171875 -0.8243993600195962 0.5516923520464317
1.280765625 -0.8241174860664702 0.5519889258131201
1.2819140625 -0.8237382421550248 0.5521407375144791
1.2830625 -0.8225599024791295 0.5521586955224921
1.2842109375 -0.8221335178231371 0.5530382845839175
1.285359375 -0.8216066228928856 0.5535181268985226
1.2865078125 -0.821840284543399 0.5535549647851907
1.28765625 -0.8208719407134695 0.5552000044062422
1.2888046875 -0.8206294261948425 0.5553513642079343
1.289953125 -0.8205976950042289 0.5566405035348754
1.2911015625 -0.8200472848030209 0.5566935827701152
1.29225 -0.8202209883928382 0.5570910410474441
1.2933984375 -0.8205544593349335 0.5576641691315287
1.294546875 -0.8197112625291406 0.5575337237608791
1.2956953125 -0.8194258892092642 0.558344073741333
1.29684375 -0.8191476701195526 0.5590000779564703
1.2979921875 -0.8188381319807537 0.5598173269091904
1.299140625 -0.8200225649171321 0.5601522778706989
1.3002890625 -0.8197109514449806 0.5616853895692819
1.3014375 -0.8183866008295262 0.5617859187103167
1.3025859375 -0.8198892020177948 0.5622502986502589
1.303734375 -0.8199662853319315 0.5629626034424839
1.3048828125 -0.8192664143097638 0.5631230012167502
1.30603125 -0.8179823951541823 0.5633255102320055
1.3071796875 -0.8176971859237027 0.5633518913824327
1.308328125 -0.8191319054843907 0.564543079035716
1.3094765625 -0.8180622268842044 0.5648090315238263
1.310625 -0.8178702581594336 0.5648927043888966
1.3117734375 -0.8163650416990402 0.5648065559375771
1.312921875 -0.8171141218880059 0.5651284923269435
1.3140703125 -0.8164320583512442 0.5660154203981331
1.31521875 -0.8166073002382958 0.5652555839771688
1.3163671875 -0.8170802747999526 0.5661263699270593
1.317515625 -0.8166266467391734 0.5672956292504141
1.3186640625 -0.8169473574285182 0.5670659737769168
1.3198125 -0.815364926256947 0.5676685449589142
1.3209609375 -0.8158214027883437 0.5677879750320999
1.322109375 -0.8162540260426547 0.5673852095850527
1.3232578125 -0.8156345081747374 0.5684968691452461
1.32440625 -0.8151309878279213 0.5689808477009686
1.3255546875 -0.8151822749710088 0.5690775986724728
1.326703125 -0.814430799609742 0.5692439050266388
1.3278515625 -0.8145863064892571 0.5690444893662243
1.329 -0.8146056592965063 0.5693255173231484
1.3301484375 -0.8142289904966394 0.569476800589938
1.331296875 -0.8138416974932412 0.5701451065477845
1.3324453125 -0.813262246343047 0.5702144764827074
1.33359375 -0.8135480146599554 0.5698419047438472
1.3347421875 -0.8126519481539072 0.570527046916246
1.335890625 -0.8119967876293216 0.57091330601364
1.3370390625 -0.8116055562039273 0.5710584948517434
1.3381875 -0.8108811099378902 0.5710670279439728
1.3393359375 -0.8104128481519319 0.5715649576468131
1.340484375 -0.8097710449459189 0.5718835556231574
1.3416328125 -0.8098668776323952 0.5720722428080736
1.34278125 -0.809267470347802 0.5722795535882061
1.3439296875 -0.8087744337879387 0.572647442189133
1.345078125 -0.8089076438846465 0.5725384635166515
1.3462265625 -0.8081792539571131 0.5727965945112958
1.347375 -0.8076103569666869 0.5734198297446862
1.3485234375 -0.8065022225366294 0.5738236224165045
1.349671875 -0.8059620772514681 0.5745653118295806
1.3508203125 -0.8061720598546032 0.5749488244160692
1.35196875 -0.80605329539883 0.5754076096160483
1.3531171875 -0.8055966094065277 0.5756204459004308
1.354265625 -0.8047833440091102 0.5761010183487514
1.3554140625 -0.8039840330417196 0.5771614562016506
1.3565625 -0.8043420594078632 0.5775091974084242
1.3577109375 -0.8032790495499278 0.5775343877134249
1.358859375 -0.8031026317649139 0.5781854320256379
1.3600078125 -0.8022260714214244 0.5783311890398057
1.36115625 -0.8027341864779213 0.5792813715332454
1.3623046875 -0.8023417198724027 0.5802278221507571
1.363453125 -0.8020691851891015 0.5789728877266006
1.3646015625 -0.8017944001985946 0.5812582988049964
1.36575 -0.802160010300616 0.5814448944303373
1.3668984375 -0.8012938237603822 0.5816089372422502
1.368046875 -0.8011196587777132 0.5827357482753426
1.3691953125 -0.800980332005987 0.5833444444666669
1.37034375 -0.8001899125760004 0.5836348840461912
1.3714921875 -0.8003413588831543 0.5849218067299103
1.372640625 -0.8000517049712261 0.5846528263220939
1.3737890625 -0.8004692848224392 0.5861386720491939
1.3749375 -0.8012770848210303 0.5863949031777084
1.3760859375 -0.7993399189898301 0.5867172101789571
1.377234375 -0.7998032031331146 0.587575352842027
1.3783828125 -0.7990094674010323 0.5881221059327479
1.37953125 -0.7993395158218002 0.5887032673302157
1.3806796875 -0.7989503534059332 0.5877995212652548
1.381828125 -0.7994541885097903 0.5901155772512916
1.3829765625 -0.7993094200076433 0.5903640451988518
1.384125 -0.7981375117172076 0.5910944551418682
1.3852734375 -0.798926066548725 0.5909187643457285
1.386421875 -0.7978933257557663 0.590924580698406
1.3875703125 -0.798516533304146 0.591309148011913
1.38871875 -0.7988786069770308 0.5910664677252865
1.3898671875 -0.798156892575333 0.5913236293433521
1.391015625 -0.7987683083820691 0.5925880673442161
1.3921640625 -0.7972511047439543 0.5932249032490196
1.3933125 -0.7973608635911509 0.5927751429228534
1.3944609375 -0.7973253301365184 0.5931736052875163
1.395609375 -0.7979774046487991 0.5938524086838267
1.3967578125 -0.7972580689930264 0.5941109165066454
1.39790625 -0.7961670923951374 0.5949684182600572
1.3990546875 -0.7967707250032043 0.5940780476602925
1.400203125 -0.7962899914584829 0.5943519452883055
1.4013515625 -0.7964591132277674 0.5947204601674122
1.4025 -0.7962268538796563 0.5947732475582371
1.4036484375 -0.7957306728098054 0.5956085217694376
1.404796875 -0.7955629459559889 0.5952473454170045
1.4059453125 -0.7953819970772724 0.5960702573374083
1.40709375 -0.7948917834264245 0.5954328982855315
1.4082421875 -0.7944559499631022 0.5959661902110165
1.409390625 -0.7942727712918783 0.5960661219004485
1.4105390625 -0.7931210673464992 0.5962609284920999
1.4116875 -0.7929339329500134 0.5961330410240779
1.4128359375 -0.7923107916124309 0.5965149055036346
1.413984375 -0.7922364150123405 0.5973083021146428
1.4151328125 -0.7921429794357746 0.5978422649542517
1.41628125 -0.7914766329361533 0.5980718169598476
1.4174296875 -0.7912675479651078 0.5985986767962139
1.418578125 -0.7906784132357536 0.5984385440785739
1.4197265625 -0.7901191968436332 0.599105308300838
1.420875 -0.7900638428526814 0.5989805945697735
1.4220234375 -0.7893263007931395 0.5993444559318613
1.423171875 -0.7890243838741913 0.5995875921450944
1.4243203125 -0.7883319029237558 0.6000769614663867
1.42546875 -0.7871060691377811 0.6004309270331335
1.4266171875 -0.7866069510412123 0.6006506986018825
1.427765625 -0.7864638839113822 0.6016865771352515
1.4289140625 -0.7859418131103992 0.6019646020501128
1.4300625 -0.785318102491399 0.6024507988564916
1.4312109375 -0.7850853865943738 0.6032472787189544
1.432359375 -0.7838603736310367 0.6037961910313545
1.4335078125 -0.783464264360286 0.604074785161814
1.43465625 -0.7829871815158272 0.6044831349739568
1.4358046875 -0.7826924205385296 0.6054429388192617
1.436953125 -0.7825709994991262 0.6063885864127966
1.4381015625 -0.7816355330869313 0.6061197709049785
1.43925 -0.7811880924404281 0.6067196248068797
1.4403984375 -0.7806320689087094 0.6072132733842573
1.441546875 -0.7804653226987117 0.6078996542650255
1.4426953125 -0.7798666433575306 0.6086541252183623
1.44384375 -0.7799270855284596 0.6089413219616407
1.4449921875 -0.7796042232523307 0.6090930089217214
1.446140625 -0.7790638847147082 0.6100254900865204
1.4472890625 -0.7786174195362215 0.6112854240273127
1.4484375 -0.7774123077777465 0.6112354365378335
1.4495859375 -0.77708378190962 0.6123690854538576
1.450734375 -0.7772443439914891 0.6124168147279595
1.4518828125 -0.7774123871506933 0.6136785327325363
1.45303125 -0.7768983124091379 0.6139188381716258
1.4541796875 -0.7766808736043725 0.6146908799666714
1.455328125 -0.7768361326527508 0.6152058260271784
1.4564765625 -0.7764512663461082 0.6155549595832682
1.457625 -0.776434850767369 0.6165471644328451
1.4587734375 -0.7762433949127054 0.6168878630991499
1.459921875 -0.776348865246568 0.6173597418866333
1.4610703125 -0.7762407197829282 0.6176943475459575
1.46221875 -0.7759922109457422 0.617965004008705
1.4633671875 -0.7759777474476279 0.6183736611764977
1.464515625 -0.7760203051431003 0.6180098484567188
1.4656640625 -0.7757072665235046 0.618610288112226
1.4668125 -0.7747994239429753 0.6194246952041869
1.4679609375 -0.7750299648530977 0.6191854848690815
1.469109375 -0.7744259907032861 0.6199619734356876
1.4702578125 -0.7743119607277786 0.620242132248405
1.47140625 -0.7741767942443586 0.620402361766657
1.4725546875 -0.7737145380371833 0.6205737708098884
1.473703125 -0.77363257339621 0.6219969943542586
1.4748515625 -0.7732456583091822 0.6216738356889489
1.476 -0.7731018537596862 0.6219660535953285
1.4771484375 -0.7733865553637711 0.622498004918846
1.478296875 -0.7727781681990521 0.6225454010780782
1.4794453125 -0.7720952544391797 0.6228454578568187
1.48059375 -0.7722002484278102 0.6229876186416939
1.4817421875 -0.7717171973374506 0.6227365825102844
1.482890625 -0.7712105921987638 0.6230629896597571
1.4840390625 -0.7711968805238296 0.6239913715160211
1.4851875 -0.7705240664432327 0.6235695381068773
1.4863359375 -0.7704583499627595 0.6238354326872981
1.487484375 -0.7698704883557606 0.6234203813029806
1.4886328125 -0.7702486545822961 0.6247214194954906
1.48978125 -0.7696830358930012 0.6245454954771311
1.4909296875 -0.7696211080326323 0.624496960090482
1.492078125 -0.768566503645933 0.6249467912998902
1.4932265625 -0.7680732156649498 0.6249178024246567
1.494375 -0.7678135458233604 0.6245803755540691
1.4955234375 -0.7675753820620963 0.6260314014050958
1.496671875 -0.7675072058127362 0.625477927053338
1.4978203125 -0.7673849031209837 0.6258596387745083
1.49896875 -0.767260402559474 0.6260774639160893
1.5001171875 -0.7664155962809528 0.6260406300229625
1.501265625 -0.7659770325860941 0.6266800254265401
1.5024140625 -0.7657803000280318 0.626436463837601
1.5035625 -0.7644824610324485 0.6264011859185219
1.5047109375 -0.7650027436308835 0.627350186370986
1.505859375 -0.7651006568509049 0.6281367839971495
1.5070078125 -0.7633224440985958 0.628939811723828
1.50815625 -0.7621290732552748 0.6281044935142965
1.5093046875 -0.7619672383092466 0.629362918423568
1.510453125 -0.7616327085031309 0.6297475463423243
1.5116015625 -0.7619623599657808 0.6295394572647384
1.51275 -0.7613457056753862 0.6305278339033913
1.5138984375 -0.7603523164456332 0.6303789076229455
1.515046875 -0.761271438133427 0.6295963077743274
1.5161953125 -0.7601057040771104 0.6312565806503618
1.51734375 -0.7587239484230373 0.630649197384587
1.5184921875 -0.7588669319954986 0.6320082387161963
1.519640625 -0.7586813885999619 0.6321169766661774
1.5207890625 -0.758637986377718 0.6323262680215238
1.5219375 -0.7580269454266341 0.6332280122837912
1.5230859375 -0.7586718979102332 0.6338960130453718
1.524234375 -0.7591671255492938 0.6340623154568528
1.5253828125 -0.7572991499977008 0.6357184749703152
1.52653125 -0.7582798104224654 0.6352640199793487
1.5276796875 -0.7577142514066477 0.6360760741381892
1.528828125 -0.7570922732147013 0.6367559795194251
1.5299765625 -0.7565468744878308 0.6377672915937422
1.531125 -0.7563136002209987 0.6380326600346446
1.5322734375 -0.7567553921031382 0.6388963801179272
1.533421875 -0.756411760841561 0.6387789794327413
1.5345703125 -0.756090714787426 0.6394110560826833
1.53571875 -0.7565760289975328 0.6398762605922111
1.5368671875 -0.755927029595357 0.6391888743385107
1.538015625 -0.7561534331818013 0.6399968647259544
1.5391640625 -0.7557198312625681 0.6399700593141082
1.5403125 -0.7548977044765948 0.6403041179175529
1.5414609375 -0.7548255480919932 0.6404812890882614
1.542609375 -0.7545521494671396 0.6410215712524862
1.5437578125 -0.7542937510967183 0.6413705656163446
1.54490625 -0.7539979123768473 0.6413731631275831
1.5460546875 -0.7538924769683006 0.6418752512477125
1.547203125 -0.7537301345605226 0.6422381438640793
1.5483515625 -0.7533660345708231 0.6428268080072352
1.5495 -0.7535872802889774 0.6427566472352546
1.5506484375 -0.7538941380898276 0.6434197425562865
1.551796875 -0.7534965230660755 0.6434486920423892
1.5529453125 -0.7528060785350322 0.6434827082062402
1.55409375 -0.7528128990490867 0.6440331691619661
1.5552421875 -0.7523305336876651 0.643988512969422
1.556390625 -0.7527682024097612 0.6438256253215588
1.5575390625 -0.7521551683444068 0.6438877271137827
1.5586875 -0.7509921976616425 0.6444649771998506
1.5598359375 -0.7507959130115773 0.6449403526522611
1.560984375 -0.7507242808829124 0.6450679139157267
1.5621328125 -0.7504593891450921 0.6447817255208053
1.56328125 -0.7493253787975077 0.6453021890827093
1.5644296875 -0.7490917632770964 0.6454224305558092
1.565578125 -0.7484636666485927 0.6459586186826007
1.5667265625 -0.748347814417297 0.6462956507168542
1.567875 -0.747585015539588 0.645830339758584
1.5690234375 -0.7473542711910516 0.6472544460580749
1.570171875 -0.7472647343633481 0.6471295262744473
1.5713203125 -0.746998615387748 0.646185555116342
1.57246875 -0.7466110823068068 0.6476456724431117
1.5736171875 -0.746250635408046 0.6471201708498003
1.574765625 -0.7466117467589293 0.6487327388898984
1.5759140625 -0.7459382558348984 0.6488415316415249
1.5770625 -0.7451921740811611 0.6488902647177834
1.5782109375 -0.745077019677564 0.6490757725300352
1.579359375 -0.7442947744263967 0.6494979841337853
1.5805078125 -0.7442102147233571 0.6495754891765056
1.58165625 -0.7439388436588427 0.6503892389297458
1.5828046875 -0.743997398693091 0.6501520739339142
1.583953125 -0.7433421023190887 0.6509506181680655
1.5851015625 -0.7423643989228628 0.6518205785321671
1.58625 -0.7420789913489826 0.6519036986927618
1.5873984375 -0.7418599564225403 0.6523480932057757
1.588546875 -0.7407538468508954 0.6531770941988557
1.5896953125 -0.7409566618949821 0.6531669831614723
1.59084375 -0.7398754241366856 0.6534108318987621
1.5919921875 -0.7398126600673024 0.6534174905182293
1.593140625 -0.7392610215947175 0.6544784832545288
1.5942890625 -0.7387107304378819 0.6543424654872814
1.5954375 -0.7383817083408615 0.6552507943686862
1.5965859375 -0.7379563657747097 0.6552724358480735
1.597734375 -0.7377223208269165 0.6554342956969477
1.5988828125 -0.7374852764085962 0.6567298432235725
1.60003125 -0.7369765796244919 0.6571438997503585
1.6011796875 -0.7366654457940136 0.6570119241271912
1.602328125 -0.7361285046736321 0.6579754935559177
1.6034765625 -0.7358269029160522 0.6579665875173303
1.604625 -0.7353987303360578 0.6586346708662304
1.6057734375 -0.7353326915164737 0.6590264397595317
1.606921875 -0.734960792000653 0.6595230698703014
1.6080703125 -0.7346422934807154 0.6598537145796981
1.60921875 -0.7344336618058179 0.6598792911709043
1.6103671875 -0.733930625589902 0.6607890539415855
1.611515625 -0.7334790029318887 0.6611950532096084
1.6126640625 -0.7331058096622625 0.661553097859757
1.6138125 -0.732912256249707 0.6619063491292255
1.6149609375 -0.7325334015423853 0.6627051965629109
1.616109375 -0.7321849041947204 0.6629541141311424
1.6172578125 -0.7321160802386035 0.6632352448231368
1.61840625 -0.7321975055494085 0.6631852642645519
1.6195546875 -0.7316144252885608 0.6637475807344254
1.620703125 -0.7311433165890571 0.6642270836835564
1.6218515625 -0.7308290152578106 0.6645213716406827
1.623 -0.7307039201175719 0.6646981731622474
1.6241484375 -0.7304820274516042 0.66490081706217
1.625296875 -0.7300974038920374 0.6650010201617341
1.6264453125 -0.7298055886986416 0.6649860102788592
1.62759375 -0.7295927507036359 0.6657687123245647
1.6287421875 -0.7291273294572841 0.6664972503582021
1.629890625 -0.7294731159710572 0.6659565215787037
1.6310390625 -0.7285699242451772 0.6664669773323704
1.6321875 -0.7277151132236559 0.6662442896292815
1.6333359375 -0.7277780996465409 0.6668434281684161
1.634484375 -0.7278002214206203 0.6672179924434118
1.6356328125 -0.7276267332545526 0.6676685958781792
1.63678125 -0.7276087877444289 0.6685780649374691
1.6379296875 -0.7273898265004218 0.6689507922643745
1.639078125 -0.7269510351879376 0.6683572499387835
1.6402265625 -0.7265580060259988 0.6690092082351224
1.641375 -0.7265767203860629 0.6693983732867328
1.6425234375 -0.7261696198183628 0.6696351010371829
1.643671875 -0.7255529746453306 0.6703161536182325
1.6448203125 -0.7250147887148399 0.669867156762613
1.64596875 -0.7253651511343994 0.6708997365444331
1.6471171875 -0.7249499448730866 0.6707248052516313
1.648265625 -0.7243895703499703 0.67134363522026
1.6494140625 -0.723715082936218 0.671353359102018
1.6505625 -0.7233893970288446 0.6718545971294698
1.6517109375 -0.7227431041188511 0.6718611644432757
1.652859375 -0.7229658086449345 0.6720848345285327
1.6540078125 -0.7223099929229819 0.6725809761895534
1.65515625 -0.721722715768445 0.6728862419924297
1.6563046875 -0.7214435220711735 0.673332417776334
1.657453125 -0.721347227731711 0.6735278492792347
1.6586015625 -0.7208839936188709 0.6740256334901185
1.65975 -0.720344016838508 0.6742424498813686
1.6608984375 -0.71976558746158 0.6746469379001302
1.662046875 -0.7195599813977573 0.6751259106149554
1.6631953125 -0.7198841785084626 0.6756775138837701
1.66434375 -0.7191280027031566 0.6756735778578898
1.6654921875 -0.7187240814684394 0.6761747775286252
1.666640625 -0.718615081864125 0.6764662340106923
1.6677890625 -0.717968653574978 0.6766859058246243
1.6689375 -0.717536986495651 0.6771901848594153
1.6700859375 -0.7173632208096659 0.6775069340754952
1.671234375 -0.7173655418427599 0.6775644700851714
1.6723828125 -0.7165483560590671 0.6780958136771996
1.67353125 -0.7162248799749132 0.6786403938758913
1.6746796875 -0.7156992645125103 0.6791657251404296
1.675828125 -0.7154221318465486 0.6791225548414808
1.6769765625 -0.7149713022446372 0.6794442467569436
1.678125 -0.7149140732519705 0.6798454360569431
1.6792734375 -0.7143235666675536 0.6800677908667059
1.680421875 -0.7137880632208276 0.6807324247440508
1.6815703125 -0.7140790816210995 0.6806799147179982
1.68271875 -0.7129122820068359 0.6812349205779461
1.6838671875 -0.7132432331317403 0.6813344293972853
1.685015625 -0.7131132961459061 0.6817919551461294
1.6861640625 -0.7129239743216419 0.6827981112593661
1.6873125 -0.7122439780915841 0.6814867919991642
1.6884609375 -0.7123469584957772 0.6831248191698074
1.689609375 -0.7122077311456148 0.6832423045021162
1.6907578125 -0.7112688329365782 0.6830932776833039
1.69190625 -0.7113193694137262 0.6834805101949225
1.6930546875 -0.7108689463337979 0.6847245382988365
1.694203125 -0.711047996552205 0.684889488026154
1.6953515625 -0.7107445591346774 0.684188324163073
1.6965 -0.710541005905207 0.6847102868600526
1.6976484375 -0.7104283708957424 0.6847614018025036
1.698796875 -0.7098363922164902 0.6851173526626946
1.6999453125 -0.7103654321451696 0.6862934179135555
1.70109375 -0.7097841748861925 0.6862891867029516
1.7022421875 -0.7091567004228 0.6862021293103427
1.703390625 -0.7088969478532529 0.6861203377105456
1.7045390625 -0.7094141604238241 0.6880453397601972
1.7056875 -0.7080680273474518 0.6868726997957374
1.7068359375 -0.7070300763312777 0.6881439608202459
1.707984375 -0.7078995682382417 0.6876002285485617
1.7091328125 -0.7078837621753884 0.6892315042286579
1.71028125 -0.706806074294914 0.6891509742562886
1.7114296875 -0.7066148644873372 0.6895309961068975
1.712578125 -0.7060205131177717 0.6888937174493106
1.7137265625 -0.706198888528662 0.6897425721473917
1.714875 -0.7058709458618025 0.6906885295827018
1.7160234375 -0.7052259630670007 0.6898002274943199
1.717171875 -0.7051601656416824 0.6906607252487227
1.7183203125 -0.7044301000142589 0.6916397930988653
1.71946875 -0.7041539082751718 0.6913583442854645
1.7206171875 -0.7035057501280766 0.6913421756587098
1.721765625 -0.7031841085949798 0.6915268461134393
1.7229140625 -0.703166104065455 0.6924331489293879
1.7240625 -0.702600178932113 0.6923223222438305
1.7252109375 -0.7022230007481587 0.6927339123724335
1.726359375 -0.7019716657431321 0.6933991980509754
1.7275078125 -0.701581879540782 0.6937751940718355
1.72865625 -0.7012048474304373 0.6941252197613423
1.7298046875 -0.7009721839503572 0.694346591333132
1.730953125 -0.7008491334339163 0.6949684739377795
1.7321015625 -0.7005279278062476 0.6949409844612242
1.73325 -0.7002795906302929 0.695223458045835
1.7343984375 -0.7002195433376857 0.6956922155206766
1.735546875 -0.6999077345280103 0.6957650431098429
1.7366953125 -0.6993718724004682 0.6962074935009062
1.73784375 -0.6992496019572869 0.6965017893080927
1.7389921875 -0.6989760713227946 0.6967201090102858
1.740140625 -0.6988453864211959 0.6969186659050579
1.7412890625 -0.6983281229953757 0.6973187276605066
1.7424375 -0.6978068974316718 0.6979207628240008
1.7435859375 -0.6973254831213863 0.6980827272917417
1.744734375 -0.6968012339176999 0.6981135822656717
1.7458828125 -0.6967786042931867 0.6987453273484123
1.74703125 -0.6967039938036638 0.6986113649899272
1.7481796875 -0.6961641473059327 0.6992629322441987
1.749328125 -0.695377423438581 0.6999327841018762
1.7504765625 -0.6952224019106175 0.69958278092065
1.751625 -0.694893647884361 0.6999459451188697
1.7527734375 -0.6949951722953196 0.7002906194221826
1.753921875 -0.6948278137931935 0.7005353725423595
1.7550703125 -0.693669614740792 0.7007385430339497
1.75621875 -0.6940135878034309 0.7007138112608133
1.7573671875 -0.6932532420165866 0.7014374714398596
1.758515625 -0.692479183794659 0.7013394223960778
1.7596640625 -0.692413559889395 0.7019491761831832
1.7608125 -0.6922313176383549 0.7028687724663665
1.7619609375 -0.6919266353206547 0.702630049319517
1.763109375 -0.6912851319889415 0.7031402522287897
1.7642578125 -0.6911645999322678 0.7030531801904778
1.76540625 -0.6910738499176193 0.7032581592760541
1.7665546875 -0.6896082857647056 0.704376222532326
1.767703125 -0.6904856956721914 0.7052589083541433
1.7688515625 -0.6900953531631852 0.7051517847822532
1.77 -0.6895381151400914 0.7060385030298099
1.7711484375 -0.6881360967192037 0.7055322386937133
1.772296875 -0.6888153655118063 0.7054718538004998
1.7734453125 -0.6886074431308936 0.705044973514321
1.77459375 -0.6873861569367837 0.7059789660229538
1.7757421875 -0.6874686613205971 0.7064794565446251
1.776890625 -0.6869753168964503 0.706664548391013
1.7780390625 -0.6865810004143362 0.7061967694167062
1.7791875 -0.6866264783396472 0.7067835388607568
1.7803359375 -0.6856216454506617 0.707710702400083
1.781484375 -0.6855202569494924 0.7074259855494416
1.7826328125 -0.6851612764844242 0.7084013599252872
1.78378125 -0.6848466026027699 0.7089819889460851
1.7849296875 -0.684310779623836 0.7086888279270793
1.786078125 -0.684498438269964 0.7088782673996332
1.7872265625 -0.6840538614278763 0.7092935495789916
1.788375 -0.683357912304986 0.7098300718267918
1.7895234375 -0.6831233464850415 0.7096223850053254
1.790671875 -0.6826486730097511 0.7101462940159652
1.7918203125 -0.6823747957521192 0.710376996251264
1.79296875 -0.6821627045867281 0.7110029920340366
1.7941171875 -0.6815887812895898 0.711464913786547
1.795265625 -0.6818269232912018 0.7121761381091326
1.7964140625 -0.681098814730012 0.7123095765765073
1.7975625 -0.6806427553663265 0.7123969660247993
1.7987109375 -0.6804119091849721 0.7131526713486167
1.799859375 -0.6801071545148104 0.7134444924830243
1.8010078125 -0.6797755400818773 0.713813569176329
1.80215625 -0.6793177664267225 0.7143375955900261
1.8033046875 -0.6794467948611198 0.7146515378984268
1.804453125 -0.678856268951155 0.7149970360805414
1.8056015625 -0.6785836478750648 0.7155506963450191
1.80675 -0.6780734558700316 0.7160680407736466
1.8078984375 -0.6778198355393295 0.7165594630258273
1.809046875 -0.6771560028491654 0.7166751656415697
1.8101953125 -0.6764836376484524 0.7169402037008205
1.81134375 -0.6765893055174386 0.7173734978157434
1.8124921875 -0.6757794725987013 0.7174147078918428
1.813640625 -0.6754648458298279 0.7182830483790956
1.8147890625 -0.6754654743559565 0.7181568047810705
1.8159375 -0.6749848922545922 0.718387878358083
1.8170859375 -0.6750873106101513 0.7190123397447026
1.818234375 -0.6743378735290593 0.7188977174212182
1.8193828125 -0.6745426182198354 0.7193042434889565
1.82053125 -0.674137123959142 0.7197659963294708
1.8216796875 -0.6734194634036716 0.7205659077053137
1.822828125 -0.6736263349373915 0.7203834382161528
1.8239765625 -0.6726059876349627 0.7210406467759676
1.825125 -0.6719949510422517 0.7209082662493914
1.8262734375 -0.6717096511833508 0.7210698940576209
1.827421875 -0.6715316170758785 0.721377600495165
1.8285703125 -0.6713471304052694 0.722626899356201
1.82971875 -0.6714432875469588 0.7217335650115217
1.8308671875 -0.6705166234191329 0.7226522005988382
1.832015625 -0.6705984925393712 0.7220509215780678
1.8331640625 -0.6694704319054482 0.7227693731867191
1.8343125 -0.6693419598339952 0.7226207999458841
1.8354609375 -0.6696180099036831 0.7237822935801423
1.836609375 -0.6692899339647403 0.7234038706254173
1.8377578125 -0.6687371238826255 0.7237692261876839
1.83890625 -0.6682643143129601 0.7238616980279754
1.8400546875 -0.6674275483081832 0.7251601990947976
1.841203125 -0.6673237880057445 0.7246941899517688
1.8423515625 -0.6668765810829329 0.7249573146169024
1.8435 -0.6668838774027057 0.7254399785123251
1.8446484375 -0.6658021128138143 0.725212231043135
1.845796875 -0.6660330036483959 0.7257509421296497
1.8469453125 -0.6654039514241857 0.7247265916493081
1.84809375 -0.6649395417716795 0.7257594332231925
1.8492421875 -0.6646507500176198 0.7263468114834746
1.850390625 -0.664587541370844 0.7263355194669292
1.8515390625 -0.6641796334942112 0.7268071804611486
1.8526875 -0.6635745811760305 0.7273493580573938
1.8538359375 -0.6631690977539182 0.7271963907901309
1.854984375 -0.6627585582394578 0.7278466156398767
1.8561328125 -0.6622919560724321 0.7281474495918837
1.85728125 -0.6624022575911983 0.7283533454702014
1.8584296875 -0.6617842803824645 0.7284135174352201
1.859578125 -0.6615311633154296 0.7289491656861544
1.8607265625 -0.6616112328879439 0.7294394683929459
1.861875 -0.6609446826292467 0.7298463360215063
1.8630234375 -0.6606394104100249 0.7305756214438792
1.864171875 -0.660316702927616 0.7307286396081284
1.8653203125 -0.659731600584214 0.7309661110994261
1.86646875 -0.6594917878155271 0.731578224498133
1.8676171875 -0.6594958914714155 0.7314923971612441
1.868765625 -0.6591287823705064 0.732120012037838
1.8699140625 -0.6585861994383537 0.7325396654913783
1.8710625 -0.6582811653595676 0.7325450703895332
1.8722109375 -0.6581278188858757 0.7328626449322202
1.873359375 -0.657829191938415 0.7338442152280985
1.8745078125 -0.6573550373230486 0.7337964801907666
1.87565625 -0.6573344023746969 0.7343348355952363
1.8768046875 -0.6571723561831636 0.7347009515999902
1.877953125 -0.6565891508624077 0.7346367695619468
1.8791015625 -0.6561324134223966 0.7343888296669137
1.88025 -0.6557172354805874 0.7350746723624143
1.8813984375 -0.6555419188562716 0.7358606861409559
1.882546875 -0.655296447231436 0.7359793832893097
1.8836953125 -0.6549418305610857 0.7362408286846011
1.88484375 -0.6544913326162629 0.7364993053533195
1.8859921875 -0.6538554126494103 0.7367789247195432
1.887140625 -0.6531228568225818 0.7360163190923138
1.8882890625 -0.6533831254553739 0.7376362508621447
1.8894375 -0.6526815781958651 0.7369542631622035
1.8905859375 -0.6531239356422546 0.7376529987741947
1.891734375 -0.653248802332105 0.7381121343179716
1.8928828125 -0.6522286689853678 0.7382312162590826
1.89403125 -0.6515199620077111 0.7381708488630025
1.8951796875 -0.6514571334753251 0.7392729032628328
1.896328125 -0.6516665456940264 0.7386449716073079
1.8974765625 -0.6513874613351397 0.739372693571082
1.898625 -0.6495083686082385 0.7404147724302966
1.8997734375 -0.6494831497814544 0.7404543025039234
1.900921875 -0.6495352800014879 0.7403476902847773
1.9020703125 -0.6495630902601667 0.7404439338105249
1.90321875 -0.649518068049547 0.7413751434299404
1.9043671875 -0.6485759497598083 0.7407733268372884
1.905515625 -0.6478815100768474 0.7405492453892641
1.9066640625 -0.6473350675662827 0.7417994900489723
1.9078125 -0.6474518373415294 0.7423942475930562
1.9089609375 -0.6468950912522851 0.7429284479122455
1.910109375 -0.646423014659744 0.7425687217014654
1.9112578125 -0.6461655294681883 0.743797108865657
1.91240625 -0.6459199567026538 0.7437603393603806
1.9135546875 -0.6448346520781495 0.7432766293016758
1.914703125 -0.6444723964226197 0.7436641487272826
1.9158515625 -0.6438328297536534 0.7446744547056859
1.917 -0.6431792072364454 0.7448551720993121
1.9181484375 -0.6426704142699825 0.74526082987343
1.919296875 -0.6423279732807287 0.7455441519308734
1.9204453125 -0.6420619148862821 0.7457129586603448
1.92159375 -0.6420356483375302 0.7452500766267822
1.9227421875 -0.6415723305594135 0.7459943913083376
1.923890625 -0.6410695814796022 0.7460963066265384
1.9250390625 -0.640405171448026 0.7466237491783158
1.9261875 -0.640408071679005 0.747861458679343
1.9273359375 -0.6402549601253105 0.7481504144167731
1.928484375 -0.639441764838608 0.7485293368203113
1.9296328125 -0.6392097488100261 0.7491833540769838
1.93078125 -0.6386487527805276 0.749060677163564
1.9319296875 -0.6389374381023013 0.7491937250707791
1.933078125 -0.638027949310329 0.7495374410268838
1.9342265625 -0.6373807943719391 0.750315757408299
1.935375 -0.6378151296143124 0.7500787980633252
1.9365234375 -0.6366872249665293 0.7509070172998902
1.937671875 -0.6366466410550519 0.7516233538204464
1.9388203125 -0.635539441497799 0.751901610383394
1.93996875 -0.6356232563810577 0.7515534158660251
1.9411171875 -0.6357358340521927 0.7529127879945327
1.942265625 -0.635119054470408 0.7529380124728109
1.9434140625 -0.6351592644663628 0.7530269316780764
1.9445625 -0.6344707840274824 0.7536651165229966
1.9457109375 -0.6344769270564462 0.754066817182682
1.946859375 -0.6340636589560111 0.7543759923534861
1.9480078125 -0.6338496391407382 0.7544089997384286
1.94915625 -0.6342315470119266 0.7546152464733397
1.9503046875 -0.6335339328727492 0.7550569953595752
1.951453125 -0.6330382075420625 0.7550285078637788
1.9526015625 -0.6332084051385071 0.7561921689327893
1.95375 -0.6329803127989456 0.7558751472135585
1.9548984375 -0.6322882799630549 0.755524359319629
1.956046875 -0.6320696936588092 0.7563723816199
1.9571953125 -0.6318304189554648 0.7570026438580021
1.95834375 -0.6314542918138184 0.7566397481510522
1.9594921875 -0.6304874364454811 0.7572012589940378
1.960640625 -0.6305803479251262 0.7581240013558654
1.9617890625 -0.6309944243024013 0.7577387345514001
1.9629375 -0.630078871879915 0.7576992157796368
1.9640859375 -0.6293784852585065 0.7587680478278613
1.965234375 -0.6291535569502016 0.7588968820537597
1.9663828125 -0.6284326980322601 0.7588064250237024
1.96753125 -0.6279000702862515 0.7599292419822031
1.9686796875 -0.6283791621349846 0.7587114562648938
1.969828125 -0.6278150132615463 0.7591389783602207
1.9709765625 -0.6274870593852407 0.7597941118798969
1.972125 -0.6267177618877404 0.7599216294957922
1.9732734375 -0.6273058827185111 0.7602708172033213
1.974421875 -0.62675347587399 0.7601270057887065
1.9755703125 -0.6262209542665951 0.7602493200187858
1.97671875 -0.625424040603867 0.7603709193639736
1.9778671875 -0.6243965740207512 0.7604188337056546
1.979015625 -0.6245892976630409 0.7610748815344869
1.9801640625 -0.6237974639365713 0.7612334343286876
1.9813125 -0.6233415171382198 0.7613872961390045
1.9824609375 -0.6229479509851886 0.7627132040901956
1.983609375 -0.6219360704846327 0.7627389610425135
1.9847578125 -0.6218428540844052 0.7633599203102395
1.98590625 -0.621708424987386 0.7633263019082884
1.9870546875 -0.620823696992933 0.7625688907950844
1.988203125 -0.6206310162179769 0.7633319238880566
1.9893515625 -0.6201633890589147 0.7638288860479012
1.9905 -0.6199208617770544 0.7642834925089661
1.9916484375 -0.6194876484053856 0.7645659005827771
1.992796875 -0.6191429404949803 0.7653178435752945
1.9939453125 -0.6191623106941173 0.7651859645572684
1.99509375 -0.6192427302111483 0.7665755604470729
1.9962421875 -0.6182915343081967 0.7662301837180522
1.997390625 -0.6176791902410022 0.7663617764238547
1.9985390625 -0.6180570653600743 0.7664040179969108
1.9996875 -0.616944308012304 0.7664404634665813
2.0008359375 -0.617101184641968 0.7672139195789596
2.001984375 -0.6161343393922235 0.7674575706214226
2.0031328125 -0.6156424477601741 0.7678975860129611
2.00428125 -0.6161166249054897 0.7681699805219289
2.0054296875 -0.6150049295226869 0.7695342340310678
2.006578125 -0.6154100511706594 0.769423286875081
2.0077265625 -0.6148460886105498 0.7703036896174773
2.008875 -0.6152043243405697 0.769361007273985
2.0100234375 -0.6154527009212105 0.7700940135044407
2.011171875 -0.614763887734453 0.7704867590875935
2.0123203125 -0.614475694530114 0.7700824624494139
2.01346875 -0.6120278369137371 0.7710513301891769
2.0146171875 -0.6137334204532146 0.7711224494291846
2.015765625 -0.612711723953265 0.7717228557126595
2.0169140625 -0.6126302666770613 0.7727219465256712
2.0180625 -0.6124938829246361 0.7722980194104532
2.0192109375 -0.6118727616328209 0.7727403965171739
2.020359375 -0.6122670718797552 0.7728158855432965
2.0215078125 -0.6121364257840537 0.7732362930098844
2.02265625 -0.6108060654305156 0.7730949640721402
2.0238046875 -0.6112719782876379 0.7732717852036928
2.024953125 -0.6110524453136599 0.7739399808271396
2.0261015625 -0.6101297439681044 0.7737143244387317
2.02725 -0.610349616311677 0.7746379812961066
2.0283984375 -0.6090381956405639 0.7745508467425469
2.029546875 -0.6095195725488605 0.7740107287818594
2.0306953125 -0.6090831491974549 0.7739707979052882
2.03184375 -0.6084217110585933 0.7753886655152719
2.0329921875 -0.6076422704573743 0.7751485569583912
2.034140625 -0.6078427669266221 0.7754109941297002
2.0352890625 -0.6071778550251552 0.7754231188381291
2.0364375 -0.6064672829082824 0.7753155371285164
2.0375859375 -0.6057017836936913 0.7760175656341024
2.038734375 -0.6047186579076653 0.7770255137798242
2.0398828125 -0.6055843855173201 0.7761627085661597
2.04103125 -0.6048471312045027 0.7765240830738862
2.0421796875 -0.6033986872483932 0.7763922004945306
2.043328125 -0.6033745016989243 0.77680582682836
2.0444765625 -0.6023609511080082 0.7762671739230258
2.045625 -0.602265024797652 0.777234922000058
2.0467734375 -0.602487128228955 0.7779669390816091
2.047921875 -0.6023555802552262 0.7781012219927105
2.0490703125 -0.601228450120519 0.7780309045168364
2.05021875 -0.6010707108328044 0.7780706998665535
2.0513671875 -0.5998702161768903 0.7775079914136517
2.052515625 -0.599886638621527 0.7779030208290767
2.0536640625 -0.5993770140567539 0.7786179532047874
2.0548125 -0.5986599603345937 0.7796249667350712
2.0559609375 -0.5980676748790226 0.7795587858889832
2.057109375 -0.5980191524300753 0.7797129184354099
2.0582578125 -0.5974837218749155 0.7800876063162974
2.05940625 -0.5969543551356071 0.7801798163983348
2.0605546875 -0.596911293478241 0.7805336868482123
2.061703125 -0.5957001993598243 0.7820856205851241
2.0628515625 -0.5957470322047873 0.7823580497998535
2.064 -0.594322406186273 0.7822798614994715
2.0651484375 -0.5939749176881945 0.7829727752610812
2.066296875 -0.5933538167881168 0.7836330755125235
2.0674453125 -0.5927571187265488 0.7837067396550343
2.06859375 -0.5926624894394241 0.7833433247280827
2.0697421875 -0.5922682300675843 0.7843830601234123
2.070890625 -0.5916051963211796 0.7845004643720278
2.0720390625 -0.591228940055604 0.7854385539716277
2.0731875 -0.5907068802972064 0.7870569486909542
2.0743359375 -0.5905267347196416 0.78635850282656
2.075484375 -0.5906395418265229 0.7861869158773634
2.0766328125 -0.5901199651624892 0.7873527641564289
2.07778125 -0.5908440884053604 0.7878525731742098
2.0789296875 -0.5899204211007825 0.78817488016574
2.080078125 -0.5898795442872108 0.788599933375565
2.0812265625 -0.5900124777811114 0.7895564169143766
2.082375 -0.5893337424388508 0.7889098301826389
2.0835234375 -0.5888353039156318 0.7897475933980149
2.084671875 -0.5879820522928197 0.790569063237236
2.0858203125 -0.5874023818719427 0.7910316593490434
2.08696875 -0.5874650169470192 0.7909020025537654
2.0881171875 -0.5867134000739717 0.7912027406614208
2.089265625 -0.5871288535635812 0.7913790513570076
2.0904140625 -0.5873761913215052 0.7922701980560998
2.0915625 -0.586353590987648 0.7931383971136028
2.0927109375 -0.5860668118365293 0.7934165411301363
2.093859375 -0.5857072051094367 0.7931306311629043
2.0950078125 -0.5860755288192973 0.7935676408869282
2.09615625 -0.5858221015981558 0.7940109529409223
2.0973046875 -0.5856041621732889 0.7945648808835579
2.098453125 -0.5856520042633386 0.7946781895803717
2.0996015625 -0.5853810961107816 0.7944398818405914
2.10075 -0.5842609778230089 0.7950485020891707
2.1018984375 -0.5843372607513367 0.7945227719961454
2.103046875 -0.5838648005559531 0.7955873280127521
2.1041953125 -0.5842160786129947 0.7952761535864017
2.10534375 -0.5835698410177897 0.7951871865029597
2.1064921875 -0.5832402377507933 0.7952268537629519
2.107640625 -0.5829997875829775 0.7952124908661498
2.1087890625 -0.5826332460838515 0.7956320311911613
2.1099375 -0.5823918915612325 0.7956978535732033
2.1110859375 -0.582034062718952 0.7959838751966479
2.112234375 -0.581617884471371 0.796250704307128
2.1133828125 -0.581446015311763 0.7962183424855336
2.11453125 -0.5807038442557431 0.7966929078859504
2.1156796875 -0.580642373768771 0.7965592139358019
2.116828125 -0.5798187643265498 0.7959320867548654
2.1179765625 -0.5788853478766618 0.7967260722866427
2.119125 -0.5780315591061519 0.7965521467782815
2.1202734375 -0.5774185845591409 0.7958892325794972
2.121421875 -0.5764196128965458 0.7966623933553352
2.1225703125 -0.5760340572417219 0.7971789671949057
2.12371875 -0.5752334638214137 0.7972136736802775
2.1248671875 -0.5749251664524055 0.7976715581647285
2.126015625 -0.574622342985261 0.7976170738558768
2.1271640625 -0.5735603613396908 0.7985274930490948
2.1283125 -0.5738521954123116 0.799013855883501
2.1294609375 -0.5727272002221139 0.7995037310538481
2.130609375 -0.5718525277070197 0.7987767511217614
2.1317578125 -0.5717367001380923 0.7989038803892641
2.13290625 -0.5705464970915668 0.8002692045674066
2.1340546875 -0.5708696500945613 0.8000584382546031
2.135203125 -0.5706794419454317 0.8002936903694604
2.1363515625 -0.5697164910546842 0.8019532685267642
2.1375 -0.5694176290870614 0.8010740334969682
2.1386484375 -0.5681225401123688 0.8028099635828553
2.139796875 -0.5682429352347984 0.8020576504328674
2.1409453125 -0.5674204928559097 0.8029180431852868
2.14209375 -0.5680151700993357 0.802692031528446
2.1432421875 -0.5679054496477592 0.80405210185608
2.144390625 -0.5664924694240187 0.8038382830161386
2.1455390625 -0.5660503926411578 0.804473963039473
2.1466875 -0.5647849227685209 0.8051496857146621
2.1478359375 -0.564891229052181 0.8065845251396359
2.148984375 -0.5637156332392879 0.8069061613090797
2.1501328125 -0.5629197524113507 0.8079842797177798
2.15128125 -0.5632217843584031 0.8082666998476769
2.1524296875 -0.5615224943098406 0.8081269676920698
2.153578125 -0.5616432100675919 0.8084944347569023
2.1547265625 -0.5611788067614695 0.8095356889372232
2.155875 -0.5610423952082728 0.8098461529602077
2.1570234375 -0.5610819652787806 0.8104782956819947
2.158171875 -0.5613143504120899 0.8102599087006479
2.1593203125 -0.5611540333606599 0.8118033120109365
2.16046875 -0.55938351604709 0.8116461822656877
2.1616171875 -0.5606494577197128 0.8119954243719757
2.162765625 -0.5597244410270927 0.8116763726912035
2.1639140625 -0.5602057140124107 0.8129088355685966
2.1650625 -0.5609871603427241 0.8129015045549073
2.1662109375 -0.5593561366293144 0.8135172702031644
2.167359375 -0.5590409018062908 0.8145217355984447
2.1685078125 -0.5587495554276697 0.8142282119654114
2.16965625 -0.5595064586570675 0.814187380540254
2.1708046875 -0.5591694717815434 0.8149639440672019
2.171953125 -0.5586101137770154 0.8149383088818314
2.1731015625 -0.5587778254870269 0.8148453637567193
2.17425 -0.5578416098775938 0.814675888318215
2.1753984375 -0.5580909127414766 0.8141907631071463
2.176546875 -0.5568904539324471 0.814302953432023
2.1776953125 -0.5572745784240029 0.8149142782228148
2.17884375 -0.557034060578468 0.8149362689952577
2.1799921875 -0.5563189125080903 0.8153504694307919
2.181140625 -0.5554262102143875 0.8153535117601338
2.1822890625 -0.5555559925850596 0.8154467932152065
2.1834375 -0.5546744098445289 0.8152061386990279
2.1845859375 -0.5547476003633101 0.8149498357454311
2.185734375 -0.5544322116978628 0.8154225702862032
2.1868828125 -0.5544751942131296 0.8152371378881639
2.18803125 -0.5536022995140462 0.8150774991259103
2.1891796875 -0.5539285540872363 0.8154792024503272
2.190328125 -0.5533995337314419 0.8156929982000208
2.1914765625 -0.5526253917776178 0.8157583171597039
2.192625 -0.5520161391159255 0.8147181185166446
2.1937734375 -0.5508222433880623 0.8157661243492244
2.194921875 -0.5506643119615945 0.8157717125963789
2.1960703125 -0.5505601235841577 0.8153929485527763
2.19721875 -0.5497810179899082 0.8158894652029944
2.1983671875 -0.5498933652365101 0.8157172628726695
2.199515625 -0.5488208733056772 0.8165092229913968
2.2006640625 -0.547971893723965 0.8169216655754019
2.2018125 -0.5472750095063017 0.81700919327431
2.2029609375 -0.5467607046922873 0.8164143723091245
2.204109375 -0.5460363310161543 0.817095215738051
2.2052578125 -0.546232399097689 0.8181345183027202
2.20640625 -0.5457749170006794 0.8177000431359807
2.2075546875 -0.5463530366549417 0.818012945911891
2.208703125 -0.5433263780399749 0.818828569602023
2.2098515625 -0.5434856532635546 0.8187115238357716
2.211 -0.5443410024384587 0.8186999966774366
2.2121484375 -0.5428228966862969 0.8205612827286389
2.213296875 -0.5436416371657029 0.8208911882202243
2.2144453125 -0.5414961430089686 0.8194991592514739
2.21559375 -0.541210535240346 0.8210939729592404
2.2167421875 -0.5397454630234353 0.8223280835355485
2.217890625 -0.5394797569015504 0.8218328931897226
2.2190390625 -0.5388974285953456 0.8221030307032444
2.2201875 -0.5382565299366046 0.8219895063313725
2.2213359375 -0.5366226411899189 0.8236739525761172
2.222484375 -0.53604688168488 0.8238995430098939
2.2236328125 -0.5375421518992674 0.8245659176401412
2.22478125 -0.5362280761700229 0.8259198227983389
2.2259296875 -0.5362517259160016 0.8251751291932043
2.227078125 -0.5354320843936194 0.8255058119418839
2.2282265625 -0.5342381099582816 0.8261814274029103
2.229375 -0.5340056498865526 0.8267426922114103
2.2305234375 -0.533545106658052 0.8271259393917183
2.231671875 -0.5340353617565614 0.8284509574229297
2.2328203125 -0.5331426862543982 0.8277496137544237
2.23396875 -0.5317935068419216 0.8289984398228785
2.2351171875 -0.5335884724146551 0.8274047989532067
2.236265625 -0.5329997713882387 0.8295243521574398
2.2374140625 -0.5330514430940304 0.8294409436863515
2.2385625 -0.5336361242755819 0.8306683993979076
2.2397109375 -0.5332233777008724 0.8303722867535038
2.240859375 -0.5328593861942914 0.8307877086181251
2.2420078125 -0.5327303654867309 0.8306901741519543
2.24315625 -0.5327706077832102 0.8307554632881327
2.2443046875 -0.5319186390131637 0.831135632693968
2.245453125 -0.5314398204562584 0.8311776043563845
2.2466015625 -0.5313669265247346 0.8317790408539452
2.24775 -0.5313391582398947 0.8321998934466568
2.2488984375 -0.5314480121962473 0.832588298072318
2.250046875 -0.5312696421806667 0.8329565065887288
2.2511953125 -0.5307605926871284 0.8326349843390197
2.25234375 -0.5289605762340043 0.8326746830300867
2.2534921875 -0.5286207423113883 0.8326953476463774
2.254640625 -0.5288802410771161 0.8326223147243197
2.2557890625 -0.5283649155723793 0.8321628316509639
2.2569375 -0.527501134960036 0.8327075308460996
2.2580859375 -0.527047119624733 0.8327399080668153
2.259234375 -0.5269453255953481 0.8329625004144021
2.2603828125 -0.5267556775978003 0.8328318109178199
2.26153125 -0.5268374261956951 0.8332496474297472
2.2626796875 -0.5265333750964327 0.8329711147186141
2.263828125 -0.5252972411633218 0.833352506045105
2.2649765625 -0.5243822218800801 0.8340717524069867
2.266125 -0.5245271283820968 0.8340324219933684
2.2672734375 -0.523810863166104 0.8335636505901274
2.268421875 -0.5239869347930806 0.8346272513369064
2.2695703125 -0.5226338143571048 0.8339030704599272
2.27071875 -0.5218904452877287 0.8339023628008164
2.2718671875 -0.5217832952544912 0.8340227346212198
2.273015625 -0.5213193667713707 0.8346932328505617
2.2741640625 -0.5207345849085129 0.8344146725462441
2.2753125 -0.5204406878382148 0.8350674949604685
2.2764609375 -0.5196368779734482 0.8347235101235063
2.277609375 -0.5189986414236484 0.8351602199676084
2.2787578125 -0.5189100600790114 0.835792642592481
2.27990625 -0.5171587274633296 0.8349166927660058
2.2810546875 -0.5167850888762602 0.8359111310296942
2.282203125 -0.5166197502076849 0.8368897573213187
2.2833515625 -0.515791564294589 0.8376076919443928
2.2845 -0.5152551258938559 0.837564520282822
2.2856484375 -0.51601158457127 0.8386109692437469
2.286796875 -0.5147830344030093 0.839304271857939
2.2879453125 -0.5136666701525352 0.839964381051412
2.28909375 -0.5131156452939676 0.8403320694841238
2.2902421875 -0.5119673359766256 0.839543735421643
2.291390625 -0.5107843288532042 0.8399871568103325
2.2925390625 -0.5105285122160482 0.841026407553378
2.2936875 -0.5093932378098278 0.8401192999902106
2.2948359375 -0.5079123797832726 0.8415039209599842
2.295984375 -0.5083985258265515 0.8421540002734494
2.2971328125 -0.5072196774846712 0.8419372612453542
2.29828125 -0.5080264680467066 0.8422887605478038
2.2994296875 -0.5065140009697702 0.8447032608285054
2.300578125 -0.5079254490811509 0.8433086267415144
2.3017265625 -0.5067116217217376 0.8435026461736165
2.302875 -0.5058261045793961 0.8450252177506934
2.3040234375 -0.505787167320406 0.843883199812484
2.305171875 -0.5054556365016399 0.84493148230906
2.3063203125 -0.5049458552613989 0.844754985801058
2.30746875 -0.5047431948647799 0.8451070415626235
2.3086171875 -0.5041190638395343 0.8458600442878581
2.309765625 -0.5036027564976117 0.8463198519001329
2.3109140625 -0.5026295829176234 0.8464216772432188
2.3120625 -0.5024052760337748 0.8469943702946477
2.3132109375 -0.5019103213782274 0.8472221746253505
2.314359375 -0.5023313571447338 0.8481157787871454
2.3155078125 -0.5016026723524878 0.8488602570275828
2.31665625 -0.501028294476707 0.8489526994514138
2.3178046875 -0.5009650441108809 0.8495969554904224
2.318953125 -0.5007329127951654 0.8491188387587737
2.3201015625 -0.5002697513478495 0.8495913929670461
2.32125 -0.4998727508764841 0.8506341589800591
2.3223984375 -0.49966165383841854 0.850590744978583
2.323546875 -0.49947172007584817 0.8504884083190564
2.3246953125 -0.49955639711536637 0.8504354392393768
2.32584375 -0.4989635343782759 0.850804438642879
2.3269921875 -0.4986692898118826 0.8514106603795698
2.328140625 -0.49761618551018144 0.8515501457482442
2.3292890625 -0.49654450973434067 0.852198993344871
2.3304375 -0.49687901511501464 0.8509337721464257
2.3315859375 -0.4971909682278699 0.8517951216206124
2.332734375 -0.49687290337301326 0.8522025904961033
2.3338828125 -0.4962481480435058 0.8516342663868091
2.33503125 -0.49548434479840503 0.8524975948856964
2.3361796875 -0.49509533597207167 0.8528538987870908
2.337328125 -0.4951998297859136 0.852738284767072
2.3384765625 -0.49405921928057744 0.8533346175368614
2.339625 -0.4928865938959873 0.8529999198370066
2.3407734375 -0.49274715015034715 0.8524868256783935
2.341921875 -0.49205785455077666 0.8534937366809594
2.3430703125 -0.49328100516039514 0.8521390060731433
2.34421875 -0.49351731534440313 0.8535317089985185
2.3453671875 -0.49203608455273534 0.8533901906888351
2.346515625 -0.4909289667330673 0.8535992428936576
2.3476640625 -0.4908507732368653 0.8542496289406952
2.3488125 -0.48964070987355734 0.854067066476612
2.3499609375 -0.49002869093717105 0.8528390123841267
2.351109375 -0.487937026047411 0.8537556601085523
2.3522578125 -0.48848074765948074 0.853236321582955
2.35340625 -0.48604090256979804 0.8544239375972454
2.3545546875 -0.48861777255140876 0.8543823560669073
2.355703125 -0.48633618642939086 0.8550050253625232
2.3568515625 -0.4863693446859685 0.8547322879585406
2.358 -0.4852777695863731 0.8547803905115889
2.3591484375 -0.48453484805360764 0.8552586128489045
2.360296875 -0.48449105647725343 0.8544887461789192
2.3614453125 -0.48347102040472334 0.8556183588794013
2.36259375 -0.48316084522714053 0.8571560265518731
2.3637421875 -0.4833292711339021 0.8572067770596097
2.364890625 -0.4825314068497425 0.858234901382607
2.3660390625 -0.4810624692656149 0.8579183128663364
2.3671875 -0.48185837944351123 0.8572905898099216
2.3683359375 -0.48080349527661703 0.8581882805335133
2.369484375 -0.47990182354442823 0.8591495118200976
2.3706328125 -0.4793835567892275 0.8591896958587688
2.37178125 -0.47875004412134825 0.8588355765329093
2.3729296875 -0.4783802994991301 0.8598723406249557
2.374078125 -0.4782045066475459 0.8609153666410481
2.3752265625 -0.4779580385138461 0.8608737981009312
2.376375 -0.47670190443946214 0.8606159954677622
2.3775234375 -0.4754785493399226 0.8619363691013164
2.378671875 -0.4755325054867291 0.8619531886783546
2.3798203125 -0.475076778895526 0.861563607561592
2.38096875 -0.4749515671650487 0.8622618392800425
2.3821171875 -0.47389583245878764 0.8629758441946282
2.383265625 -0.4734963246852023 0.8631305626160263
2.3844140625 -0.47323036441523686 0.8630428448095349
2.3855625 -0.4734011510412209 0.8636185194584496
2.3867109375 -0.47355972044645106 0.8639337550826875
2.387859375 -0.47281136822843417 0.8645627615559384
2.3890078125 -0.47190994104254325 0.8652587492055208
2.39015625 -0.47185180322456766 0.8654086906223011
2.3913046875 -0.47148316400939133 0.8650479456797266
2.392453125 -0.4711540682129427 0.8657871549889478
2.3936015625 -0.47114496461567085 0.8656112770977061
2.39475 -0.47045862421225293 0.8657814976642711
2.3958984375 -0.4703587543022175 0.8666040223741682
2.397046875 -0.4696130217971862 0.8663115669404335
2.3981953125 -0.46940989279032075 0.8666444408639479
2.39934375 -0.46920881347502075 0.866663735424199
2.4004921875 -0.46884299588055955 0.8669724645054996
2.401640625 -0.46844394341225604 0.8674413659483415
2.4027890625 -0.46779977476133466 0.8675078728783955
2.4039375 -0.4681945528965468 0.868797537523252
2.4050859375 -0.4675514788486945 0.8683493299660199
2.406234375 -0.46690414303549277 0.8687937118630749
2.4073828125 -0.4662654282257025 0.8697207943646273
2.40853125 -0.4669336404942415 0.8699135355129781
2.4096796875 -0.46586336092101804 0.8697518248179033
2.410828125 -0.46618632119894365 0.8695252675744571
2.4119765625 -0.46513784249591383 0.8688873136264499
2.413125 -0.46533920695719827 0.8699034032357302
2.4142734375 -0.4636560848435972 0.869981086680197
2.415421875 -0.4627795725126919 0.8684266838146364
2.4165703125 -0.46219899788818813 0.8700924664858832
2.41771875 -0.46376551599003935 0.8712752263726301
2.4188671875 -0.46198189568611636 0.8709662029428433
2.420015625 -0.4602865714768217 0.871276188686552
2.4211640625 -0.45941192616559207 0.8716860177889987
2.4223125 -0.45933746228853073 0.8714939054800531
2.4234609375 -0.45944926187933943 0.8719638799904585
2.424609375 -0.45929116251286795 0.8722658241252988
2.4257578125 -0.4581680229927228 0.8730633029539508
2.42690625 -0.4584118835607268 0.8718797426328238
2.4280546875 -0.45717854261605123 0.8726317790058138
2.429203125 -0.4567887305703676 0.8719078780365163
2.4303515625 -0.4561383788981857 0.8735429337649117
2.4315 -0.45589064277219576 0.8736287258334121
2.4326484375 -0.456708984915679 0.873015355144934
2.433796875 -0.45519409606650474 0.8735603493908994
2.4349453125 -0.4550574808457926 0.8739454053531305
2.43609375 -0.45313817122348604 0.8735037891471924
2.4372421875 -0.4534044209182321 0.8751681089130603
2.438390625 -0.45218364143332523 0.8748508981024082
2.4395390625 -0.45231808738340085 0.8739160997987359
2.4406875 -0.4516235390171313 0.8750544553090162
2.4418359375 -0.4515020357394831 0.8757138012208732
2.442984375 -0.45020720433187456 0.8753330607247473
2.4441328125 -0.4501320978995149 0.8755412677796108
2.44528125 -0.44969555211372947 0.8759467472868082
2.4464296875 -0.4489985340355578 0.8752919399868739
2.447578125 -0.4480560041548381 0.8756494361750415
2.4487265625 -0.4472357840739199 0.8760691892699027
2.449875 -0.447360515411938 0.8770792007129058
2.4510234375 -0.4467753421063396 0.8772750084742057
2.452171875 -0.44666234521985126 0.8777436391897491
2.4533203125 -0.4458116776823237 0.8778232046813644
2.45446875 -0.44508948247889984 0.8785175972897632
2.4556171875 -0.4444255015206252 0.878388765198294
2.456765625 -0.44467097154106194 0.8783405863572761
2.4579140625 -0.4438823085636899 0.8787773119423811
2.4590625 -0.44291344812354105 0.8792104748313332
2.4602109375 -0.4427024580095054 0.879878186291643
2.461359375 -0.4426561984598425 0.8800469035495304
2.4625078125 -0.4421324274599126 0.880355584122801
2.46365625 -0.4412730088372226 0.8807490039854904
2.4648046875 -0.4405260524210463 0.8809518734417805
2.465953125 -0.44019813325872326 0.8810488556092457
2.4671015625 -0.439958864914475 0.8816874220165792
2.46825 -0.4393131497812594 0.8823278327245583
2.4693984375 -0.43878868766234796 0.8814201836421094
2.470546875 -0.43931942064777507 0.8816495216364996
2.4716953125 -0.4382357183950991 0.882636595575655
2.47284375 -0.4379629428062672 0.8829161040059204
2.4739921875 -0.4371681581124429 0.8826136398695498
2.475140625 -0.4355686358083203 0.8825682991969427
2.4762890625 -0.4356723169128101 0.8826889750544022
2.4774375 -0.43568054306075593 0.8833014918119536
2.4785859375 -0.43550435812207333 0.8834074115185678
2.479734375 -0.4342261729567976 0.8844386345541442
2.4808828125 -0.4342171087993082 0.8845349691703436
2.48203125 -0.4335931688624983 0.8838709404954792
2.4831796875 -0.4328073576013529 0.885040943962709
2.484328125 -0.43232598035358244 0.884539318731863
2.4854765625 -0.4322082157802395 0.8846785850704527
2.486625 -0.4309212212924566 0.8853406388055306
2.4877734375 -0.43138243703192025 0.8855900740240591
2.488921875 -0.43046856446684323 0.8853043536477951
2.4900703125 -0.42962744608973663 0.8865577314169005
2.49121875 -0.4289539586167761 0.886791538031878
2.4923671875 -0.4290444066765022 0.8869404843267324
2.493515625 -0.42809308025297477 0.8877893066543862
2.4946640625 -0.42769340222224983 0.8866246800147075
2.4958125 -0.4266477482357749 0.886498749168016
2.4969609375 -0.42650889669782155 0.8868514676304301
2.498109375 -0.425472735582191 0.8878023561422143
2.4992578125 -0.42489287301220396 0.887946774663288
2.50040625 -0.42519736841054595 0.8880387501052881
2.5015546875 -0.4242032947846265 0.8877652033891836
2.502703125 -0.4231979996531595 0.887875407669577
2.5038515625 -0.4236226787406321 0.8878992879967129
2.505 -0.42251138146352635 0.8883510394926448
2.5061484375 -0.4209280847426136 0.8895944351197296
2.507296875 -0.42100267559709104 0.8894692668021438
2.5084453125 -0.4213031712244273 0.8899985771074014
2.50959375 -0.4206841021530344 0.8902289324200382
2.5107421875 -0.42018711068813963 0.8903641771234789
2.511890625 -0.4193050090746244 0.8903141182950646
2.5130390625 -0.4189558954690098 0.8905530104815492
2.5141875 -0.41847496462307077 0.8903977031556296
2.5153359375 -0.417754564001507 0.8907801969231466
2.516484375 -0.41719058645449925 0.8916572442691265
2.5176328125 -0.4171325345295259 0.8917546408044295
2.51878125 -0.4167047379447369 0.8915900617604402
2.5199296875 -0.4157419151127944 0.8918123367346357
2.521078125 -0.41465285068910274 0.8921133852880231
2.5222265625 -0.4146044759795695 0.8918419131351186
2.523375 -0.41415878899826936 0.8921454233828636
2.5245234375 -0.41401624337509324 0.893678536155682
2.525671875 -0.4137955917066668 0.8934873890305233
2.5268203125 -0.4125448632606846 0.8941207095359056
2.52796875 -0.4120485383366794 0.894141165330396
2.5291171875 -0.41208942647304353 0.8934217121213025
2.530265625 -0.4114030100447701 0.894391242974469
2.5314140625 -0.41097444333402755 0.894584971645898
2.5325625 -0.40992925087112936 0.894573102716709
2.5337109375 -0.4097912340964987 0.8938306822546174
2.534859375 -0.40940403022486227 0.8951513997631474
2.5360078125 -0.4080442403406272 0.8954597553762165
2.53715625 -0.40867755841208775 0.8953059155235139
2.5383046875 -0.40786386680297915 0.8963789101702769
2.539453125 -0.40710614719348553 0.8967720215164082
2.5406015625 -0.4073680862642786 0.896347493830653
2.54175 -0.40689687989648093 0.8963055622077856
2.5428984375 -0.40636515126082695 0.8968193833628351
2.544046875 -0.4052376876746745 0.8970582916380522
2.5451953125 -0.40526101721190927 0.897231570296811
2.54634375 -0.40506580840628037 0.8973647374408638
2.5474921875 -0.40325014912768475 0.8982510726445464
2.548640625 -0.40319540856160485 0.8989119086887565
2.5497890625 -0.4032784222518062 0.8983727879869647
2.5509375 -0.4022928357576885 0.8983380826168103
2.5520859375 -0.4025119461237304 0.8973214088156618
2.553234375 -0.4013236215918135 0.8990813911589419
2.5543828125 -0.4009418536970557 0.8999013079927192
2.55553125 -0.3990516022154748 0.8987942576665962
2.5566796875 -0.39997446450101254 0.898226314730077
2.557828125 -0.3990242284194886 0.89947668547856
2.5589765625 -0.3989712522740645 0.9005170167516043
2.560125 -0.39927558306163907 0.900304549198519
2.5612734375 -0.39796803823943433 0.8990706476294308
2.562421875 -0.3967917007107566 0.9005673665030758
2.5635703125 -0.39643311230799616 0.9006199947414086
2.56471875 -0.39542785534527286 0.9004639495257727
2.5658671875 -0.39591482258997535 0.9003327534491166
2.567015625 -0.39522211332997875 0.9013043287468802
2.5681640625 -0.39468751138017644 0.9020518968340245
2.5693125 -0.39439165188032577 0.9019205497025682
2.5704609375 -0.3940547879299866 0.9018719025328635
2.571609375 -0.39354897361416735 0.9024942133964795
2.5727578125 -0.39290635266110163 0.9018837244869293
2.57390625 -0.39245782017591585 0.9026962837915371
2.5750546875 -0.3920833992459524 0.9028428711133969
2.576203125 -0.39164850847202914 0.9031627860168336
2.5773515625 -0.39085123364862123 0.903819996709024
2.5785 -0.39011161792037796 0.9035467217984534
2.5796484375 -0.38965440550830266 0.9033209773379773
2.580796875 -0.3890188043195393 0.9039776996574982
2.5819453125 -0.38883088244431757 0.9038398316038725
2.58309375 -0.3889210299623004 0.9041909840178943
2.5842421875 -0.38827106663595 0.904353089984472
2.585390625 -0.3877644604123676 0.9043359559288089
2.5865390625 -0.38753052679382344 0.9043991373850597
2.5876875 -0.3865308917659028 0.9046197872898328
2.5888359375 -0.38656950327916256 0.9045206615303513
2.589984375 -0.3860555044087096 0.9045369355093316
2.5911328125 -0.3853581243243403 0.9054875075894424
2.59228125 -0.38553883635011005 0.9062321126806718
2.5934296875 -0.3850051401153629 0.9061101127637852
2.594578125 -0.3846362352239524 0.9054909764493471
2.5957265625 -0.38399185950464937 0.9062431088205399
2.596875 -0.3836051638228856 0.9060510076081159
2.5980234375 -0.38306569452027106 0.9062089428760323
2.599171875 -0.38249098197781006 0.906823323554876
2.6003203125 -0.3819493008061343 0.9057780779020217
2.60146875 -0.38099522022435595 0.9060966407500821
2.6026171875 -0.38006880034811635 0.9069711035552681
2.603765625 -0.37992653764316825 0.9080429918056023
2.6049140625 -0.3801550806722833 0.9076451167521639
2.6060625 -0.37791675014307985 0.908561467417609
2.6072109375 -0.37758831330061343 0.9095525926435268
2.608359375 -0.3786866086775431 0.9092242724159063
2.6095078125 -0.37738665076897704 0.9072837526509088
2.61065625 -0.3766841822951253 0.9076886296631137
2.6118046875 -0.3777432747616997 0.9073024430306539
2.612953125 -0.3758450981767911 0.9092188249866713
2.6141015625 -0.3756757898601456 0.9088269833287353
2.61525 -0.37692225137190366 0.9108490615514548
2.6163984375 -0.3763416224640435 0.9088789117074505
2.617546875 -0.37463776530238424 0.9094249690862013
2.6186953125 -0.37360677655516744 0.910203688032689
2.61984375 -0.3745773901167818 0.9098347875201973
2.6209921875 -0.3733856920839158 0.9104008043103038
2.622140625 -0.3732553798114737 0.9115197225651515
2.6232890625 -0.3723270163937457 0.9109073872352877
2.6244375 -0.370757190772867 0.9118978817681362
2.6255859375 -0.36976338698217315 0.9113762929432863
2.626734375 -0.36898872269269367 0.9121122091339475
2.6278828125 -0.37035543599840737 0.9113458790858462
2.62903125 -0.3693998942539607 0.9114708633988268
2.6301796875 -0.36887226894544467 0.912445441778332
2.631328125 -0.36914182332571577 0.9124445702931945
2.6324765625 -0.367376859630611 0.9134391456670489
2.633625 -0.36690668078419764 0.9133281387399416
2.6347734375 -0.36628509423781996 0.9132964524737892
2.635921875 -0.36623270119355633 0.9122917394009761
2.6370703125 -0.3652260703843303 0.9134959050528642
2.63821875 -0.36419863859410306 0.9137509244056102
2.6393671875 -0.36382443653084307 0.9138605838749132
2.640515625 -0.363941330497475 0.9139921467804797
2.6416640625 -0.36329459462276614 0.9137959687512341
2.6428125 -0.36246620758469283 0.9141644122359843
2.6439609375 -0.3619290951164103 0.9143774487782592
2.645109375 -0.36156186621700487 0.9148536468362636
2.6462578125 -0.3608983618209114 0.9144389505047896
2.64740625 -0.3605370541966272 0.9145656143132601
2.6485546875 -0.3596552976208733 0.9154235100166829
2.649703125 -0.3591717183273695 0.9155082446020524
2.6508515625 -0.35839138266461656 0.915666244068156
2.652 -0.35818312310215794 0.9158667516437531
2.6531484375 -0.35737148950585584 0.9160261987026342
2.654296875 -0.357343273683421 0.9160439340588213
2.6554453125 -0.35645463892671586 0.9162817259857948
2.65659375 -0.3557699269495558 0.9166726011024413
2.6577421875 -0.35514306422196756 0.9164385570460676
2.658890625 -0.3546932401532601 0.9166970909011467
2.6600390625 -0.35437702393015924 0.917530482219268
2.6611875 -0.3539998099999331 0.9172721511249631
2.6623359375 -0.3529753162212253 0.9177207556402969
2.663484375 -0.35203770731193035 0.9177240778222799
2.6646328125 -0.3516086323020955 0.9178028885130836
2.66578125 -0.351449083329091 0.9180704253526852
2.6669296875 -0.3508409703434116 0.9181019331377577
2.668078125 -0.3499852596061812 0.9184116418988153
2.6692265625 -0.3490487635694338 0.9182699670675878
2.670375 -0.34870818844871987 0.9187307094898718
2.6715234375 -0.3492923625144844 0.9201267417857749
2.672671875 -0.3482788172292228 0.9206220555957397
2.6738203125 -0.3478951840633486 0.9200133724306417
2.67496875 -0.34777234082622904 0.9214355240268263
2.6761171875 -0.3469836027621576 0.9209187402918638
2.677265625 -0.34584204966329607 0.9206704118542202
2.6784140625 -0.34560806152579643 0.9219613280259558
2.6795625 -0.3461084441885783 0.921205361704635
2.6807109375 -0.3448216250116876 0.921127007524166
2.681859375 -0.34424533357460774 0.9220958613309082
2.6830078125 -0.34336061951925967 0.9221691372824652
2.68415625 -0.343563959675778 0.9210023099344407
2.6853046875 -0.34266229627411965 0.9217651071730524
2.686453125 -0.3419333328138741 0.9228134307624503
2.6876015625 -0.3411745568576445 0.9237012252082178
2.68875 -0.3415480949377631 0.9225370368477724
2.6898984375 -0.3402097932664313 0.9241274664971235
2.691046875 -0.34022507635277593 0.9233541020156096
2.6921953125 -0.3381955750191696 0.9230941567768228
2.69334375 -0.3387828076532618 0.9237474690421464
2.6944921875 -0.338356088498009 0.9238821154729436
2.695640625 -0.3363495278614178 0.9242587542283334
2.6967890625 -0.335735240741305 0.9247360039850843
2.6979375 -0.3353746735022133 0.924750374061188
2.6990859375 -0.3356581461298254 0.9244912755792385
2.700234375 -0.33483055923673555 0.9246818681588647
2.7013828125 -0.33440975561882935 0.9245949279931837
2.70253125 -0.3347679622400915 0.9263586547164728
2.7036796875 -0.33424663250434133 0.9266272212880062
2.704828125 -0.3327094242643175 0.9261027640095879
2.7059765625 -0.33157104249433716 0.9263447402129682
2.707125 -0.3318720960721991 0.9263955235364003
2.7082734375 -0.33115249659773416 0.9263742375150159
2.709421875 -0.3312848259755093 0.9262260225424946
2.7105703125 -0.3306012573873486 0.9270105643859973
2.71171875 -0.3306323641842873 0.9265158406299974
2.7128671875 -0.3304173616792802 0.9270000668550684
2.714015625 -0.3297753216532963 0.9269276564659412
2.7151640625 -0.32921017668202346 0.9269928498798248
2.7163125 -0.32835328183077217 0.927641369639326
2.7174609375 -0.3285038349106246 0.9272313877336437
2.718609375 -0.328217404482325 0.9271844540659417
2.7197578125 -0.3272113135663737 0.9282130141882987
2.72090625 -0.3266367674662097 0.928748977785541
2.7220546875 -0.3267552346471675 0.92855720298507
2.723203125 -0.32573510845001863 0.9283023422874699
2.7243515625 -0.3249134936873269 0.9292230110851788
2.7255 -0.3246586940120384 0.9282956633456992
2.7266484375 -0.3242150002495525 0.9289018837148909
2.727796875 -0.3240392924915109 0.9292666485552743
2.7289453125 -0.3229968622131099 0.9288739137289393
2.73009375 -0.3229191428042146 0.9292266999941805
2.7312421875 -0.32212795519139303 0.9299823524019157
2.732390625 -0.3216377046616252 0.9299983600140876
2.7335390625 -0.3213691076631954 0.929638983218961
2.7346875 -0.32092759194564296 0.930009199169086
2.7358359375 -0.32080037487631724 0.9310536501951874
2.736984375 -0.3190128751562396 0.9305342438280969
2.7381328125 -0.3185480513197804 0.9306653164110301
2.73928125 -0.3187479422201661 0.931064768448754
2.7404296875 -0.31710461565549364 0.930137853846923
2.741578125 -0.3175620905006516 0.930163171600914
2.7427265625 -0.3162533185718267 0.930576532248119
2.743875 -0.31570405975480814 0.9290660742232232
2.7450234375 -0.3147540507378365 0.9318153778136038
2.746171875 -0.3145394691692236 0.9300579119420915
2.7473203125 -0.31287184520378114 0.9311925290541969
2.74846875 -0.3129972157611462 0.9321010503896099
2.7496171875 -0.3125186459052088 0.9322330246585526
2.750765625 -0.3143087401599748 0.9334017096859034
2.7519140625 -0.31256008902832727 0.9321183057048961
2.7530625 -0.3104328572396708 0.9323097742181038
2.7542109375 -0.31130233158852677 0.9318025875109112
2.755359375 -0.3095562799215955 0.9328763598108375
2.7565078125 -0.3096281163634011 0.9340528907431926
2.75765625 -0.30900405399667424 0.9342594120476888
2.7588046875 -0.30791116669617846 0.9329742747738367
2.759953125 -0.30853359719016 0.9334505795121539
2.7611015625 -0.3067273132570725 0.9331615799083136
2.76225 -0.3078055379803981 0.9337981810837367
2.7633984375 -0.30634868283017164 0.9334031472040224
2.764546875 -0.3060988158167411 0.9335581387297827
2.7656953125 -0.30558458380513887 0.934056684184095
2.76684375 -0.3055784921388839 0.9341729985455252
2.7679921875 -0.3043216005396234 0.9344890879131957
2.769140625 -0.30439758018792773 0.934646723103299
2.7702890625 -0.3027167068430839 0.934882304605728
2.7714375 -0.3025547742386529 0.9351965844259202
2.7725859375 -0.3023397070723377 0.9365337946331682
2.773734375 -0.30243779563746986 0.9372169187087274
2.7748828125 -0.30183409787771126 0.9364701958749732
2.77603125 -0.3001126530777919 0.9371796570671388
2.7771796875 -0.29913549523567207 0.936725905752961
2.778328125 -0.2992497938927489 0.9370196348687095
2.7794765625 -0.29958021982294647 0.9373247395140555
2.780625 -0.2981710537033865 0.9373951994536345
2.7817734375 -0.2975984782657679 0.9377424349937039
2.782921875 -0.2975821982252506 0.9382174923210241
2.7840703125 -0.2965122894424613 0.9385892733883635
2.78521875 -0.29608561143482626 0.938389280842899
2.7863671875 -0.2967655444807866 0.9393698299742346
2.787515625 -0.2957022053580557 0.9392822508854621
2.7886640625 -0.2956493345541681 0.9391674815900553
2.7898125 -0.2959119541834075 0.9390311405534149
2.7909609375 -0.29477243866544744 0.9394644072693273
2.792109375 -0.29489344164312714 0.9393090853262932
2.7932578125 -0.2940305203369225 0.9391905972582906
2.79440625 -0.29364025069793515 0.9383815787427231
2.7955546875 -0.2934081024850256 0.939101616152703
2.796703125 -0.2924834330424545 0.9394816626980657
2.7978515625 -0.29300173148605224 0.9396869974684838
2.799 -0.2923899387393215 0.9397550559678499
2.8001484375 -0.291701897029626 0.939263763636979
2.801296875 -0.2908719707412105 0.9396277660810695
2.8024453125 -0.28980557099689586 0.939953988358878
2.80359375 -0.2892196245192873 0.9398127854513663
2.8047421875 -0.2882222541024053 0.9396119070640725
2.805890625 -0.2878299300570075 0.9397899758536524
2.8070390625 -0.2872963418588925 0.9413360825295527
2.8081875 -0.2877513918178734 0.9413817736916998
2.8093359375 -0.2863250896442634 0.9403965475140771
2.810484375 -0.2863522543101843 0.940938971406196
2.8116328125 -0.2853298384849501 0.941128322264751
2.81278125 -0.2847529342499349 0.9409187143014115
2.8139296875 -0.28465477198916467 0.941592013879287
2.815078125 -0.2851302592775922 0.940583340167646
2.8162265625 -0.28463727885444223 0.9409485270186702
2.817375 -0.28296472392994126 0.9407357743324858
2.8185234375 -0.28201906412619776 0.9399443888606225
2.819671875 -0.28113663781095377 0.9403559080155591
2.8208203125 -0.2813093414290933 0.9413167572068155
2.82196875 -0.2809343534765242 0.9409170809261219
2.8231171875 -0.2802925457176981 0.9407019450665093
2.824265625 -0.27878402174492367 0.9405711839940358
2.8254140625 -0.278725168752214 0.9417370104529242
2.8265625 -0.27821115837123755 0.9412258268814455
2.8277109375 -0.2788590212842762 0.9405238729942087
2.828859375 -0.2765538258834843 0.9404606348235277
2.8300078125 -0.2760456551311419 0.9420009062978468
2.83115625 -0.27569759737472377 0.9410775157763874
2.8323046875 -0.27477195024262524 0.9422437469033978
2.833453125 -0.27363263150615874 0.941496535877337
2.8346015625 -0.27387004948418503 0.9422931081238348
2.83575 -0.2725458562306652 0.9426164775016879
2.8368984375 -0.27150821179491114 0.942032195668179
2.838046875 -0.27180754756676095 0.9429621066992486
2.8391953125 -0.2718098217854407 0.9435774554256307
2.84034375 -0.2708854335428743 0.943872066512198
2.8414921875 -0.2704747944022099 0.9435921189982812
2.842640625 -0.26936805187480656 0.9439131300757362
2.8437890625 -0.26863436713725275 0.9446117139551103
2.8449375 -0.2681170391238712 0.9445927468130967
2.8460859375 -0.2681542991182837 0.943986270163408
2.847234375 -0.2665556628106051 0.9442045607225953
2.8483828125 -0.2654666266810144 0.9439496624098285
2.84953125 -0.26542577309734056 0.9447674578928299
2.8506796875 -0.2653005319595637 0.9450967600332102
2.851828125 -0.26473444792260686 0.9459744792686696
2.8529765625 -0.2639112864390805 0.9465483615483624
2.854125 -0.2635053624237088 0.9461751893439468
2.8552734375 -0.26384129506341 0.9463937602110563
2.856421875 -0.2622831519384906 0.9460291278822289
2.8575703125 -0.2623452939657347 0.945083688736968
2.85871875 -0.26125826355739756 0.9454925363739166
2.8598671875 -0.2603935497925917 0.94627487431329
2.861015625 -0.2603011366657647 0.9465390661845794
2.8621640625 -0.2608562571608668 0.9469938838276368
2.8633125 -0.26090014380062565 0.9483730145794318
2.8644609375 -0.260044724440033 0.9483951803137787
2.865609375 -0.2598088368201699 0.9469261852201055
2.8667578125 -0.2608817337919812 0.9458663599993833
2.86790625 -0.25986953373339666 0.9465656579358912
2.8690546875 -0.2593490539670106 0.9477861783753633
2.870203125 -0.2599844144742141 0.9481109505186227
2.8713515625 -0.25946481787322767 0.9489269549513818
2.8725 -0.25797241476193034 0.9494423868112858
2.8736484375 -0.2579280942783174 0.9495390344587717
2.874796875 -0.25624916354509064 0.9492557051729988
2.8759453125 -0.2552117313317325 0.949334354568456
2.87709375 -0.25472171243718567 0.9486815904576181
2.8782421875 -0.25280867172076893 0.9489646167968335
2.879390625 -0.2539403556211151 0.9489115083868761
2.8805390625 -0.25313686731372215 0.9491435087327416
2.8816875 -0.2535927656608818 0.9489130092992104
2.8828359375 -0.2526776842716629 0.9482825524917003
2.883984375 -0.25235261841328305 0.9492397613601453
2.8851328125 -0.2515286360783119 0.9489921837299381
2.88628125 -0.25248168851493974 0.9486807069630081
2.8874296875 -0.25233895532081496 0.9484929973139623
2.888578125 -0.24934936195388785 0.9477059300105592
2.8897265625 -0.2505253190952842 0.9489792570848993
2.890875 -0.25107710991167836 0.9486566830454217
2.8920234375 -0.24882811250783446 0.9480297647898145
2.893171875 -0.24801926384196374 0.9487756638727342
2.8943203125 -0.24911298431238404 0.9479855475482756
2.89546875 -0.24779009559131665 0.9489905009250703
2.8966171875 -0.2467833626340014 0.9488363470660456
2.897765625 -0.24629553683783087 0.9491593650208001
2.8989140625 -0.2462522921591283 0.9507321322201344
2.9000625 -0.24493313046746587 0.9504096232769045
2.9012109375 -0.24405817637665633 0.94965804878511
2.902359375 -0.24563274786171582 0.9500517523476981
2.9035078125 -0.24451146428475073 0.9496825930392199
2.90465625 -0.24370601513780402 0.951058722038672
2.9058046875 -0.24205186630604544 0.9509676814469756
2.906953125 -0.2399456463822574 0.9501882213535403
2.9081015625 -0.2399551057583921 0.9503229385625613
2.90925 -0.24022349093244455 0.9503371986213309
2.9103984375 -0.2388020222064173 0.9500017458677731
2.911546875 -0.23926698569578564 0.9506117801549169
2.9126953125 -0.2386164905146846 0.9517011141978802
2.91384375 -0.2374518898763152 0.9508537451423661
2.9149921875 -0.23664820982811618 0.9515438195287418
2.916140625 -0.23717670456150233 0.951789542631417
2.9172890625 -0.23675465761922435 0.9515080916858057
2.9184375 -0.23594237502174004 0.9525339715294169
2.9195859375 -0.23487613103314378 0.9527288121150564
2.920734375 -0.2354436635088526 0.9530703984021686
2.9218828125 -0.23445023799095438 0.952742346801832
2.92303125 -0.23378467839431855 0.9531531592405627
2.9241796875 -0.23332687766718335 0.9527554243688823
2.925328125 -0.2324706609272759 0.9535440098075874
2.9264765625 -0.2316635974729245 0.9533933006561225
2.927625 -0.2307039386824718 0.9539317203701001
2.9287734375 -0.2302825619406205 0.9545995167655775
2.929921875 -0.2293803917177521 0.9546374135411915
2.9310703125 -0.22826268035524344 0.9548814284319699
2.93221875 -0.22876427193922316 0.9552985939471125
2.9333671875 -0.22827981946892367 0.9550900312499551
2.934515625 -0.22771343701780775 0.9550951464443512
2.9356640625 -0.22710448371156158 0.9552865479882137
2.9368125 -0.22663078666824904 0.9554602775836021
2.9379609375 -0.2261967618915961 0.9563066567640344
2.939109375 -0.22592087123665658 0.9546281818505393
2.9402578125 -0.22597056798338117 0.9572977818181757
2.94140625 -0.22555991609735565 0.9573647614714651
2.9425546875 -0.2254276586776712 0.9585047335010483
2.943703125 -0.22574391170088443 0.9576094146633624
2.9448515625 -0.22478399727939535 0.9585041653664331
2.946 -0.22326764042483024 0.9577587578912006
2.9471484375 -0.22432383673105372 0.9579787077121058
2.948296875 -0.22364838158217246 0.9564183847140808
2.9494453125 -0.22282260319942954 0.9576715800306925
2.95059375 -0.22317906616297767 0.957545008039171
2.9517421875 -0.22214815255913264 0.9585074943180296
2.952890625 -0.22315160022366015 0.9587546756297559
2.9540390625 -0.22185402826701295 0.9577624933472065
2.9551875 -0.221673852101836 0.9580349445559888
2.9563359375 -0.2206819457642594 0.9573884645419266
2.957484375 -0.22047786660103957 0.958415548917878
2.9586328125 -0.22043404771210864 0.9578346751847197
2.95978125 -0.22050775485612395 0.9578614049050527
2.9609296875 -0.21819131547322637 0.9563687895529343
2.962078125 -0.21860149384808913 0.9560494460116609
2.9632265625 -0.21784956048917697 0.9570409493887213
2.964375 -0.2173256132828934 0.9569305957723767
2.9655234375 -0.21751065334490444 0.9583879272630629
2.966671875 -0.21785602333175919 0.958127624081887
2.9678203125 -0.21699318129642992 0.9583948823277757
2.96896875 -0.21667923283953833 0.958109234027354
2.9701171875 -0.2148583128202076 0.9584562639384803
2.971265625 -0.21474670656791697 0.9583172383217495
2.9724140625 -0.21524965647472186 0.9584364230563844
2.9735625 -0.21335499275694267 0.9573153666321965
2.9747109375 -0.21258603840796436 0.9571263507302796
2.975859375 -0.21151721161035394 0.9571846715744706
2.9770078125 -0.21214879909667417 0.9569474019116161
2.97815625 -0.21149968954517667 0.9558240728783847
2.9793046875 -0.2097249015066241 0.9564067760383116
2.980453125 -0.20947789610993506 0.9566940113245634
2.9816015625 -0.2087738462243769 0.9564909784572015
2.98275 -0.20883479016682618 0.9570166943977367
2.9838984375 -0.20763245603846198 0.957575629626799
2.985046875 -0.20651984333805892 0.9576099239944837
2.9861953125 -0.20577388950544387 0.9578781135388337
2.98734375 -0.2051046123867708 0.9578484666860488
2.9884921875 -0.2038941244731478 0.9584323376606417
2.989640625 -0.20332725245614436 0.9577049081830498
2.9907890625 -0.20263764532703368 0.9584863488302233
2.9919375 -0.20205778239319824 0.9587199476620599
2.9930859375 -0.2005615611381594 0.9575561840602451
2.994234375 -0.2004389344223025 0.958803737383887
2.9953828125 -0.19968053169624675 0.9592668421801653
2.99653125 -0.19998633483876643 0.9589940194781136
2.9976796875 -0.19938738050211782 0.9605586387730853
2.998828125 -0.19958937956524292 0.9606167700413593
2.9999765625 -0.1984456915637638 0.9610990297734416
3.001125 -0.19855418093567795 0.9601675128004122
3.0022734375 -0.19743767873511314 0.9609854872438356
3.003421875 -0.1950628452183159 0.9615740829044583
3.0045703125 -0.1954428896916095 0.9616753751593412
3.00571875 -0.19443247724889018 0.9620193488935403
3.0068671875 -0.19372573971748014 0.9622706976185561
3.008015625 -0.19361377755624348 0.9628808481579872
3.0091640625 -0.19171835185465058 0.9628353794151256
3.0103125 -0.192315153883858 0.962216837181459
3.0114609375 -0.19113403671486362 0.9622252593424777
3.012609375 -0.1902567124132739 0.9633436557608044
3.0137578125 -0.19023588125705224 0.9631563417391049
3.01490625 -0.18954741020161558 0.9624663924383323
3.0160546875 -0.18922296096733088 0.9636877204666272
3.017203125 -0.18949629665346043 0.964018282973032
3.0183515625 -0.18953691426110297 0.9652536164487145
3.0195 -0.19032273684165382 0.9638965432732449
3.0206484375 -0.18789513188819623 0.9646950918383301
3.021796875 -0.18816080442817862 0.9644383684462865
3.0229453125 -0.1882931402011156 0.9660553922815965
3.02409375 -0.1883973025968489 0.9656903861873962
3.0252421875 -0.18720094441966212 0.9656075788082372
3.026390625 -0.18711030484637142 0.9648059697904425
3.0275390625 -0.186723069261879 0.9641922140968913
3.0286875 -0.18593374802617924 0.9661863138286968
3.0298359375 -0.18626668214140613 0.9654587400251022
3.030984375 -0.1857600937135685 0.9655714533633958
3.0321328125 -0.18641776256273807 0.9655413473373944
3.03328125 -0.18579550813798584 0.965506458062365
3.0344296875 -0.18614248864513722 0.9660379069775831
3.035578125 -0.18491698671709617 0.9656959625031771
3.0367265625 -0.1852650306529807 0.9644072298467775
3.037875 -0.183719113874011 0.9654827880087032
3.0390234375 -0.18355722162545096 0.9644870289596813
3.040171875 -0.18327874959567325 0.9653989694178244
3.0413203125 -0.18325568002477016 0.9654602558073696
3.04246875 -0.18145811958602334 0.9655416044799787
3.0436171875 -0.18141715376017312 0.9651553630498003
3.044765625 -0.1803958394084734 0.964613703345671
3.0459140625 -0.18064250412594401 0.9650871037881213
3.0470625 -0.18015401658815858 0.964250484463804
3.0482109375 -0.17720730106150687 0.9649441587051474
3.049359375 -0.17832413721710622 0.9653378804980954
3.0505078125 -0.17738918023428263 0.9640955723253583
3.05165625 -0.1772505896284273 0.9633509918123362
3.0528046875 -0.1762620029429759 0.9636378740464896
3.053953125 -0.17449692263788155 0.9641093917817197
3.0551015625 -0.17488973191606805 0.964907193072842
3.05625 -0.1747598779387584 0.9652499243378541
3.0573984375 -0.17482472489697665 0.9637601403711777
3.058546875 -0.17455535872259634 0.9631886244938773
3.0596953125 -0.17296065679639072 0.9635168695102844
3.06084375 -0.17198701624498175 0.9631971797831286
3.0619921875 -0.17158377700942126 0.9630343749442383
3.063140625 -0.1705349325310896 0.9628831405001281
3.0642890625 -0.16938223963814963 0.9630119351759862
3.0654375 -0.16949416540571488 0.9644633040195129
3.0665859375 -0.16838038377094744 0.9648549153360122
3.067734375 -0.1680841620731917 0.9645819614335019
3.0688828125 -0.16678951072908393 0.9640080363660014
3.07003125 -0.16748595108369196 0.9645061299078596
3.0711796875 -0.16731851141018597 0.9646831689963618
3.072328125 -0.16640806563819294 0.9647972471135213
3.0734765625 -0.16531726113973175 0.9642395009998095
3.074625 -0.16456628437124224 0.966347761330334
3.0757734375 -0.16478606505317905 0.9666115703537255
3.076921875 -0.16501824533024279 0.9666562933838799
3.0780703125 -0.16382936863196385 0.9657436602190868
3.07921875 -0.16265103224014293 0.9669520484373914
3.0803671875 -0.1623059990738181 0.9663227040666789
3.081515625 -0.16211664564054923 0.9664473866761465
3.0826640625 -0.16145189260005888 0.9676849410102866
3.0838125 -0.16046065308821822 0.967596224219835
3.0849609375 -0.15977126812398385 0.9676835590644518
3.086109375 -0.160627149221855 0.9676191590945472
3.0872578125 -0.1586535223511657 0.967010712504056
3.08840625 -0.16071966353789502 0.968441282560842
3.0895546875 -0.15864426914989932 0.968744915740551
3.090703125 -0.15852346496394956 0.9686021745897617
3.0918515625 -0.1571212487879439 0.9679394644096995
3.093 -0.1579158022081075 0.9677340344413468
3.0941484375 -0.15758792177592887 0.9677222167298928
3.095296875 -0.15681532402061624 0.9685415838224896
3.0964453125 -0.1552602677225947 0.968971411776561
3.09759375 -0.15518743932203638 0.9690929358734728
3.0987421875 -0.15543187063014244 0.9697759207642412
3.099890625 -0.15544264381987177 0.9697326207400299
3.1010390625 -0.15509264176618281 0.968724700349278
3.1021875 -0.1551622761435162 0.9691519258394041
3.1033359375 -0.1550520075012939 0.9685634118447302
3.104484375 -0.15350758165980596 0.9682698532025945
3.1056328125 -0.15395588625291162 0.9685475536218123
3.10678125 -0.15340523574758236 0.9689614561354228
3.1079296875 -0.15294591298873697 0.9697564826290261
3.109078125 -0.15219656589513111 0.9705556632916473
3.1102265625 -0.15144629087096478 0.969444835642153
3.111375 -0.15114089730857772 0.9696335208346288
3.1125234375 -0.15114684018664454 0.9704885185432658
3.113671875 -0.15031864232907927 0.9698787431636522
3.1148203125 -0.14980434479122637 0.9693649106290221
3.11596875 -0.14931080828845067 0.9698044809203346
3.1171171875 -0.14911243430041038 0.9703703702346967
3.118265625 -0.14859086185576698 0.9697992855703642
3.1194140625 -0.14809570211971482 0.9701889195824187
3.1205625 -0.14671308590355964 0.9691751704667134
3.1217109375 -0.14740501886622137 0.9692442529474142
3.122859375 -0.14659409138933993 0.9700163961676574
3.1240078125 -0.14654400266079076 0.9703831544463549
3.12515625 -0.14647470136986476 0.9705424775873808
3.1263046875 -0.14567197635093865 0.9714382982854899
3.127453125 -0.14495058057757282 0.9697253259077449
3.1286015625 -0.14542393986319985 0.9693313690354635
3.12975 -0.1443314308357556 0.9686484315123294
3.1308984375 -0.14321561799834737 0.9694697785735631
3.132046875 -0.14277523731831124 0.9689163797575586
3.1331953125 -0.14249067357982984 0.9689238206509813
3.13434375 -0.14151764671982323 0.9694441663544138
3.1354921875 -0.1411212110144795 0.9701053317589083
3.136640625 -0.14066549914829746 0.9704725377188533
3.1377890625 -0.13931632196502403 0.9696622054986174
3.1389375 -0.13869965173669346 0.9705979757594907
3.1400859375 -0.13862706056222274 0.9703028419915842
3.141234375 -0.13681037270765006 0.9708794132136437
3.1423828125 -0.13570305299339525 0.9708117692102803
3.14353125 -0.13654903162873833 0.9712334585436538
3.1446796875 -0.1359021751624724 0.9701695211053891
3.145828125 -0.13514020796163256 0.9713632470784701
3.1469765625 -0.13441058621608745 0.9707254090755911
3.148125 -0.1344700328629335 0.9712668934942956
3.1492734375 -0.13427399993024985 0.9712477567091032
3.150421875 -0.13370773112015943 0.9702147946120316
3.1515703125 -0.1330585835779033 0.9713334930349445
3.15271875 -0.13257993377929242 0.9718263507949273
3.1538671875 -0.1328513597403885 0.9708762461104709
3.155015625 -0.1312960058227851 0.9711119999112781
3.1561640625 -0.13011514815031566 0.9713235330940966
3.1573125 -0.1305847750358844 0.9713686386048948
3.1584609375 -0.12976298668696734 0.9712621502444336
3.159609375 -0.1296672068582508 0.9716480019795259
3.1607578125 -0.1299799352217353 0.9711465131603103
3.16190625 -0.1286418659454328 0.9706524120364104
3.1630546875 -0.12806742788352762 0.9719242796520285
3.164203125 -0.12715446435037842 0.9716220984490369
3.1653515625 -0.12723548865878026 0.9713599404106604
3.1665 -0.12676979614291012 0.9718387015730283
3.1676484375 -0.12586991516879165 0.9724061420007963
3.168796875 -0.12508621381267948 0.9718213356985896
3.1699453125 -0.12455516579557507 0.9722990005014469
3.17109375 -0.12526635064834374 0.9731562852277187
3.1722421875 -0.1238913524015633 0.9723865783247072
3.173390625 -0.12352183144781027 0.9726687331575979
3.1745390625 -0.12283056794497045 0.973015939081459
3.1756875 -0.12223068541381527 0.9729238142896536
3.1768359375 -0.1215752113036493 0.9727759364875308
3.177984375 -0.12046670245242236 0.9734863429308465
3.1791328125 -0.12010339237076284 0.9729955937786217
3.18028125 -0.1200019518348387 0.9736968793628116
3.1814296875 -0.11984747353227196 0.9729276525240094
3.182578125 -0.11903657774678632 0.9736465325391211
3.1837265625 -0.11893225134650334 0.9739772872007144
3.184875 -0.11741970668839599 0.9720673866870901
3.1860234375 -0.11809365696464227 0.9732599056968829
3.187171875 -0.11749831744626285 0.9746713851667832
3.1883203125 -0.1177349281628601 0.9730707289857694
3.18946875 -0.11755213961035191 0.9735692324224449
3.1906171875 -0.11623201879889548 0.9732888712608689
3.191765625 -0.11564508440135814 0.973507148648602
3.1929140625 -0.11465664570711148 0.973096580808436
3.1940625 -0.11502041920374564 0.9738628762221424
3.1952109375 -0.1148219462665441 0.9739308624292619
3.196359375 -0.11349412502839373 0.9731389017935794
3.1975078125 -0.11350106176209998 0.9729456704318774
3.19865625 -0.11280600350482374 0.9730718841994482
3.1998046875 -0.11219520709912367 0.9731482922929106
3.200953125 -0.11211774674689595 0.9736608684161683
3.2021015625 -0.11116782187122186 0.9743990360167356
3.20325 -0.11048437053061758 0.9740967224919144
3.2043984375 -0.10992414743388708 0.9743250394130963
3.205546875 -0.10957461413433128 0.9742352374768875
3.2066953125 -0.11021391440006706 0.9739960460235695
3.20784375 -0.10820811016972623 0.9734846613862076
3.2089921875 -0.10776689118045304 0.9735016680824761
3.210140625 -0.10672947540759334 0.9739220506464237
3.2112890625 -0.10727991304970565 0.9733726073477894
3.2124375 -0.10663163395951336 0.9735930740419408
3.2135859375 -0.10664012859835703 0.9735223485957955
3.214734375 -0.10589437017929539 0.9737417417499107
3.2158828125 -0.10483547755571368 0.9737070954552299
3.21703125 -0.10371518131555281 0.9741080838655971
3.2181796875 -0.1051646955653075 0.9739226549069443
3.219328125 -0.10388082449279287 0.9744115330412506
3.2204765625 -0.1028800995233008 0.9744175911052553
3.221625 -0.10251990372068669 0.9744755550730491
3.2227734375 -0.10243729024018416 0.9747099613183471
3.223921875 -0.10192459667507311 0.9751899321286415
3.2250703125 -0.1020289588649198 0.9748164027025233
3.22621875 -0.10084800153020754 0.9756450258036882
3.2273671875 -0.10086589587687478 0.9749971997722123
3.228515625 -0.10000612098052955 0.9747131570805767
3.2296640625 -0.10031639884318706 0.9750814351844723
3.2308125 -0.09924784545341996 0.9750453425326908
3.2319609375 -0.09854688275169805 0.9754459816536343
3.233109375 -0.0981659088992761 0.974553826213695
3.2342578125 -0.09680594594381564 0.9748119824375276
3.23540625 -0.0972358885372101 0.9752370396746893
3.2365546875 -0.09674890262816896 0.9758077519159826
3.237703125 -0.09651186032742098 0.9760835164405183
3.2388515625 -0.09641223399781254 0.9763415112716528
3.24 -0.09498003557237528 0.9760429299637674
3.2411484375 -0.09467342947159169 0.975797711956998
3.242296875 -0.09411172223148348 0.9752441064225428
3.2434453125 -0.09311534414151856 0.9762779073664504
3.24459375 -0.09277826544542078 0.9758021312093413
3.2457421875 -0.09232391252901331 0.9764360574790101
3.246890625 -0.09117777101982763 0.9764774802566388
3.2480390625 -0.09080602717258059 0.9771915796325491
3.2491875 -0.08993568087550509 0.9769053913595345
3.2503359375 -0.0901560196842416 0.9770612261795445
3.251484375 -0.0892179869056394 0.97708649139808
3.2526328125 -0.0890495880751723 0.9763204653473313
3.25378125 -0.088442428673318 0.9760436151786249
3.2549296875 -0.08740893023013585 0.9769187561841174
3.256078125 -0.08731080451047746 0.9777388442966524
3.2572265625 -0.08588045906823377 0.9770565479729723
3.258375 -0.08533059778712257 0.9774810654633141
3.2595234375 -0.08513408006850656 0.977122042973696
3.260671875 -0.08501827418689115 0.9775386125574579
3.2618203125 -0.08355526524369339 0.9773322779101494
3.26296875 -0.08329584856045821 0.9767014964375053
3.2641171875 -0.08222877226785805 0.9767146285165462
3.265265625 -0.08257473865940251 0.9766891972992737
3.2664140625 -0.08284663833687893 0.9773297933720876
3.2675625 -0.08249267020680633 0.9778126813915574
3.2687109375 -0.08230002331260253 0.977748557771793
3.269859375 -0.08069031870766749 0.978069285395129
3.2710078125 -0.0816438419185742 0.9769083245371869
3.27215625 -0.08161792232862933 0.9762573207525138
3.2733046875 -0.08148038560542595 0.9777210623797592
3.274453125 -0.07949628273938053 0.9769613447474632
3.2756015625 -0.0802479317372199 0.9780795771648838
3.27675 -0.07901655792984244 0.9787352825491327
3.2778984375 -0.07862709764506588 0.9775579076644576
3.279046875 -0.0781715735198873 0.9776761087304942
3.2801953125 -0.07889403923382077 0.9780604518386077
3.28134375 -0.07730642612601352 0.9781099672260718
3.2824921875 -0.07739548475894295 0.9783642891654267
3.283640625 -0.07659283284113395 0.9778641034589903
3.2847890625 -0.07525406819403781 0.9796250665763189
3.2859375 -0.07506796216832153 0.9786534737693052
3.2870859375 -0.07463631890928167 0.9787397399838007
3.288234375 -0.07438114752848268 0.9786472308696057
3.2893828125 -0.0747422933210485 0.9779233933702124
3.29053125 -0.07402076201500471 0.9779274672332757
3.2916796875 -0.07394315093835091 0.9786940058376377
3.292828125 -0.07314381811820515 0.9777269426529342
3.2939765625 -0.0725370699273987 0.9776470581698963
3.295125 -0.07235623702312745 0.9779934568210986
3.2962734375 -0.07323916695883886 0.9786878805160915
3.297421875 -0.07181779323981585 0.9784482285022791
3.2985703125 -0.07092450220772958 0.9783249691699561
3.29971875 -0.07076330943956333 0.9784010248403308
3.3008671875 -0.07010083522686357 0.9778231339397556
3.302015625 -0.07058619346957817 0.9775264080222373
3.3031640625 -0.06976182028493799 0.9780664261388089
3.3043125 -0.06905556705549516 0.9779586493796221
3.3054609375 -0.06853502921105813 0.9780483675684756
3.306609375 -0.0678648258749101 0.9779447880902475
3.3077578125 -0.06802742152380235 0.9784445176802729
3.30890625 -0.06621508508107082 0.978298877284018
3.3100546875 -0.06663207378628914 0.9778163349426062
3.311203125 -0.06613855057779101 0.9776074460962967
3.3123515625 -0.06597462503063138 0.9774078687529247
3.3135 -0.06570056783639326 0.9781134334904954
3.3146484375 -0.06471373496487515 0.9788203839538773
3.315796875 -0.0637673227559207 0.9787141128600048
3.3169453125 -0.06333609255537753 0.9783406389322483
3.31809375 -0.06246867998971124 0.9787201993614819
3.3192421875 -0.062292127946148704 0.9784574821010462
3.320390625 -0.06169761420319507 0.9780659383674584
3.3215390625 -0.06207772065780797 0.978754524115954
3.3226875 -0.061666420023461316 0.978857001316578
3.3238359375 -0.060930852872044534 0.9777641361619155
3.324984375 -0.06132897512450826 0.9787107402227629
3.3261328125 -0.059543220218295737 0.9779202568560339
3.32728125 -0.05980758605563232 0.9774818896957743
3.3284296875 -0.058957464423422666 0.9778162104358711
3.329578125 -0.05844823306753061 0.9783846639708562
3.3307265625 -0.05830445846639815 0.9769399795652304
3.331875 -0.05853738655927251 0.9767806675157695
3.3330234375 -0.05720773213263512 0.9778766372977594
3.334171875 -0.05713384833955908 0.9772329964719699
3.3353203125 -0.05675256721686425 0.9770434071391199
3.33646875 -0.056245028099394974 0.9771931109271514
3.3376171875 -0.055815585705423394 0.9783713561179518
3.338765625 -0.05413007557320818 0.9778976187581354
3.3399140625 -0.054561852428612445 0.977987526881784
3.3410625 -0.053702187072173994 0.9788004762156861
3.3422109375 -0.052758896187612155 0.978170270942876
3.343359375 -0.05206302572438469 0.9769671607676904
3.3445078125 -0.05180281100812376 0.9777099640686058
3.34565625 -0.05157719794951952 0.9776221332326225
3.3468046875 -0.05067417342063045 0.9780326665174989
3.347953125 -0.05087434414409024 0.9783322163411527
3.3491015625 -0.05005087447038008 0.9785577736831749
3.35025 -0.0494819884261226 0.9789085172279846
3.3513984375 -0.0486106685759998 0.9782711219720042
3.352546875 -0.04821867020415539 0.9786000740590288
3.3536953125 -0.04731181980666056 0.9784992317101385
3.35484375 -0.047008172745096805 0.9784226954882252
3.3559921875 -0.0459985108978794 0.9788283015440679
3.357140625 -0.04596960193411996 0.9791818768673038
3.3582890625 -0.04592179367086651 0.9782884031537701
3.3594375 -0.045306499124424374 0.9783356730211034
3.3605859375 -0.04477541968646564 0.9782431744251455
3.361734375 -0.04467040843125268 0.9782015089090373
3.3628828125 -0.044183925326356906 0.9779320659287203
3.36403125 -0.04336195713605195 0.9785854087704403
3.3651796875 -0.04318262898308147 0.9778245134887714
3.366328125 -0.042334631232836706 0.9780151306956427
3.3674765625 -0.042338244564991884 0.9779799524399797
3.368625 -0.0415768389874674 0.9786432506003664
3.3697734375 -0.04150331089709047 0.9773646296088366
3.370921875 -0.04021537848142366 0.9778557035782105
3.3720703125 -0.040516566986332214 0.9782445406068674
3.37321875 -0.03995331979694972 0.9779188138299992
3.3743671875 -0.039669553807533925 0.9786633310427318
3.375515625 -0.03860096129754406 0.9783412878342767
3.3766640625 -0.03771951509106738 0.9782298977202813
3.3778125 -0.03758703781024826 0.9788857632632879
3.3789609375 -0.03685681196530141 0.978726043099994
3.380109375 -0.036896095177154864 0.9783340613287271
3.3812578125 -0.0366526181161229 0.977689349646696
3.38240625 -0.035647270109393614 0.9783988008298959
3.3835546875 -0.03528671083543608 0.978086367111506
3.384703125 -0.03560509657587617 0.9785227520596507
3.3858515625 -0.03351272756332178 0.9783245575319568
3.387 -0.03246317510744434 0.9786026034428252
3.3881484375 -0.033646717721818216 0.9787795017263006
3.389296875 -0.03267716774870842 0.9781661502855167
3.3904453125 -0.0319036297436487 0.9790339859162961
3.39159375 -0.03194672975995674 0.9782059824978193
3.3927421875 -0.0315768363099832 0.977675459527189
3.393890625 -0.029910780659738366 0.9772150852397368
3.3950390625 -0.03065147228346278 0.9783554718687977
3.3961875 -0.0301887018759526 0.9780880956150824
3.3973359375 -0.030301773257772252 0.9787957968759924
3.398484375 -0.029171937006616244 0.9787843624499798
3.3996328125 -0.028957869403446523 0.9783462323765045
3.40078125 -0.028418046279869824 0.9786579726236709
3.4019296875 -0.02827594768697382 0.9781057469726975
3.403078125 -0.028609323606769946 0.9785999618321582
3.4042265625 -0.028020330811223876 0.9780146272205741
3.405375 -0.02777236912621006 0.9781581289502345
3.4065234375 -0.027000536168205108 0.9773759787342499
3.407671875 -0.026460519767118607 0.977060496691779
3.4088203125 -0.02638321343988581 0.9780887882608228
3.40996875 -0.026108592339197656 0.9783700378281723
3.4111171875 -0.025800189817376584 0.9783264617309114
3.412265625 -0.02505868901812275 0.9777110542323861
3.4134140625 -0.024952425335781736 0.977812805247654
3.4145625 -0.024853796222733482 0.977987270396406
3.4157109375 -0.024217519632799944 0.9787905912359853
3.416859375 -0.023883033938159437 0.9791585241301095
3.4180078125 -0.0241244831038058 0.9790652637913771
3.41915625 -0.02359084674575765 0.9794132363419753
3.4203046875 -0.02276234207730432 0.9796969054341373
3.421453125 -0.02204593576066352 0.9794713554270055
3.4226015625 -0.02203479879300585 0.9799050437641821
3.42375 -0.0210875022729419 0.9801129846071616
3.4248984375 -0.021061497136697194 0.9802613128254312
3.426046875 -0.0204842492196472 0.9807914771894926
3.4271953125 -0.019651757287990235 0.9814529047058475
3.42834375 -0.019366861654434214 0.9814377757180769
3.4294921875 -0.01896681102877401 0.9813166943974503
3.430640625 -0.018329557000279356 0.9814035866813133
3.4317890625 -0.018115943846571253 0.9822362195844084
3.4329375 -0.017837512501049257 0.9813660628607254
3.4340859375 -0.01697051836081645 0.9811256796111825
3.435234375 -0.015993342417433554 0.9827062331166625
3.4363828125 -0.016157163196058394 0.9822078352368785
3.43753125 -0.014583556810522702 0.981562815166681
3.4386796875 -0.014332788110695993 0.9825491383376028
3.439828125 -0.013299091676011981 0.9825377895619902
3.4409765625 -0.013726829118565792 0.9825587775523857
3.442125 -0.012635000790341466 0.981865271558557
3.4432734375 -0.012183172458648944 0.9821319253765937
3.444421875 -0.011635289065642845 0.9830098444552791
3.4455703125 -0.011513858185637577 0.9826400956909032
3.44671875 -0.010659973280612245 0.9819943350872233
3.4478671875 -0.010765200406996356 0.9818120569089214
3.449015625 -0.009987401806707763 0.9818354875438028
3.4501640625 -0.009117876339931996 0.9819410982609958
3.4513125 -0.008885807228006692 0.9821186879912704
3.4524609375 -0.00866482837321439 0.982058759058743
3.453609375 -0.0076283898921877535 0.9825350164773226
3.4547578125 -0.007129807696256957 0.981772789381514
3.45590625 -0.007072986743602155 0.9814772839546889
3.4570546875 -0.006711670638711031 0.9822447099931498
3.458203125 -0.006268198089753707 0.9817506384164307
3.4593515625 -0.0052422537761366295 0.9812356231959436
3.4605 -0.004510341533693285 0.9823106087623692
3.4616484375 -0.004128435438729872 0.9828491694397792
3.462796875 -0.0050876443474401345 0.9822310672371203
3.4639453125 -0.003475678566836171 0.9814546248725455
3.46509375 -0.0025620728084960465 0.9822441231911743
3.4662421875 -0.0020265687678267252 0.9822852184298965
3.467390625 -0.0015318290500798415 0.981000998109734
3.4685390625 -0.0008087157041460902 0.9819794708414435
3.4696875 -0.0001441673762842821 0.9825263024863343
3.4708359375 0.0001271963865206449 0.9811712160858034
3.471984375 0.0005623513801635283 0.981355901393926
3.4731328125 -0.0012497302207290784 0.9808588050911136
3.47428125 0.0006375376316208048 0.981800870874908
3.4754296875 0.00038230224192492557 0.9818637257692571
3.476578125 0.0013161742023842515 0.9825570924972193
3.4777265625 0.0009747641921523664 0.9814877919499594
3.478875 0.0015573917358495393 0.981429441324399
3.4800234375 0.002841054333116322 0.9817537404918562
3.481171875 0.0026721254863582566 0.9812462740269698
3.4823203125 0.003212709449294443 0.9811799166514699
3.48346875 0.0028690509518661533 0.9811016790599396
3.4846171875 0.00431808236115272 0.9816773956904215
3.485765625 0.00472689078376648 0.981237305756889
3.4869140625 0.005504541902950161 0.9810203653226222
3.4880625 0.005870405661908634 0.9810661712271332
3.4892109375 0.005544374166050858 0.9806483860369175
3.490359375 0.006127161676284021 0.9808739097803822
3.4915078125 0.007307145605939369 0.9811930576217964
3.49265625 0.007645602023997444 0.9806847646631235
3.4938046875 0.008372410437918226 0.9810457516942578
3.494953125 0.008837718386010468 0.9813746194291258
3.4961015625 0.008575234775872465 0.9812985152435787
3.49725 0.009043038544737897 0.9811271045283917
3.4983984375 0.009778564970300468 0.9820235041348669
3.499546875 0.010011693483144457 0.98170421461485
3.5006953125 0.010165061965446781 0.9818245449603116
3.50184375 0.010348262363295432 0.9818329302555069
3.5029921875 0.011384114398664269 0.9820494437404927
3.504140625 0.01137189410438498 0.9821539977762911
3.5052890625 0.011940672292873933 0.9820841986518304
3.5064375 0.013143803849682986 0.9825055199438478
3.5075859375 0.01339593897927474 0.9820523886403405
3.508734375 0.013866826223387335 0.9824674251996466
3.5098828125 0.014192408321266198 0.98248660680077
3.51103125 0.015104638831578004 0.9826586450074051
3.5121796875 0.014833365741507835 0.9826721210412188
3.513328125 0.01453973660509731 0.9829136249292698
3.5144765625 0.016316704627113113 0.9823587724618481
3.515625 0.01731496534261298 0.9816575650585616
3.5167734375 0.016544783052933297 0.9818730609794529
3.517921875 0.016804097571993075 0.9817244005174746
3.5190703125 0.018964319459423923 0.9816429341292412
3.52021875 0.018119590980765772 0.9815116132447362
3.5213671875 0.01994079280788079 0.9824086743017466
3.522515625 0.020034404878797922 0.9818911623862197
3.5236640625 0.020675949645796648 0.9823921187239116
3.5248125 0.020860011270725076 0.9817569308593913
3.5259609375 0.02224631259719475 0.9820647711997315
3.527109375 0.022333092036240707 0.9822406356655605
3.5282578125 0.02289018218495545 0.980644140815576
3.52940625 0.023994448083551757 0.9814351183686282
3.5305546875 0.023874366999836912 0.9813192559807986
3.531703125 0.024541992453273494 0.9818661241356057
3.5328515625 0.02583906627953616 0.9802883932867434
3.534 0.025660607575284013 0.9803226440059662
3.5351484375 0.026225926748836625 0.9814561358932086
3.536296875 0.027030596365390548 0.9819493504453266
3.5374453125 0.026683761895862388 0.9808203658134091
3.53859375 0.027144069064555194 0.9805480471422189
3.5397421875 0.028646417197050435 0.9803272051923425
3.540890625 0.027973944298029033 0.981807050123213
3.5420390625 0.028191489218059612 0.9820939372700127
3.5431875 0.027627599175858615 0.9812640662790115
3.5443359375 0.03012285262785941 0.98177983552742
3.545484375 0.029273703674939255 0.9818258914394695
3.5466328125 0.0293334622421113 0.9819962204071887
3.54778125 0.02999764101478635 0.9820161382649727
3.5489296875 0.030719980171049738 0.9816365174926382
3.550078125 0.031019651989799057 0.9813461516406853
3.5512265625 0.03184555727836036 0.9814472871167268
3.552375 0.03214321089084593 0.9816897413032332
3.5535234375 0.03261665063235161 0.9815465347831552
3.554671875 0.032602101618758136 0.9817965297246275
3.5558203125 0.033393497784611204 0.9817989555685109
3.55696875 0.033608393215706425 0.9817015053654499
3.5581171875 0.034893343785925734 0.9813940421335071
3.559265625 0.03574095345979693 0.9817051807364457
3.5604140625 0.03595049952311824 0.9820511899457549
3.5615625 0.03608090325229235 0.9817131001509485
3.5627109375 0.037028705231004516 0.9818285471191297
3.563859375 0.03752217391818327 0.9813762526321363
3.5650078125 0.03728231651580399 0.9809778843538342
3.56615625 0.038504415074105625 0.9812447521896028
3.5673046875 0.039235966226715296 0.982275153054986
3.568453125 0.038991154378285764 0.981727466489637
3.5696015625 0.03986655723100341 0.9810657595924058
3.57075 0.04058110163707185 0.9817578543065176
3.5718984375 0.040756519274293246 0.9823510405863978
3.573046875 0.04009450935166314 0.9820650637551565
3.5741953125 0.041040035469171954 0.9829958310596513
3.57534375 0.04100919067072237 0.9822641584747359
3.5764921875 0.042186103446065076 0.9829081414219374
3.577640625 0.04243003357661007 0.9823269344872745
3.5787890625 0.04246542556441374 0.9824155149488509
3.5799375 0.04326686152851156 0.9818821321386458
3.5810859375 0.04357179122357219 0.9825037224741819
3.582234375 0.04398981827717463 0.9828816593533934
3.5833828125 0.044160642312832454 0.9824371414892876
3.58453125 0.04506644632087592 0.9833678696740507
3.5856796875 0.04616295682686311 0.9830414544125624
3.586828125 0.04663518715182102 0.9826654663128899
3.5879765625 0.04619852813334774 0.983015737771242
3.589125 0.04689710408092207 0.9827194519952304
3.5902734375 0.046657991610313476 0.9831678776072859
3.591421875 0.046662498895704674 0.9825085852976732
3.5925703125 0.04839501104575428 0.983082096122308
3.59371875 0.048619496891100455 0.9829608389637277
3.5948671875 0.04919488524590543 0.982110851363695
3.596015625 0.04978100099232069 0.9823397810369708
3.5971640625 0.04987758504414841 0.9821947517684585
3.5983125 0.050509309684356685 0.9824440563159803
3.5994609375 0.050801625353338986 0.9815437907662826
3.600609375 0.051352656140788155 0.9826847991267718
3.6017578125 0.051663711096258336 0.9827681610616417
3.60290625 0.05156062416984791 0.9823439690380493
3.6040546875 0.052614014305414125 0.9822751660865937
3.605203125 0.0536372847033299 0.9819139001928385
3.6063515625 0.05442891426945351 0.9819125918522551
3.6075 0.05484221631092473 0.9814014515544482
3.6086484375 0.05507229390222795 0.9814325933485343
3.609796875 0.05525191458629558 0.9821905498141887
3.6109453125 0.05547043735189616 0.9809453675440291
3.61209375 0.05638202275283544 0.9813599213819938
3.6132421875 0.057016691969647815 0.9823861961118808
3.614390625 0.056932778439331144 0.9810311023898148
3.6155390625 0.057464162344255276 0.9817203858599985
3.6166875 0.05834912028049799 0.9819755043899269
3.6178359375 0.05846985635218138 0.9816384561486988
3.618984375 0.059416594333646544 0.9821706003798975
3.6201328125 0.06025539958549547 0.9818681625151726
3.62128125 0.060211929631405925 0.9817829484075338
3.6224296875 0.06000947294085146 0.9814662976411074
3.623578125 0.061153476137480345 0.9817117546199787
3.6247265625 0.06094246195495562 0.982238708537728
3.625875 0.06225886256761287 0.9815653950097547
3.6270234375 0.0620739815071048 0.9818061232804816
3.628171875 0.06249001512334351 0.9813628958700422
3.6293203125 0.06333530986596958 0.9808659055675807
3.63046875 0.06471190696669288 0.9822242635351759
3.6316171875 0.06518105643229655 0.9816161448102724
3.632765625 0.06499170994573 0.9820546095521875
3.6339140625 0.06558753841578147 0.9811455039248579
3.6350625 0.06626511780569844 0.9810434000951969
3.6362109375 0.06723959674690216 0.9816726631509599
3.637359375 0.06813872282164285 0.9811702771949266
3.6385078125 0.06944974861325764 0.9821727311497688
3.63965625 0.06949508498009693 0.9821429869100304
3.6408046875 0.06854964255508778 0.9815823086712528
3.641953125 0.07046604384222654 0.9818633374601087
3.6431015625 0.07084070271552254 0.9832994319618268
3.64425 0.07103436179145689 0.9840042343004842
3.6453984375 0.07211369051259939 0.9827732408348973
3.646546875 0.07264732380997274 0.9824714486431382
3.6476953125 0.07326626039168882 0.982780769620609
3.64884375 0.07332773619377744 0.9818930529407789
3.6499921875 0.07342738350908623 0.9817140292495314
3.651140625 0.0740089826336156 0.981848082706517
3.6522890625 0.07376835706492124 0.9809093066366747
3.6534375 0.0751201869914224 0.9824246684333093
3.6545859375 0.0747980055006855 0.9814009124333434
3.655734375 0.07460859647060844 0.9825587653683963
3.6568828125 0.07525084112341002 0.9814227140567326
3.65803125 0.07479611450851303 0.9816222355946961
3.6591796875 0.07541737850740285 0.9797616288506872
3.660328125 0.07606257421527127 0.980454835250415
3.6614765625 0.07729234477300692 0.9801910408380979
3.662625 0.07539439296688778 0.9802937371778212
3.6637734375 0.07570046185369637 0.9800736490895983
3.664921875 0.07637967282272194 0.980725670924831
3.6660703125 0.07655791940548859 0.9801214418624027
3.66721875 0.07635080915871484 0.9818610104519212
3.6683671875 0.07666316260044977 0.9798459061345466
3.669515625 0.07664903723754429 0.981164621173074
3.6706640625 0.07851018099821018 0.9792272405126637
3.6718125 0.07917577531590855 0.9803805581042735
3.6729609375 0.07872004035521224 0.9811166978871151
3.674109375 0.07914208867160481 0.9812411118911784
3.6752578125 0.07928172525149788 0.980744581875771
3.67640625 0.07982861463031246 0.9805999599113056
3.6775546875 0.07944377612019213 0.9807974001322562
3.678703125 0.08204601603213152 0.9814951608722366
3.6798515625 0.08143871516299828 0.9815194528822389
3.681 0.08112642931296225 0.981213749480017
3.6821484375 0.08241721816919256 0.9804987968388819
3.683296875 0.08254604958891003 0.9815899833972221
3.6844453125 0.08279878205536649 0.9811324843344007
3.68559375 0.08364726109825862 0.981069456175307
3.6867421875 0.08492366279423548 0.9810006201691646
3.687890625 0.0854784296444144 0.9819656426129264
3.6890390625 0.08587952355942481 0.9820810203049657
3.6901875 0.08592468009384693 0.9818359521157503
3.6913359375 0.08698712872885439 0.9820588460117726
3.692484375 0.08698990866094088 0.9817538927144708
3.6936328125 0.08783284731383638 0.9820047988140344
3.69478125 0.088190835209591 0.9830435845721681
3.6959296875 0.08889077944519506 0.9820202742576594
3.697078125 0.0896804468151085 0.9827500710902783
3.6982265625 0.09001113625482976 0.9822054235808184
3.699375 0.09024031464578441 0.9827206794669391
3.7005234375 0.09190982734250777 0.982559752044929
3.701671875 0.09158944835795223 0.9818421738643079
3.7028203125 0.09341716423527273 0.983334093535859
3.70396875 0.09410493455773417 0.9822955566570528
3.7051171875 0.09456404941487988 0.9821924889892826
3.706265625 0.09629087754222634 0.9824855180912409
3.7074140625 0.09618798611305275 0.9831268220097462
3.7085625 0.09810162683339148 0.9816896664830744
3.7097109375 0.09829293175011883 0.9824735536944444
3.710859375 0.09747204962834359 0.9818908628220083
3.7120078125 0.10059197060767452 0.9817625338268587
3.71315625 0.10060330579304078 0.9821049366760541
3.7143046875 0.10178920168641303 0.982823861847863
3.715453125 0.10117828633886625 0.9835392644822112
3.7166015625 0.10209582645959428 0.983075500443287
3.71775 0.10249467254882644 0.9836683279979086
3.7188984375 0.1023672791277155 0.9835522301452173
3.720046875 0.10332092429303658 0.9832512489844212
3.7211953125 0.10376203797312011 0.9842907516253406
3.72234375 0.10336337592577263 0.9836324687793112
3.7234921875 0.10517472071219423 0.9838772312193386
3.724640625 0.10643557062256641 0.9849189970502814
3.7257890625 0.1064638777362598 0.9846898534233586
3.7269375 0.10518671673812952 0.9849609686698864
3.7280859375 0.10617643330798093 0.9844140242280733
3.729234375 0.1070668468809988 0.9854886312316085
3.7303828125 0.10649700948443447 0.9850004045494045
3.73153125 0.10588385090615601 0.983309844740918
3.7326796875 0.10719568519628217 0.9818484054649274
3.733828125 0.10708054597609029 0.9832691287661388
3.7349765625 0.10775004439895519 0.9831727784367392
3.736125 0.10904512809697128 0.9827000044400457
3.7372734375 0.10838961184145152 0.9816214508454271
3.738421875 0.1088331970835495 0.9822539120702362
3.7395703125 0.10933241946906855 0.9823921052372078
3.74071875 0.10942397826091907 0.981962699756876
3.7418671875 0.11007358831502553 0.9820028776901806
3.743015625 0.11062489278737755 0.981779559065234
3.7441640625 0.1103899586835016 0.9824866337110245
3.7453125 0.11073771998926682 0.9819897329532613
3.7464609375 0.1099335990855356 0.9820248936426701
3.747609375 0.11092818246067901 0.982132842797375
3.7487578125 0.1125244531559742 0.9824593879672162
3.74990625 0.11284778523656258 0.9824507319586724
3.7510546875 0.1128942568236736 0.982281820226362
3.752203125 0.11296773099190605 0.9828392614291375
3.7533515625 0.11330861829759764 0.9823829361127017
3.7545 0.11360217881161178 0.9822400677382752
3.7556484375 0.11471156813330463 0.9824550620472702
3.756796875 0.11474874029982163 0.9821666084927806
3.7579453125 0.11479550760957774 0.9808503735477925
3.75909375 0.11461546530282157 0.981604926925723
3.7602421875 0.11617407051922829 0.9798211178720394
3.761390625 0.11661074478261951 0.9808085244809688
3.7625390625 0.1176544946452307 0.9797771082102884
3.7636875 0.11747783075015128 0.9797134997818543
3.7648359375 0.1179793697675322 0.978660965443023
3.765984375 0.11897200249078854 0.9790696796272089
3.7671328125 0.11922674034388475 0.9810215835364606
3.76828125 0.11837726511038227 0.9804997750198402
3.7694296875 0.11974907788064715 0.9795061557930247
3.770578125 0.12099773820976939 0.9785737912044963
3.7717265625 0.12122843833351615 0.9795527995176863
3.772875 0.1230499072807032 0.9785750823697551
3.7740234375 0.1223194863440451 0.9790431365049145
3.775171875 0.12268629380681073 0.979306926215542
3.7763203125 0.12371578171346226 0.9787947887016625
3.77746875 0.1254720689610898 0.9787577329187553
3.7786171875 0.1265413902785742 0.9790268740645965
3.779765625 0.12575266996084633 0.9797428428969128
3.7809140625 0.12647457279956198 0.9808273495726687
3.7820625 0.12823167646002337 0.9794151705135921
3.7832109375 0.12718114407059278 0.9805051773127038
3.784359375 0.12896535758987965 0.9794069802766838
3.7855078125 0.12981183379918348 0.9817006781520525
3.78665625 0.1305498619001258 0.9805542964651637
3.7878046875 0.13048987007440366 0.9809698317632466
3.788953125 0.13175624499912392 0.9808900225497977
3.7901015625 0.13134827652196435 0.9792577678882339
3.79125 0.13208456725858658 0.9816684751986908
3.7923984375 0.13256363056448317 0.9808176035182959
3.793546875 0.13368406074940697 0.9817394998440676
3.7946953125 0.13362108767155534 0.9816186720324105
3.79584375 0.13276911543946257 0.9804493338887708
3.7969921875 0.13439746922810625 0.982088618505315
3.798140625 0.1353361664681588 0.9822190874440857
3.7992890625 0.13595272048039464 0.9826879053777833
3.8004375 0.13581507891607875 0.9828155375421143
3.8015859375 0.137067428330219 0.9828221983987916
3.802734375 0.1372437565915567 0.9817345795062715
3.8038828125 0.1384706888794775 0.9816655350496835
3.80503125 0.13820574302357636 0.9811558249217656
3.8061796875 0.13889928249470485 0.9806625851296773
3.807328125 0.13805503321671755 0.9816316688084034
3.8084765625 0.1379109570054741 0.9804487361558105
3.809625 0.1392778326923093 0.9799818827877977
3.8107734375 0.14046735575226926 0.9796115380392274
3.811921875 0.14015279518566834 0.9810287023537034
3.8130703125 0.14126703487547165 0.9814717360673963
3.81421875 0.14195346613168452 0.9819370374065086
3.8153671875 0.14198024273406043 0.9807288529064829
3.816515625 0.14268400867517442 0.9808722401448663
3.8176640625 0.14294122075035337 0.9813426148459145
3.8188125 0.14284717860435875 0.981578088327882
3.8199609375 0.14346889134368146 0.9821466127511169
3.821109375 0.14446353764233957 0.9811645373932607
3.8222578125 0.14436648090257626 0.9809842311359154
3.82340625 0.14512855615867604 0.9816798282715009
3.8245546875 0.14573179302625916 0.9795463369659788
3.825703125 0.1455878927264647 0.9796773737056851
3.8268515625 0.1459747818971531 0.9791492642905393
3.828 0.146374186539874 0.9790371818292793
3.8291484375 0.1472619722004811 0.9793737754540764
3.830296875 0.14571578893908005 0.9793937559355745
3.8314453125 0.14748719340915725 0.9798080817131987
3.83259375 0.14683604094870842 0.9782165338510078
3.8337421875 0.14709980116568339 0.9776623426505407
3.834890625 0.1475716017816875 0.9787308864908187
3.8360390625 0.14809925421805822 0.9797603059531843
3.8371875 0.14888066078232082 0.979550327669563
3.8383359375 0.14922390131478294 0.978007128756422
3.839484375 0.14922069624869144 0.9770753433239895
3.8406328125 0.1503005788892206 0.9788705602844529
3.84178125 0.15192132676621317 0.9779424538345561
3.8429296875 0.15387534544249626 0.9771982038485055
3.844078125 0.15301639429266073 0.9783769095138308
3.8452265625 0.15395671537869998 0.9775970421503353
3.846375 0.15625302482687503 0.9779052538918961
3.8475234375 0.15618692529924105 0.9774460018696876
3.848671875 0.15690762649066178 0.9784193511989893
3.8498203125 0.1570346801893238 0.9774533709809003
3.85096875 0.15762144489617494 0.9777149291834779
3.8521171875 0.15896447785542445 0.9774755179621389
3.853265625 0.15984711653701933 0.9794497374321993
3.8544140625 0.16036288363641737 0.978410649609007
3.8555625 0.16222798897542146 0.9785987909312475
3.8567109375 0.16277415548448154 0.9779672843051914
3.857859375 0.16293112099212634 0.9764633260605775
3.8590078125 0.1625847303201834 0.9782435221896668
3.86015625 0.16349331679659196 0.9766182810166512
3.8613046875 0.16341540742914135 0.9769380898037808
3.862453125 0.16435636695658143 0.9781805829606522
3.8636015625 0.1636457874975858 0.977409950961442
3.86475 0.16389526391579362 0.9784472766212788
3.8658984375 0.16310441391110672 0.9800924755517542
3.867046875 0.16330799659371262 0.9803278128595307
3.8681953125 0.16382357588157195 0.9799618947745445
3.86934375 0.16590201138132843 0.9800221346167306
3.8704921875 0.164974716505633 0.9802341314087275
3.871640625 0.16466640406682467 0.9796458410565698
3.8727890625 0.1661994206955867 0.9778116873392708
3.8739375 0.16564795909701738 0.9780725561258119
3.8750859375 0.16740355877706253 0.9790502685608042
3.876234375 0.16742004918323708 0.9788681538568867
3.8773828125 0.16819389655333822 0.9787899826819307
3.87853125 0.16888689555821268 0.9790051113204886
3.8796796875 0.16929602746872363 0.978586877054388
3.880828125 0.16931619195016545 0.9776262346500367
3.8819765625 0.1709085846485034 0.9783373154308674
3.883125 0.17163227085748264 0.9783724698807816
3.8842734375 0.17150574092519177 0.9779446167624388
3.885421875 0.17162395571692013 0.9781228191497037
3.8865703125 0.17210476677169656 0.9774018326726208
3.88771875 0.17341132993233688 0.9784136137316775
3.8888671875 0.17367658602498404 0.9782446977948622
3.890015625 0.1734819003031556 0.9772781145001908
3.8911640625 0.17319164691131894 0.9766846829577249
3.8923125 0.17434243239892377 0.9774795925357467
3.8934609375 0.17354672773316562 0.9771807474159289
3.894609375 0.1735716737916669 0.9760936505957072
3.8957578125 0.17355280899401143 0.9771731751229095
3.89690625 0.17369833868677562 0.9767824369051263
3.8980546875 0.1764009083102862 0.9775613107099845
3.899203125 0.17590764055608316 0.9765983139255872
3.9003515625 0.17541781977948934 0.9773808074829564
3.9015 0.17744811988561077 0.977058011963578
3.9026484375 0.178182624350284 0.9768271577925627
3.903796875 0.17857623669867512 0.9766579273821541
3.9049453125 0.1790033201763668 0.9765924863093238
3.90609375 0.1795950406998425 0.9751859819156283
3.9072421875 0.18007164039201698 0.9751356378095372
3.908390625 0.18012260592770873 0.976252046231603
3.9095390625 0.179851103848452 0.975344192301991
3.9106875 0.1796074422029912 0.9759369315188854
3.9118359375 0.1814747397540561 0.9749010560004491
3.912984375 0.18202912376442368 0.9735174933603601
3.9141328125 0.1809034818295573 0.9741698778553294
3.91528125 0.18421952514745066 0.9742674475664189
3.9164296875 0.18475769622453508 0.9732629224607456
3.917578125 0.1849815546896269 0.9746462888968337
3.9187265625 0.18626356008373862 0.9753375751346036
3.919875 0.18676803493616692 0.9740341394954382
3.9210234375 0.18851787795919409 0.9734898462260615
3.922171875 0.188686704744834 0.9734723737467714
3.9233203125 0.1900506966270376 0.9739225604773246
3.92446875 0.190245906632398 0.9739818467435606
3.9256171875 0.19194731131027973 0.9749357612869958
3.926765625 0.19201856260320427 0.9751097476453269
3.9279140625 0.1926735350600508 0.974333482838581
3.9290625 0.19430629867373916 0.9744563018432171
3.9302109375 0.19408393874661542 0.9760977264021473
3.931359375 0.19477611609875323 0.9736455384058447
3.9325078125 0.1948263047854755 0.9766779590163054
3.93365625 0.19607094705298744 0.9754095039596904
3.9348046875 0.19507942404938686 0.9764255367247932
3.935953125 0.19704767591326594 0.976348865580157
3.9371015625 0.19815246262017178 0.9767913668344346
3.93825 0.19610681951843775 0.9768729713019294
3.9393984375 0.19899125955433622 0.9757190648922038
3.940546875 0.19915619048424144 0.9754872324510512
3.9416953125 0.19959980459029933 0.9759309910333243
3.94284375 0.2009124975795737 0.9768279799201368
3.9439921875 0.20033965284884797 0.976286401871596
3.945140625 0.2010843677789354 0.9765751957840828
3.9462890625 0.20105882545385725 0.9766711459043247
3.9474375 0.201642909565448 0.9768443853436083
3.9485859375 0.20138741382467917 0.9780671349097381
3.949734375 0.20308241124943466 0.9776977637882932
3.9508828125 0.20338027598499098 0.9770345692079208
3.95203125 0.20338267785606745 0.9760971414235787
3.9531796875 0.20364839205203195 0.977334627658214
3.954328125 0.20452985285064623 0.9773570269066747
3.9554765625 0.20587693508621216 0.9772977720201814
3.956625 0.2060991159803104 0.9772954961308179
3.9577734375 0.20694449823964622 0.9775845243909996
3.958921875 0.20727223683964047 0.9776113509351677
3.9600703125 0.20741517194976639 0.9771706676263328
3.96121875 0.20834251594625502 0.9777768860939695
3.9623671875 0.2080412445439986 0.97711017263008
3.963515625 0.20867873741217627 0.9762588417067177
3.9646640625 0.21061108293500114 0.977234092415725
3.9658125 0.20937506773530665 0.977034695723203
3.9669609375 0.2095460171761035 0.9778755903135277
3.968109375 0.21060453701404735 0.978239719768476
3.9692578125 0.21092547483522822 0.9781324957773703
3.97040625 0.21003870935837335 0.9787506100390582
3.9715546875 0.2118323044582944 0.9787804529695776
3.972703125 0.21299201886605582 0.9791493656158861
3.9738515625 0.21158931533583342 0.9784953886061318
3.975 0.21273260208719857 0.9784208066114298
3.9761484375 0.2127246235786839 0.9769739859241378
3.977296875 0.21542422641610132 0.9777473911236372
3.9784453125 0.213875415601801 0.9774744410043399
3.97959375 0.21715237180384114 0.9760300500082066
3.9807421875 0.21659210315323643 0.9760965691510141
3.981890625 0.21667022476721917 0.9749242163626206
3.9830390625 0.21714635953129707 0.9746392647296338
3.9841875 0.21950639936501368 0.9765765715401504
3.9853359375 0.21895787847557135 0.9739898502375486
3.986484375 0.22105122405640384 0.973541081849735
3.9876328125 0.2218114849033216 0.9731060531447593
3.98878125 0.22096490801394067 0.9736136718501534
3.9899296875 0.2202160346491375 0.972159540302221
3.991078125 0.22267056547064562 0.973422981365321
3.9922265625 0.22262242834258128 0.9742798062560416
3.993375 0.22444258159579716 0.9728722874904846
3.9945234375 0.22419981171265363 0.9704889232910309
3.995671875 0.22183045741905127 0.9719726310564938
3.9968203125 0.22453634408403417 0.9736428272817914
3.99796875 0.22553276419513635 0.9716346755333201
3.9991171875 0.22868867403963664 0.9725079201581142
4.000265625 0.22758240970891785 0.9733278828252212
4.0014140625 0.22607477888991762 0.9718520478113644
4.0025625 0.22725081858758717 0.9719213987231543
4.0037109375 0.2272261139445215 0.9712657364400231
4.004859375 0.22829227770093374 0.97139732802992
4.0060078125 0.2306759917171425 0.971949141426981
4.00715625 0.2312107243382175 0.973232418538206
4.0083046875 0.23162470597844123 0.972305743798713
4.009453125 0.23242569671191898 0.971103475806778
4.0106015625 0.23237540248082086 0.9715935776055906
4.01175 0.23236471170493694 0.9713447080376654
4.0128984375 0.23232676748692563 0.9716907066519238
4.014046875 0.23424167195420806 0.9699494221441529
4.0151953125 0.2343485421365501 0.9701235856567818
4.01634375 0.2335281099514388 0.9700554941856769
4.0174921875 0.23544094028320273 0.970255592048336
4.018640625 0.2354511281738793 0.9700580324635302
4.0197890625 0.23665694027267015 0.9683551880412007
4.0209375 0.23796428881715237 0.9692666108776099
4.0220859375 0.23739680245477485 0.9679620358882723
4.023234375 0.23696564243840554 0.9662286720736376
4.0243828125 0.23853940695296183 0.9677569239287761
4.02553125 0.24018639535142972 0.9678242456396395
4.0266796875 0.23981004040075868 0.9689671219587119
4.027828125 0.24113869514088287 0.9683394472316598
4.0289765625 0.2411177383165236 0.9675739165057944
4.030125 0.2415053216172003 0.9685758472114749
4.0312734375 0.241721279290759 0.9675230123892299
4.032421875 0.24240798092216553 0.9673963323220809
4.0335703125 0.2425193321402076 0.9673969417728914
4.03471875 0.24363411778148164 0.9674855632240205
4.0358671875 0.24491960919134292 0.9681264622719606
4.037015625 0.24421567791061116 0.9691787600769685
4.0381640625 0.24409735269221378 0.9699526872658182
4.0393125 0.24556868346100535 0.9691801408450031
4.0404609375 0.2466940924681747 0.9678342809561675
4.041609375 0.24605760116568084 0.9674556809451179
4.0427578125 0.2470407579122443 0.9686498105985214
4.04390625 0.24724176749127466 0.9677827929391092
4.0450546875 0.2471358472257595 0.9674122744186149
4.046203125 0.24743038436845108 0.96692823250964
4.0473515625 0.24767057870040404 0.9657482165149673
4.0485 0.24776158321534894 0.9661254865188604
4.0496484375 0.2494783058057962 0.9651819651107665
4.050796875 0.24905223751418298 0.9644394753257226
4.0519453125 0.25020406020797964 0.9657733303175953
4.05309375 0.2499660963082692 0.9638273766496318
4.0542421875 0.2510579072425547 0.9642362663766215
4.055390625 0.25261922810781234 0.963648120243621
4.0565390625 0.25314726179357233 0.9629740605054384
4.0576875 0.25203463490261324 0.9621186357595073
4.0588359375 0.25238335408351037 0.9621148340100181
4.059984375 0.25227541379237245 0.962114546941106
4.0611328125 0.2536969745666591 0.9623529306681876
4.06228125 0.2564420031228947 0.9627507474682327
4.0634296875 0.2573798794459308 0.9625655546515542
4.064578125 0.25682350124120695 0.9620157692690207
4.0657265625 0.2573897490892393 0.9619978882138631
4.066875 0.2593287407703666 0.9618178398624895
4.0680234375 0.25906514978426187 0.9607066979391377
4.069171875 0.2607935604452546 0.9610772197153001
4.0703203125 0.26089511913165425 0.9612703816915954
4.07146875 0.26032505234076153 0.9615397994539892
4.0726171875 0.26187899366331896 0.961437296241896
4.073765625 0.26223643539449876 0.9605636330177619
4.0749140625 0.26238004609587534 0.9604433888842435
4.0760625 0.2625421866216967 0.9597779145200971
4.0772109375 0.2627409292082157 0.9597119676249959
4.078359375 0.26475809368927655 0.961106797130051
4.0795078125 0.26385599198997395 0.9609293970071278
4.08065625 0.26477768951497016 0.9605860348775217
4.0818046875 0.2670039671585146 0.9601758495639233
4.082953125 0.2651736362621202 0.9590648461546301
4.0841015625 0.2669969580965825 0.9582840810603888
4.08525 0.26740719631442433 0.9589291096223814
4.0863984375 0.26769857013556697 0.9589424592591042
4.087546875 0.2683251976559706 0.9587474358420041
4.0886953125 0.2683871276712444 0.9586233766419062
4.08984375 0.270785826606998 0.958948971498
4.0909921875 0.27140412492232746 0.9570387584560953
4.092140625 0.26991509633596267 0.9579501963533482
4.0932890625 0.27220654515844556 0.957297047512906
4.0944375 0.27147350296139616 0.9569231503311888
4.0955859375 0.27216320720055875 0.9568867574933309
4.096734375 0.2719288163484226 0.9576985588287755
4.0978828125 0.27374770188339437 0.9580300169372385
4.09903125 0.2746766901298624 0.9569060970957525
4.1001796875 0.2752661990262568 0.9557824771753682
4.101328125 0.27531646038982877 0.9570045622112336
4.1024765625 0.27555183278759404 0.9565948333998676
4.103625 0.2758880613566187 0.9565768148361489
4.1047734375 0.2775035546525058 0.9571272058589565
4.105921875 0.2769009954001126 0.9575374819163273
4.1070703125 0.2779467914970567 0.9573718865776261
4.10821875 0.2777742425395877 0.9577508760726676
4.1093671875 0.27872044682304725 0.9586146094089727
4.110515625 0.27870781008964457 0.9561806554181951
4.1116640625 0.2789063955481964 0.9570185173112933
4.1128125 0.27802603780952706 0.956962630706091
4.1139609375 0.27832530931486366 0.95658827989385
4.115109375 0.28073791993548103 0.9568877325307626
4.1162578125 0.28004326740349056 0.9561954068133722
4.11740625 0.2811824718724974 0.9551336362115819
4.1185546875 0.28086604226492773 0.9552833593341103
4.119703125 0.2827385184492628 0.9559139115040529
4.1208515625 0.28164354665245106 0.9549533247039821
4.122 0.28155216833887536 0.955190570411815
4.1231484375 0.2831868307289506 0.9556672458446586
4.124296875 0.2837541911522772 0.9544328994962246
4.1254453125 0.2849282406896214 0.955489204564931
4.12659375 0.2857505555708926 0.9546326827296464
4.1277421875 0.2873267948622332 0.9539794413408036
4.128890625 0.28757333817244385 0.9540336425278398
4.1300390625 0.28536455232245533 0.9524949317428991
4.1311875 0.28733689807922164 0.9533476929787364
4.1323359375 0.2866525338520663 0.9528572955375451
4.133484375 0.2872186388898146 0.9537528216369251
4.1346328125 0.28866486312902856 0.9541524672877684
4.13578125 0.28873653571847935 0.952914337309439
4.1369296875 0.28852606584810664 0.952984708904223
4.138078125 0.2903072335462494 0.9534764257309489
4.1392265625 0.29056738309175345 0.9533528448444181
4.140375 0.2914285284743832 0.9526925130825662
4.1415234375 0.2910804283832344 0.9524753311485274
4.142671875 0.2915193034291493 0.9541947440216411
4.1438203125 0.29326226607092765 0.9537809339830108
4.14496875 0.2929306236190776 0.9535895220248317
4.1461171875 0.2932680497071726 0.9532468252137063
4.147265625 0.2940047413508641 0.9524787482908346
4.1484140625 0.2939077320476679 0.9536411625377577
4.1495625 0.29456458309824485 0.9531045117299811
4.1507109375 0.29556441027352437 0.9530759061276886
4.151859375 0.2950573241579787 0.9531244652088152
4.1530078125 0.2960202418559819 0.95208061497219
4.15415625 0.2966875910882295 0.953121492060923
4.1553046875 0.29606287672606235 0.953500014357611
4.156453125 0.29804969174366003 0.9518771098980797
4.1576015625 0.2994405131842217 0.9531545673802282
4.15875 0.29913037037428086 0.9530272984031949
4.1598984375 0.3002700655213023 0.9521021101293909
4.161046875 0.302112625772614 0.9523505843525808
4.1621953125 0.3018555299754353 0.9526178649910759
4.16334375 0.30236836104050197 0.9524801570154432
4.1644921875 0.3030386426429412 0.9512387129653292
4.165640625 0.3031923088722217 0.9516538094033884
4.1667890625 0.30198995506395465 0.9520876916066374
4.1679375 0.30355597334395457 0.9509626706030849
4.1690859375 0.30738069901603204 0.9523759163120941
4.170234375 0.3058236719574966 0.952346678020003
4.1713828125 0.30695161639989876 0.9505045882366416
4.17253125 0.30220655894320747 0.9488303501874935
4.1736796875 0.30689391921830367 0.9508366873066738
4.174828125 0.3064337239822986 0.9514094909452002
4.1759765625 0.3062233204775572 0.9504790371554241
4.177125 0.3079170762188489 0.94920799701486
4.1782734375 0.30664688287959685 0.9498647109667274
4.179421875 0.3096021023254073 0.9530617053877997
4.1805703125 0.3102612322747186 0.9504896807671392
4.18171875 0.3100572933517602 0.9480859980456567
4.1828671875 0.30823419884075787 0.9497586160767557
4.184015625 0.3069987893820889 0.949011867348033
4.1851640625 0.3104326399480086 0.9491478256139945
4.1863125 0.3113230136194629 0.9473904624976961
4.1874609375 0.3119088261871721 0.9473202950096633
4.188609375 0.31090692885763266 0.9472371873073122
4.1897578125 0.31142621156407263 0.945502145162038
4.19090625 0.3128602953564624 0.9470068553976306
4.1920546875 0.31299807522070483 0.9469644638524919
4.193203125 0.3137384704496177 0.9470583927192725
4.1943515625 0.3166434215689551 0.9470005888444889
4.1955 0.31834428078533494 0.9471165647230919
4.1966484375 0.3175529385609125 0.9481675792024107
4.197796875 0.318954365561054 0.9461023745494982
4.1989453125 0.3185708285765351 0.947308356778759
4.20009375 0.3195164889574227 0.9473624280460604
4.2012421875 0.3208352046004806 0.9463363903034092
4.202390625 0.3213954130356842 0.9470897395811606
4.2035390625 0.3219835793994532 0.9464906182022753
4.2046875 0.322563932657307 0.9454022410716502
4.2058359375 0.32451500159536867 0.9452015227955542
4.206984375 0.3251470797089034 0.9434131256406704
4.2081328125 0.3239213217655699 0.9434841230562396
4.20928125 0.32211054739453227 0.9443995143368518
4.2104296875 0.3238270112950394 0.9454494517893905
4.211578125 0.3248010033050828 0.9445266934388697
4.2127265625 0.3255918185285434 0.9431636592195336
4.213875 0.32591605108391175 0.9447037870904988
4.2150234375 0.32561301784963087 0.9450463338965687
4.216171875 0.32661940503235265 0.9436541554900204
4.2173203125 0.3293463603219336 0.9441354575950239
4.21846875 0.32734888724084604 0.9439919422909431
4.2196171875 0.32899533617513116 0.9426073185781829
4.220765625 0.3335464991358723 0.9422855426459158
4.2219140625 0.3304414747101395 0.9429653818675243
4.2230625 0.3286958458590417 0.9427489900728391
4.2242109375 0.3304029926310113 0.9426166275053645
4.225359375 0.3325457894332726 0.941753649664328
4.2265078125 0.33474357231689084 0.9423150013013152
4.22765625 0.33444757128050084 0.9411422929133029
4.2288046875 0.333654942963725 0.9414869762808206
4.229953125 0.33262610487232136 0.9416107211891569
4.2311015625 0.3324747994179633 0.9411274295860489
4.23225 0.33507219132024585 0.9406183725044145
4.2333984375 0.3354187582392025 0.9399052857719362
4.234546875 0.33528306829730037 0.9393691931355207
4.2356953125 0.33782520617581596 0.9397845226060133
4.23684375 0.3378218140832073 0.9397218420051712
4.2379921875 0.33769402410631955 0.9393419776337014
4.239140625 0.3381969007701485 0.9382937454773367
4.2402890625 0.33861610641218093 0.9385734908678082
4.2414375 0.33904480675605014 0.9390514370614568
4.2425859375 0.3395455277911063 0.9387581753644705
4.243734375 0.3392939195073052 0.9380751759592574
4.2448828125 0.3385672959687196 0.9379972596450397
4.24603125 0.3390142195632343 0.9386076646258429
4.2471796875 0.33968955645800125 0.938226322000229
4.248328125 0.33983144940592847 0.9380558164309111
4.2494765625 0.341197604780634 0.9388586656380237
4.250625 0.34216028123796977 0.9380948750728049
4.2517734375 0.34383277560799647 0.9385112237235667
4.252921875 0.34390528469664455 0.9380167647464852
4.2540703125 0.3431173805437087 0.9377957414945126
4.25521875 0.34435989667884126 0.9378317019312553
4.2563671875 0.3443389560822009 0.93583954205745
4.257515625 0.34450009130025344 0.9373761789919993
4.2586640625 0.3469828289204848 0.9361804846673963
4.2598125 0.3464474992697897 0.9365728876654548
4.2609609375 0.3452467720296423 0.9371345663971067
4.262109375 0.34727946548093136 0.9359010164888545
4.2632578125 0.3477340111640507 0.9356807505329753
4.26440625 0.3475389940188107 0.9357538121766482
4.2655546875 0.34840377939487777 0.935767683483209
4.266703125 0.34860987238819785 0.935662443559403
4.2678515625 0.34841243207928546 0.9362946242714222
4.269 0.35107486244912667 0.9355243791513089
4.2701484375 0.3512793059074648 0.9345401911143901
4.271296875 0.3502875443381238 0.933915036534424
4.2724453125 0.35165292130128 0.9339535470594343
4.27359375 0.35174916566513376 0.9345790705365894
4.2747421875 0.35150217791038496 0.9348928872665225
4.275890625 0.35454098221774877 0.9335436730853829
4.2770390625 0.35682564505464365 0.9334685051867001
4.2781875 0.35548374046486064 0.9332088771453221
4.2793359375 0.35570593967608943 0.9332027767594694
4.280484375 0.356237043318624 0.9330718871616294
4.2816328125 0.3571292551648548 0.9328079564175126
4.28278125 0.35903051208117515 0.9327143609975197
4.2839296875 0.3591891575259464 0.9325785026885431
4.285078125 0.3602727280000927 0.9323784994225892
4.2862265625 0.36020931783122145 0.9325258094470291
4.287375 0.3620373053429614 0.9309536756191631
4.2885234375 0.362443687821137 0.9301679401435213
4.289671875 0.3631269521798369 0.9309162002447406
4.2908203125 0.36252135979843886 0.9306547523006997
4.29196875 0.36218809469893204 0.9305821416693087
4.2931171875 0.3623893822480224 0.9310789959745602
4.294265625 0.3643760378677839 0.9299585013307831
4.2954140625 0.36356477921686176 0.929800913583307
4.2965625 0.3630948033733973 0.9297698537444399
4.2977109375 0.3650687874745091 0.9299593805497043
4.298859375 0.36484551466615966 0.9291763934319608
4.3000078125 0.36475564623124235 0.9286749761283373
4.30115625 0.36528189102973013 0.9279188911478428
4.3023046875 0.36610611367370327 0.9278654094878761
4.303453125 0.36499228608955137 0.9263794814069147
4.3046015625 0.365361250523823 0.9271120498236443
4.30575 0.3679779718605355 0.9279078376821606
4.3068984375 0.3659256596680595 0.9267783031315717
4.308046875 0.3686662648839162 0.9275511815362206
4.3091953125 0.36893780850834357 0.9268627726236094
4.31034375 0.3694108074277159 0.9254540373773832
4.3114921875 0.37063583441003833 0.9258001716398715
4.312640625 0.3703248201092397 0.926591532866882
4.3137890625 0.3688557954552404 0.927312856647921
4.3149375 0.3733322290516353 0.9271976115634348
4.3160859375 0.3739179101005356 0.9268943610069578
4.317234375 0.3729945471213033 0.9269274360527096
4.3183828125 0.37655247015161153 0.9270060797054409
4.31953125 0.37362841593088914 0.9270198847642511
4.3206796875 0.37475683019086414 0.9273362058772168
4.321828125 0.37652591243293815 0.9265791370284611
4.3229765625 0.3749222745748792 0.9246717827112481
4.324125 0.37707674805650765 0.9259996207836262
4.3252734375 0.37839808978857115 0.9262468846678608
4.326421875 0.37522393474127935 0.9264738916581882
4.3275703125 0.3759817136929173 0.9270053788678017
4.32871875 0.37758795092248937 0.9247170304945005
4.3298671875 0.3763968069302679 0.9253421220214163
4.331015625 0.37692420481987865 0.9244134407750221
4.3321640625 0.3773591722165115 0.9242752859991489
4.3333125 0.3779455767915474 0.9246198262595143
4.3344609375 0.3797473748346734 0.9242036764355622
4.335609375 0.38088574851321144 0.92330252332346
4.3367578125 0.37942110076204333 0.9239325261909273
4.33790625 0.38162929069198115 0.9232347024431294
4.3390546875 0.38314509738027897 0.9227924406062247
4.340203125 0.38187418672575363 0.9227542197552159
4.3413515625 0.3832940034179406 0.9220055997008764
4.3425 0.38443312824221715 0.9226333567398648
4.3436484375 0.3836254921058787 0.9225020810074509
4.344796875 0.3849462557295363 0.920791025561362
4.3459453125 0.3870461170389593 0.9219184360692051
4.34709375 0.3858135958648618 0.9214440504117144
4.3482421875 0.38681810852688364 0.9199122781436658
4.349390625 0.3874090595303118 0.9206836621594507
4.3505390625 0.38627856257154874 0.9205563590096473
4.3516875 0.38813293212285616 0.9210635965005664
4.3528359375 0.3893088921721208 0.921230541431086
4.353984375 0.38952961636878897 0.9199862172467412
4.3551328125 0.39004684601865774 0.9195922932288164
4.35628125 0.39117446490957275 0.9187186517937158
4.3574296875 0.39038304778690386 0.918800865125025
4.358578125 0.39070076948768345 0.9187276180380204
4.3597265625 0.391549413799783 0.9189275051350161
4.360875 0.3909980758658718 0.918334174486482
4.3620234375 0.3922194440694682 0.9181167287708272
4.363171875 0.3939688281473632 0.9187360051608896
4.3643203125 0.39244336356554255 0.9190459921175786
4.36546875 0.3936020201758932 0.9191559624450478
4.3666171875 0.3941746949783548 0.9188435864744207
4.367765625 0.3932385367285338 0.9179016812740086
4.3689140625 0.3958743884767997 0.9183883513132729
4.3700625 0.3969433579033135 0.918721760462044
4.3712109375 0.3955857697046287 0.9173507972892309
4.372359375 0.3977957237680802 0.9172197325560986
4.3735078125 0.3990908032554271 0.9169175961346921
4.37465625 0.39707320161607573 0.9156433739171143
4.3758046875 0.40076065771399094 0.9182236710795663
4.376953125 0.40091283509181375 0.9164251499017082
4.3781015625 0.3993710580089917 0.91670620558671
4.37925 0.4017426853533821 0.9153866453691141
4.3803984375 0.4035775412785765 0.9159591965158361
4.381546875 0.40341563008715486 0.914961143766363
4.3826953125 0.40442397844327005 0.9155662918910031
4.38384375 0.4041188283304779 0.9151584416937069
4.3849921875 0.40259350568157815 0.9142795687623753
4.386140625 0.4040534462090062 0.9149821237347929
4.3872890625 0.40513683034926373 0.9142518349684499
4.3884375 0.4037685465621844 0.9138583223999037
4.3895859375 0.4053520956283863 0.9134253503451354
4.390734375 0.4068549459526774 0.9131782070955734
4.3918828125 0.4074004981117887 0.9137431485897468
4.39303125 0.4077323935182777 0.9135500117000743
4.3941796875 0.4086690022570588 0.9123830725195631
4.395328125 0.4076876878474539 0.9122884809327587
4.3964765625 0.4096417924164688 0.9121940268420801
4.397625 0.4104130999227407 0.9108952603655053
4.3987734375 0.40974923627882415 0.9122550238309359
4.399921875 0.41048298040252346 0.9116168324547649
4.4010703125 0.41170208517741597 0.9116258911883619
4.40221875 0.4098209752151002 0.9107269383800344
4.4033671875 0.41179741459456204 0.9108690055421849
4.404515625 0.4131128592754162 0.9097228571436718
4.4056640625 0.4134881998297142 0.9091338074239362
4.4068125 0.41258706880124385 0.9093894488300172
4.4079609375 0.41438619012062355 0.9087197814650747
4.409109375 0.41478782012209514 0.9089066168244977
4.4102578125 0.41480389539187495 0.9091280750696127
4.41140625 0.41649041927100183 0.9084220609778859
4.4125546875 0.4157119237870145 0.9081695628807955
4.413703125 0.4161182240262462 0.9081855785344254
4.4148515625 0.41839837781415334 0.9075399920852109
4.416 0.41848084607722036 0.9074819309475917
4.4171484375 0.41945978339061624 0.9071039993637352
4.418296875 0.4199733600504707 0.9061199099257282
4.4194453125 0.41950577370998726 0.9060739845208792
4.42059375 0.4200120589095325 0.9066865563342328
4.4217421875 0.42046877027266594 0.9058859499659406
4.422890625 0.42063003334867205 0.9050366579052576
4.4240390625 0.42097562788855597 0.9052278603150944
4.4251875 0.42143836176605365 0.9052133560800787
4.4263359375 0.4221583886134247 0.9045663045603868
4.427484375 0.4221995848193775 0.9036221294939006
4.4286328125 0.42240746408784463 0.9037724402160102
4.42978125 0.4228383867921467 0.9033824447995807
4.4309296875 0.42384882933116774 0.9041561501253255
4.432078125 0.4252188963249593 0.9037067930726639
4.4332265625 0.4246641302199515 0.9033951059649211
4.434375 0.42503771771008403 0.9035634854324567
4.4355234375 0.4256131854204298 0.9038353629061534
4.436671875 0.42522152861302387 0.903838606386532
4.4378203125 0.4283743137948732 0.9030872578028412
4.43896875 0.4285837494756033 0.9024625595043962
4.4401171875 0.4275372278763489 0.9013116403940649
4.441265625 0.4294896811428296 0.9013473576420674
4.4424140625 0.4303225009902655 0.9013059647316435
4.4435625 0.430723398746672 0.901309048954865
4.4447109375 0.4326022727865749 0.9019729346913573
4.445859375 0.43166582745419424 0.9015525577865192
4.4470078125 0.43097179915543604 0.9017166344970161
4.44815625 0.43384598905665805 0.8999639214365797
4.4493046875 0.43337643544216725 0.9000395943255401
4.450453125 0.4336246233899549 0.8989270513093178
4.4516015625 0.43463886518318917 0.8987981411241225
4.45275 0.4352084887656613 0.8997416196175771
4.4538984375 0.43446225889198165 0.8979484348672194
4.455046875 0.43631615048875805 0.8984249471872212
4.4561953125 0.4369471111335795 0.896765600047981
4.45734375 0.43737573899713056 0.8975519380547519
4.4584921875 0.4377696343538273 0.8968368414619727
4.459640625 0.43810249980426497 0.8969336975065498
4.4607890625 0.43833686366461955 0.8968701693774538
4.4619375 0.439249902093617 0.8966117776886671
4.4630859375 0.4399919279501569 0.8965409644023029
4.464234375 0.4397315049792267 0.8973080121368956
4.4653828125 0.44013329337234575 0.8968313951092065
4.46653125 0.4413218846428783 0.8963328648109902
4.4676796875 0.4408406162875226 0.8970573234767639
4.468828125 0.44262819859439795 0.8954337536888862
4.4699765625 0.4429015773500814 0.8945470296936868
4.471125 0.4413784696751223 0.8940815810314342
4.4722734375 0.4419404051635117 0.8929090460105036
4.473421875 0.44312756066926406 0.8934381725630698
4.4745703125 0.44467928448011873 0.8924039425538364
4.47571875 0.4451063183069952 0.8919924663303025
4.4768671875 0.4459787288517765 0.892286704840693
4.478015625 0.4465119241338432 0.8920286175069556
4.4791640625 0.44691756429246265 0.891362432035548
4.4803125 0.44722929835794073 0.8914421581352036
4.4814609375 0.4476141098125448 0.8908115176973859
4.482609375 0.4479250643529576 0.8908115701918692
4.4837578125 0.4490214184638263 0.890262113670453
4.48490625 0.4498108401632549 0.8899290250367614
4.4860546875 0.45038328741925354 0.8898525167750226
4.487203125 0.45030692471498057 0.8900934599269464
4.4883515625 0.45168270075755634 0.8893934105456964
4.4895 0.4524378705888916 0.8888917003279062
4.4906484375 0.4526445826090151 0.8888961831556365
4.491796875 0.4526138986934551 0.8881373847511237
4.4929453125 0.4535791162405929 0.8887920536549749
4.49409375 0.45444400666051493 0.8877128940661971
4.4952421875 0.4539337697472466 0.8872292113832653
4.496390625 0.4548983470626624 0.8864714609816813
4.4975390625 0.4545247979630931 0.8857792602421025
4.4986875 0.45576887324237775 0.885837409245362
4.4998359375 0.4561934017728639 0.8859716615180344
4.500984375 0.4558802469341355 0.8856413052820722
4.5021328125 0.4559313821340303 0.8850281612824064
4.50328125 0.45679735734614657 0.8856604451058306
4.5044296875 0.45671159313244325 0.886038011712976
4.505578125 0.45586831397390615 0.8856103192205349
4.5067265625 0.4579932482146435 0.8861101794318212
4.507875 0.45780966802575135 0.8848973251194334
4.5090234375 0.4598889422204615 0.8856320645828599
4.510171875 0.45901696271601283 0.8852836068481167
4.5113203125 0.4605977405140339 0.8842067486374423
4.51246875 0.4602406926374175 0.8853553552626019
4.5136171875 0.46026005450982854 0.8830711825696398
4.514765625 0.4612625990955522 0.88432319483113
4.5159140625 0.46027731880947065 0.8835435962451024
4.5170625 0.46222244963353953 0.8821299858160461
4.5182109375 0.4637360269973928 0.8832848458806237
4.519359375 0.46358927368158714 0.8828261767447861
4.5205078125 0.46331732350561483 0.8818982762444212
4.52165625 0.46496723646755767 0.8816515660004922
4.5228046875 0.4652215785453455 0.8809865862646971
4.523953125 0.4651217821169772 0.8811862969832293
4.5251015625 0.4664476271664088 0.8801716860544806
4.52625 0.4659816111323212 0.8812017113280202
4.5273984375 0.46620146273831164 0.8804239187806941
4.528546875 0.46730586414084807 0.87977019948691
4.5296953125 0.4673070453412623 0.8805302488285395
4.53084375 0.4683057603689679 0.8796108008713324
4.5319921875 0.46798444243256654 0.8795704302739574
4.533140625 0.4681336788814624 0.8797588560238341
4.5342890625 0.46904130381688514 0.8791832164944622
4.5354375 0.4693893700002998 0.8795071672338934
4.5365859375 0.47020200668232076 0.8796189100991292
4.537734375 0.4711601316862447 0.8780493046564836
4.5388828125 0.47107725619852375 0.8775593805972823
4.54003125 0.47217255550066717 0.8768984453815876
4.5411796875 0.47263461250287897 0.8766951784485436
4.542328125 0.47265156180953366 0.877648323401777
4.5434765625 0.4725924003379538 0.8778833240354887
4.544625 0.47365963372933817 0.877182026568703
4.5457734375 0.4739473365761362 0.8764970256504656
4.546921875 0.47457015078770587 0.8763892454179271
4.5480703125 0.47658615156523176 0.8764036570130158
4.54921875 0.4773093704081416 0.8764259905514122
4.5503671875 0.47625814690990614 0.8757654302024864
4.551515625 0.477642259242315 0.8751364690901821
4.5526640625 0.47877119112635286 0.8739233199333287
4.5538125 0.4781180673276961 0.8739306627556623
4.5549609375 0.47948572474754114 0.8735734577160781
4.556109375 0.4807272625648475 0.8726884396236547
4.5572578125 0.4808477015771082 0.8726070638217184
4.55840625 0.48132108947040214 0.8730879831798646
4.5595546875 0.4828048293110471 0.8727782412799688
4.560703125 0.48216639606418077 0.8721272793483464
4.5618515625 0.4825889180264892 0.8715650060475183
4.563 0.4842007475574996 0.871115621345431
4.5641484375 0.48353450470572296 0.8708473116998104
4.565296875 0.48474554972952266 0.8712693235489326
4.5664453125 0.48503063160090665 0.870805731834983
4.56759375 0.48564516570955085 0.8710354177634169
4.5687421875 0.4859309925952568 0.8705659088979306
4.569890625 0.48628707220814077 0.8704524682264145
4.5710390625 0.4885062140117561 0.8695028672500715
4.5721875 0.4871526322525771 0.8697067154002904
4.5733359375 0.486780306260103 0.8702910472407126
4.574484375 0.48827823628329037 0.8712615464821004
4.5756328125 0.4893173030030119 0.8701996990330205
4.57678125 0.48953789789113333 0.8696991653954014
4.5779296875 0.48965619939233396 0.8693326326387014
4.579078125 0.48863143825876554 0.8684269975782217
4.5802265625 0.4896647438899782 0.868132989763578
4.581375 0.4908914597612686 0.8681240174014195
4.5825234375 0.49006206587585166 0.8678266640278738
4.583671875 0.49122652035615266 0.867666926791061
4.5848203125 0.491454280364762 0.8667391750499985
4.58596875 0.4914099098890345 0.8665625477790546
4.5871171875 0.49163480298510964 0.8655172118770682
4.588265625 0.49194305174158337 0.8660436913837106
4.5894140625 0.4936145263579821 0.865067062351874
4.5905625 0.49355903924748995 0.8643569246240712
4.5917109375 0.4938710288507394 0.8644506894701393
4.592859375 0.49458999922782537 0.8635661435246029
4.5940078125 0.49531454649503964 0.8643286210864702
4.59515625 0.49553951128173723 0.8631706704424642
4.5963046875 0.49645046104008617 0.862470827576978
4.597453125 0.49630584203748795 0.8626582560597121
4.5986015625 0.49641270007355043 0.8610636300334514
4.59975 0.49673264619044455 0.8615394267150249
4.6008984375 0.49818942704804187 0.8621677435527627
4.602046875 0.4983291470318008 0.861130251641205
4.6031953125 0.4981613615970642 0.8595740956060149
4.60434375 0.49743180354589317 0.8600647693268454
4.6054921875 0.49839657075930954 0.8601301276227824
4.606640625 0.49910703962670944 0.8602113786019387
4.6077890625 0.5008797463844425 0.8596827807708836
4.6089375 0.501730889828196 0.8589732262702103
4.6100859375 0.5018850178216941 0.8595087574162183
4.611234375 0.5018495126325655 0.8587890822415674
4.6123828125 0.5026201166013724 0.857889801385999
4.61353125 0.5032303582578834 0.8573064423512561
4.6146796875 0.5034513473556761 0.8570268928253476
4.615828125 0.5036852380008303 0.8570760151837864
4.6169765625 0.5040373280433144 0.8569768936596344
4.618125 0.5043273328901501 0.8568458236074742
4.6192734375 0.5055197323736972 0.8556585373193104
4.620421875 0.5059065147674437 0.8549705161843957
4.6215703125 0.5069531558016049 0.854040220175176
4.62271875 0.5072150307824914 0.8540809465281362
4.6238671875 0.5085125387713592 0.8546605911542143
4.625015625 0.508017892916085 0.8552162662201866
4.6261640625 0.5094156704334925 0.8545151846609781
4.6273125 0.5095206233409544 0.8537600425147944
4.6284609375 0.5108895163690582 0.8531213294708011
4.629609375 0.511135303086836 0.8530747364603603
4.6307578125 0.512313886540752 0.8520665027746146
4.63190625 0.5124094906357207 0.8520545048858186
4.6330546875 0.5124434946420022 0.8523164522364213
4.634203125 0.513337176621626 0.8521121131642865
4.6353515625 0.5137268063830209 0.8516813878335197
4.6365 0.514386578862174 0.8517287114172425
4.6376484375 0.5146189611296643 0.8510605943455359
4.638796875 0.5149268238085654 0.8501606051589287
4.6399453125 0.5155400459682619 0.8498531446625419
4.64109375 0.5168424939409622 0.8504962666914548
4.6422421875 0.5168690626785237 0.8496110965835533
4.643390625 0.5185049321143321 0.8489966412942413
4.6445390625 0.5184660281141167 0.8493764946886756
4.6456875 0.5187533289276957 0.8495619473582448
4.6468359375 0.5193264676194258 0.849076856690018
4.647984375 0.5192568982102839 0.8494481173783575
4.6491328125 0.5201842837248603 0.8493645082680756
4.65028125 0.5207262884090444 0.848444811728128
4.6514296875 0.5201902696761698 0.8477612326066872
4.652578125 0.5209059455395761 0.8478282650491359
4.6537265625 0.5221665295184801 0.8477434327692376
4.654875 0.5223934894165043 0.846728337873878
4.6560234375 0.5230195492226142 0.8452031940152346
4.657171875 0.5232063817581607 0.8457658140186746
4.6583203125 0.5234384573060106 0.844821379689611
4.65946875 0.5235162911357314 0.8447491729695041
4.6606171875 0.5250386679931656 0.8441335701528911
4.661765625 0.5255675786851155 0.8430565071111641
4.6629140625 0.5254827300171423 0.8433804820064866
4.6640625 0.5254867498538707 0.8428913223237011
4.6652109375 0.52682620948277 0.8418542763600916
4.666359375 0.5274791523128047 0.841582662390766
4.6675078125 0.5281410263803684 0.8410301357767558
4.66865625 0.529045480544651 0.8411519950856121
4.6698046875 0.5286540491758125 0.8417412562167813
4.670953125 0.5282551312547903 0.8407581239555966
4.6721015625 0.5292726035472242 0.8407386405407501
4.67325 0.5302604449878496 0.8405743892221431
4.6743984375 0.5301654868572968 0.8401092022554736
4.675546875 0.5301558303711204 0.8402655945373487
4.6766953125 0.5310014533194617 0.8399736612930194
4.67784375 0.5314033964298752 0.8395729228031511
4.6789921875 0.5325026949851691 0.8392414424212207
4.680140625 0.5320791385167813 0.8384960648275266
4.6812890625 0.5320170312706811 0.8379250522394944
4.6824375 0.5315882965159864 0.8375939909338567
4.6835859375 0.532152226313623 0.8376588380307494
4.684734375 0.5342274240362355 0.8368536446636213
4.6858828125 0.5337748398624733 0.8357605526781994
4.68703125 0.5350052300159418 0.8361358968041361
4.6881796875 0.5348734172256391 0.8363259166100092
4.689328125 0.5355427340354694 0.8363987492950166
4.6904765625 0.5361539873314634 0.8358728673869485
4.691625 0.536110124242613 0.835746239575695
4.6927734375 0.5365692872836978 0.8344274058171092
4.693921875 0.5367255016453939 0.8335552179193191
4.6950703125 0.53757374877323 0.8334559559991018
4.69621875 0.5376677016683751 0.8336596112905965
4.6973671875 0.5380312270839918 0.8323551249213818
4.698515625 0.5381519193027846 0.8327068410322118
4.6996640625 0.5389823354575634 0.8325651679568369
4.7008125 0.5390615134749632 0.8316966732097292
4.7019609375 0.5393008634599605 0.8321266010382782
4.703109375 0.5404763215610515 0.8320314145270234
4.7042578125 0.5395587691557504 0.8312023326170057
4.70540625 0.5407493274001179 0.8319019820723936
4.7065546875 0.5404691790120953 0.8305829144937511
4.707703125 0.5410701667977906 0.8302517346667393
4.7088515625 0.5426974230328736 0.8300046698167515
4.71 0.5435051526446486 0.8297842130946509
4.7111484375 0.54284612556696 0.8301210481911963
4.712296875 0.5430672655346506 0.8298167706422355
4.7134453125 0.5436972792572303 0.8294280015244807
4.71459375 0.5447054072809576 0.828902585956677
4.7157421875 0.5441840805791759 0.8286069422647476
4.716890625 0.5444777222832994 0.8291763250116806
4.7180390625 0.5438949046244113 0.8280300021739385
4.7191875 0.5458601491786317 0.8281898249790768
4.7203359375 0.5467655284386801 0.8283888279630168
4.721484375 0.5465909845656537 0.8265249787750564
4.7226328125 0.5464045938690074 0.8263464766115522
4.72378125 0.5469409493959245 0.8259566579749802
4.7249296875 0.5476007793265997 0.826099176526265
4.726078125 0.5480044119391208 0.8260583130726479
4.7272265625 0.5485395278719637 0.8249040605382184
4.728375 0.5491694605250319 0.8243156760064084
4.7295234375 0.5495738694210954 0.8241162133235238
4.730671875 0.5494694411655086 0.8237803976944501
4.7318203125 0.5500415758229046 0.8241347333959658
4.73296875 0.5503865751587919 0.8229022258997442
4.7341171875 0.5503607424751904 0.821993819736751
4.735265625 0.5506806024027784 0.8225376298959488
4.7364140625 0.5513499818891601 0.8222918722621231
4.7375625 0.5509994127298002 0.8211504363902971
4.7387109375 0.552230798145926 0.820498569768345
4.739859375 0.5511585973458952 0.8205005363587261
4.7410078125 0.5516975105753763 0.8198894669455605
4.74215625 0.551958747607051 0.8212742284212544
4.7433046875 0.5523742540705752 0.820900521489814
4.744453125 0.5537163525938058 0.8207272475089598
4.7456015625 0.5529302342048265 0.8191317816197954
4.74675 0.5533730120299627 0.8185249736598378
4.7478984375 0.5534867771382244 0.8193032195045636
4.749046875 0.5532131961747053 0.8196569272216339
4.7501953125 0.554373206579609 0.8195022339796879
4.75134375 0.5557869910881207 0.819919167666129
4.7524921875 0.5555607775846392 0.8196857716829462
4.753640625 0.5567439530484333 0.8192963027087703
4.7547890625 0.5573426131822388 0.8185518110571064
4.7559375 0.5573103523707925 0.8180996223176384
4.7570859375 0.5569698473291516 0.8175980560816172
4.758234375 0.5581414407478663 0.8178030051262783
4.7593828125 0.5581827471931093 0.8176530158207537
4.76053125 0.5582839240664406 0.8177532190209289
4.7616796875 0.5597986873767844 0.8185035599260256
4.762828125 0.560908518423776 0.8178714510938766
4.7639765625 0.5605187393890303 0.8174471827818217
4.765125 0.5628868460562437 0.8171620763165104
4.7662734375 0.5631771386715184 0.8168917168149232
4.767421875 0.5638402663133788 0.8166598690215522
4.7685703125 0.5643683663199799 0.8162255535511075
4.76971875 0.5649824259552726 0.8154104193877255
4.7708671875 0.565194771517781 0.8155920747369942
4.772015625 0.565883132850027 0.815002608769788
4.7731640625 0.5664299581299448 0.8149888559864319
4.7743125 0.5687823631733284 0.8138632938044417
4.7754609375 0.5684384992958267 0.8136465050370838
4.776609375 0.5685208734999645 0.8127191003578825
4.7777578125 0.5682328405332863 0.8123714202304012
4.77890625 0.5693730743634575 0.8118619317069754
4.7800546875 0.5702194554677813 0.812155351617768
4.781203125 0.5705845682952418 0.811075578768537
4.7823515625 0.5708526694257485 0.8102881218002566
4.7835 0.5705997234243477 0.8105336634078799
4.7846484375 0.5709131405538522 0.8100946828951728
4.785796875 0.5723861392209029 0.8097273648402855
4.7869453125 0.5721501085642104 0.8107973615300949
4.78809375 0.5716291711608404 0.809826016243805
4.7892421875 0.5731880436243836 0.809395713254525
4.790390625 0.5722559000054317 0.8084865389419363
4.7915390625 0.5728576970129925 0.8076389261298254
4.7926875 0.5735795649622519 0.8080593911333626
4.7938359375 0.5739735270262225 0.8077387056018005
4.794984375 0.5746578971310415 0.805578121541348
4.7961328125 0.5733001758668594 0.8065388305828227
4.79728125 0.5737286778631727 0.8063011662252366
4.7984296875 0.574079111535891 0.8061271546614222
4.799578125 0.5745084244962239 0.8057106394903313
4.8007265625 0.5745994246915864 0.8058010654996525
4.801875 0.5754098801817285 0.8055753691230898
4.8030234375 0.5753494084703897 0.804419183786691
4.804171875 0.5762583374883916 0.8034229042926299
4.8053203125 0.5764678214840586 0.8039728369611348
4.80646875 0.5768813227461043 0.8026025981391385
4.8076171875 0.5772699932103922 0.8024548462202881
4.808765625 0.5781161881474495 0.8032216404249639
4.8099140625 0.5771392294057999 0.8034534002048181
4.8110625 0.5790746694440352 0.8034522898047632
4.8122109375 0.5793779089148913 0.8024835315620277
4.813359375 0.5798161015668806 0.8020230033903131
4.8145078125 0.5811890664451184 0.801310408513717
4.81565625 0.5810868551642486 0.8011816728478134
4.8168046875 0.5804817134452975 0.8012662192415053
4.817953125 0.5815713107611389 0.800090006169572
4.8191015625 0.5824555663766418 0.799611885778003
4.82025 0.5821099727149619 0.7992160210893118
4.8213984375 0.5823953754222466 0.7987183214305864
4.822546875 0.583025911441982 0.7979508333690112
4.8236953125 0.5832185579764464 0.7969341039983363
4.82484375 0.5831230426715693 0.7974313654961116
4.8259921875 0.5840616038557627 0.7973061615079823
4.827140625 0.5837741995497514 0.796428464665459
4.8282890625 0.5845060429707984 0.7966976189758835
4.8294375 0.5849789668742538 0.7961027529778777
4.8305859375 0.5855823099984786 0.7968699013973042
4.831734375 0.5848892441221336 0.7971679408198207
4.8328828125 0.5850533590655964 0.7972460605679609
4.83403125 0.586387023557042 0.7964687596455559
4.8351796875 0.5870999185642723 0.796634933726876
4.836328125 0.5869679926050713 0.7944727181322754
4.8374765625 0.5883987303512253 0.7949395826264075
4.838625 0.5890160772376608 0.7952351287208892
4.8397734375 0.5877582764034628 0.7953749070307009
4.840921875 0.5899349592855957 0.79504691363138
4.8420703125 0.5905210939836913 0.795162603617192
4.84321875 0.5901607623604891 0.7956101096535514
4.8443671875 0.5907892946362681 0.7945777044265754
4.845515625 0.5916535656346736 0.7946026889795768
4.8466640625 0.5916843142423848 0.7935422552052644
4.8478125 0.5923516991331625 0.7929027945523599
4.8489609375 0.5930231516597122 0.7934466022315481
4.850109375 0.5932458585671689 0.7928130079642616
4.8512578125 0.5935173969925319 0.7927805760455986
4.85240625 0.5943682543860995 0.7926899291427832
4.8535546875 0.5953423134711323 0.7915443203767932
4.854703125 0.5954740871681894 0.7925228316466278
4.8558515625 0.5948302507716461 0.7915832524641071
4.857 0.5957823276125938 0.7924647092084283
4.8581484375 0.5960753738199884 0.7918093388772751
4.859296875 0.5969549617250777 0.7910652973368901
4.8604453125 0.5968455293183385 0.7909724273428211
4.86159375 0.5968831773178308 0.7906780976272778
4.8627421875 0.5980599292661408 0.7899223154387199
4.863890625 0.5988366819142306 0.7908909919249782
4.8650390625 0.599006039174851 0.790644425350604
4.8661875 0.5975582516946051 0.7889453976978126
4.8673359375 0.5985642007777356 0.7883855371393929
4.868484375 0.5977545314937158 0.7870517400363893
4.8696328125 0.5983048442359136 0.7882437975414623
4.87078125 0.5997997462652522 0.7878693360970831
4.8719296875 0.6000380065669237 0.7875138735555735
4.873078125 0.6001920056499177 0.7873793146185651
4.8742265625 0.6005510746177881 0.7869815163707926
4.875375 0.5999625150551073 0.7864330353313146
4.8765234375 0.6002771419330634 0.7863325647336763
4.877671875 0.6012564161046275 0.7854447470393003
4.8788203125 0.602686341633429 0.7853179897695324
4.87996875 0.6017933666679312 0.7857072658277588
4.8811171875 0.6020982864585919 0.7842006542372846
4.882265625 0.603953823223887 0.7846127500175193
4.8834140625 0.6050839266744029 0.7844467103853627
4.8845625 0.6052213997502409 0.7842261851173832
4.8857109375 0.6056137089174203 0.7829785324075218
4.886859375 0.6053412529879383 0.7835285331878381
4.8880078125 0.6062033525779396 0.7817813514474389
4.88915625 0.6072068898502527 0.7817867346448842
4.8903046875 0.60820116746357 0.7813462837571569
4.891453125 0.609000055850986 0.78184827211059
4.8926015625 0.6090960877868373 0.7802906903484804
4.89375 0.6083684564795553 0.7801917764212265
4.8948984375 0.6104489929187609 0.7795165215191363
4.896046875 0.6090882486666976 0.7797776570951962
4.8971953125 0.610709156533063 0.7790051094891758
4.89834375 0.6111321781415786 0.7794013086183917
4.8994921875 0.6114878999575952 0.7791949804029009
4.900640625 0.612405667249064 0.777715593106139
4.9017890625 0.6127356415282108 0.7776635882638493
4.9029375 0.6122047954881904 0.7775242412240808
4.9040859375 0.6128627504266861 0.7779423011630819
4.905234375 0.6140636072394174 0.7771267940269994
4.9063828125 0.6142955258070452 0.7777282474550306
4.90753125 0.6143341882216535 0.7762981480417658
4.9086796875 0.6152583985577893 0.7768738060903158
4.909828125 0.6158006893101664 0.776275553676147
4.9109765625 0.6164203188517949 0.7765297405152757
4.912125 0.6166944403724169 0.7754070830591246
4.9132734375 0.6178551493180321 0.7752449327076176
4.914421875 0.617906433691901 0.7753485509604254
4.9155703125 0.6187463300791017 0.7750634058127397
4.91671875 0.6185217288661651 0.7747000782350918
4.9178671875 0.619369395970685 0.7742104870842921
4.919015625 0.6195483985025829 0.7729155370472474
4.9201640625 0.620274354105111 0.7731423019085845
4.9213125 0.6212435933137539 0.773061169868325
4.9224609375 0.6213340696984628 0.7726819086477517
4.923609375 0.6217873220897167 0.7728749920973718
4.9247578125 0.6231948967394655 0.771963056902717
4.92590625 0.6226229963485124 0.7712322231391259
4.9270546875 0.6225541599414876 0.7713475845520783
4.928203125 0.623951864142526 0.7708647845444372
4.9293515625 0.6241344514725136 0.7712811137693949
4.9305 0.6262844436337225 0.770484187101741
4.9316484375 0.6254618733039695 0.7697226388307771
4.932796875 0.6252816200204367 0.7689395042894627
4.9339453125 0.625835549856544 0.7689517798075771
4.93509375 0.6258335463653828 0.7691023869221932
4.9362421875 0.6272578569574405 0.7686669125143223
4.937390625 0.6270481281924899 0.7678851484514638
4.9385390625 0.6276370489853229 0.7684298906640816
4.9396875 0.6278044067249318 0.7671533598370606
4.9408359375 0.627464786341045 0.7663072181476738
4.941984375 0.6285874110772947 0.7668356362246508
4.9431328125 0.6289885310973276 0.7669680806673548
4.94428125 0.6292949272054637 0.7666729575527295
4.9454296875 0.629548185782264 0.7662139001307569
4.946578125 0.628999014574404 0.7653081666332492
4.9477265625 0.629447668067622 0.7661519081421038
4.948875 0.6299364053898754 0.7659213197091976
4.9500234375 0.6297546929779092 0.764910724726899
4.951171875 0.6305012324783194 0.7643358312337807
4.9523203125 0.6313897722534905 0.7646541607373791
4.95346875 0.632415001363096 0.7640001820761242
4.9546171875 0.6329242671887657 0.7626866510279555
4.955765625 0.6315409999264254 0.7626644348555329
4.9569140625 0.6330620475682109 0.7618832527023072
4.9580625 0.6336305486612491 0.7614455794384546
4.9592109375 0.6337835815742486 0.7616709385092026
4.960359375 0.6352810695625386 0.7606557024863221
4.9615078125 0.6350641847461627 0.759186238976594
4.96265625 0.6345542154053089 0.7591982253015476
4.9638046875 0.6348422177202128 0.7590241196934745
4.964953125 0.63530317534645 0.7587896594844018
4.9661015625 0.636167231494028 0.7581696518250587
4.96725 0.6364565468928379 0.7579247340374605
4.9683984375 0.6360336511963953 0.7583645187176544
4.969546875 0.6370543616968336 0.7579821944798889
4.9706953125 0.6369800944449155 0.7566733975755715
4.97184375 0.6379628343637075 0.7565989006465793
4.9729921875 0.6393531560063599 0.7568661974514508
4.974140625 0.6387337714056832 0.7557941754806476
4.9752890625 0.6388031083760148 0.7560031643731349
4.9764375 0.6395942413168537 0.7558106079388304
4.9775859375 0.6401497928962667 0.7553454620992132
4.978734375 0.639486663567096 0.7541451975044839
4.9798828125 0.6404674318444084 0.7541118084874326
4.98103125 0.640918196087003 0.7544751280834754
4.9821796875 0.6407549577805536 0.7548373254387748
4.983328125 0.6418119169949779 0.7550855370358338
4.9844765625 0.6423398370722125 0.7527298267111167
4.985625 0.6421559161349973 0.7530642971654208
4.9867734375 0.6421844211510827 0.7527687167622121
4.987921875 0.6427130190047665 0.7518917840475154
4.9890703125 0.6434374807818483 0.7521094150743103
4.99021875 0.6447287087765183 0.7518467004941176
4.9913671875 0.6446788145864313 0.752182360785837
4.992515625 0.6459586225969622 0.7511736964223257
4.9936640625 0.6458156922603288 0.7515790623783074
4.9948125 0.6452446617481985 0.7516774324066237
4.9959609375 0.6480893892018662 0.7499724934671471
4.997109375 0.6476061718338016 0.7508641808299658
4.9982578125 0.6477284079086398 0.7495895904371533
4.99940625 0.6481615711900002 0.7494513811154402
5.0005546875 0.6476850103495223 0.7486185848523069
5.001703125 0.6493337109164331 0.7486373088285344
5.0028515625 0.6493409438591699 0.7487472079248269
5.004 0.6487432969728698 0.7485364665764114
5.0051484375 0.6471713757966964 0.7488488882447583
5.006296875 0.6481675493855225 0.7473026973795718
5.0074453125 0.6496070588271227 0.7460891413450847
5.00859375 0.6503581855982942 0.7464957160875649
5.0097421875 0.6502854756193391 0.7470737367904777
5.010890625 0.6511720259538222 0.7465803165700967
5.0120390625 0.6502977066773798 0.7460503352333933
5.0131875 0.6512330475580272 0.7467683164110339
5.0143359375 0.6529134656366635 0.7452448924850047
5.015484375 0.6531086833413146 0.7456449210198186
5.0166328125 0.6521245526314707 0.7457255234437943
5.01778125 0.6529963195103962 0.7441747152718292
5.0189296875 0.653816134273636 0.7437647329955716
5.020078125 0.6539559635397361 0.7434990798092174
5.0212265625 0.653924322854687 0.7435740747638575
5.022375 0.6538495158400878 0.7431395701381498
5.0235234375 0.6545890755219682 0.7430125379184324
5.024671875 0.6559129098608636 0.7427610936055471
5.0258203125 0.656255546758321 0.7422274895399529
5.02696875 0.6560451546121496 0.7427282129959827
5.0281171875 0.6563937511923617 0.7421340988656467
5.029265625 0.6565708921009553 0.7415637398451145
5.0304140625 0.6571473495872846 0.741096045177067
5.0315625 0.6572907822528168 0.7396586463680113
5.0327109375 0.6575932570449587 0.7384343815916129
5.033859375 0.6579190167032192 0.7396218260335152
5.0350078125 0.6589128447356629 0.7385078337619142
5.03615625 0.659386429755179 0.7382424787925264
5.0373046875 0.6596896921309139 0.7383899572951202
5.038453125 0.6597176402070839 0.7377044113271115
5.0396015625 0.6606225701365884 0.737202267545467
5.04075 0.6616541939678439 0.7364783548797358
5.0418984375 0.660590181307825 0.7365284323966375
5.043046875 0.6614486140847768 0.736184368879954
5.0441953125 0.6617734058465371 0.7357782053290212
5.04534375 0.662438769988051 0.7358142137468285
5.0464921875 0.6617256366162073 0.7355200480199192
5.047640625 0.6619472623857175 0.7356509871150704
5.0487890625 0.6627672313122885 0.7359359293507909
5.0499375 0.6635139412668636 0.7355322513724825
5.0510859375 0.6641893882155425 0.7354028770637531
5.052234375 0.6643591687279137 0.734733579434037
5.0533828125 0.6647602329562936 0.7352488736751637
5.05453125 0.665713504509968 0.7353392596185713
5.0556796875 0.6674253762318259 0.7335624775667594
5.056828125 0.6666572803417113 0.7326366072972869
5.0579765625 0.6672473795294717 0.7324587907475082
5.059125 0.6675729419583183 0.7322151957880243
5.0602734375 0.6686770510675423 0.732168205974795
5.061421875 0.6685678874857481 0.7308705165318672
5.0625703125 0.6684791581543431 0.7311130649820768
5.06371875 0.668697833030558 0.7310799977559581
5.0648671875 0.6703543216607908 0.7314449508603245
5.066015625 0.6702455250238237 0.7293214378854286
5.0671640625 0.6713024235904272 0.7296186377638603
5.0683125 0.6708568914717287 0.7292769032409907
5.0694609375 0.6708328580392595 0.7292916497782227
5.070609375 0.6715590886192369 0.7283775346457589
5.0717578125 0.6723677211870885 0.728133908329164
5.07290625 0.673158589539548 0.7275924134221909
5.0740546875 0.6736017645475808 0.7272138464741741
5.075203125 0.6728582608064789 0.7281379974331464
5.0763515625 0.6727309767048502 0.7277717956435557
5.0775 0.6736056919962745 0.7266780842483056
5.0786484375 0.6746693609332505 0.7258197507134995
5.079796875 0.6751028973151416 0.7254166206475123
5.0809453125 0.6744826430259282 0.7252839737027993
5.08209375 0.6760696863891622 0.7253787563294887
5.0832421875 0.6761579445912911 0.7251412131133897
5.084390625 0.6765640278209365 0.7245879078321167
5.0855390625 0.6772144550909706 0.723477222902404
5.0866875 0.6761261374246768 0.7231357325396743
5.0878359375 0.6765683898546735 0.722741844952095
5.088984375 0.6771185425860651 0.7226331857343985
5.0901328125 0.6769557377222082 0.7230475260203638
5.09128125 0.6789585513843985 0.7222637701346606
5.0924296875 0.6789494917570725 0.7215890967625892
5.093578125 0.6793538930823145 0.7215248248536651
5.0947265625 0.6779825972202209 0.7204608642321175
5.095875 0.6792180120491106 0.7207401061016785
5.0970234375 0.6797744949463598 0.7198016317606275
5.098171875 0.6797803623153362 0.7202032087786466
5.0993203125 0.6796260661871746 0.7193051874542189
5.10046875 0.6806340865366866 0.7189982887841557
5.1016171875 0.6807470939267429 0.7184322265491343
5.102765625 0.6812561709406617 0.7190902048691084
5.1039140625 0.6806923955712965 0.7182166815483129
5.1050625 0.6811246948756008 0.7177558345592024
5.1062109375 0.6826576464453001 0.7177958871743325
5.107359375 0.6824888472848427 0.7173991305342439
5.1085078125 0.6833552100777249 0.7163761630645941
5.10965625 0.6838089972793774 0.7149672758337451
5.1108046875 0.6837250590351436 0.7149300854829583
5.111953125 0.6853776538280578 0.7143700628044596
5.1131015625 0.6850515345412874 0.7149761997174396
5.11425 0.6844943968543276 0.7142006211207476
5.1153984375 0.6856377978118778 0.7134020321185627
5.116546875 0.6851983767023402 0.7132382676344899
5.1176953125 0.6851655126077467 0.7130732619162935
5.11884375 0.684958160958595 0.7129239548001423
5.1199921875 0.6857942253702347 0.713316260723811
5.121140625 0.6866603657904526 0.7126414193416473
5.1222890625 0.687124970773441 0.712108276208644
5.1234375 0.6879131674942021 0.7121185756707008
5.1245859375 0.6881954560656283 0.7113154441928389
5.125734375 0.688458448072952 0.7113708241862952
5.1268828125 0.689401138013021 0.7113139690048328
5.12803125 0.6896127114019939 0.7104547870489604
5.1291796875 0.6894424142091957 0.7104753398183228
5.130328125 0.6887981736394138 0.7091452183950584
5.1314765625 0.6895929793014761 0.7092287190331172
5.132625 0.6898250590402428 0.7090127254664592
5.1337734375 0.6903426695434863 0.7095208838762248
5.134921875 0.6916337140705191 0.7079443461056363
5.1360703125 0.6915710612540109 0.7083474561279686
5.13721875 0.6922930763719739 0.7081960500484336
5.1383671875 0.6922482087173552 0.7078842132348078
5.139515625 0.6923683023269567 0.7077619181439355
5.1406640625 0.693897178912809 0.7063827132151083
5.1418125 0.6938531553576702 0.7072618624478202
5.1429609375 0.6949498234876118 0.7062598859925927
5.144109375 0.6959941815960287 0.7058857242005255
5.1452578125 0.6958322693573483 0.7052074126639933
5.14640625 0.6967380526725082 0.7049987013792478
5.1475546875 0.6963404014267378 0.7043853479748443
5.148703125 0.6963917307101593 0.7034019102018704
5.1498515625 0.6981175851215652 0.7036771663399234
5.151 0.6984088826809411 0.7033899470289711
5.1521484375 0.6982355434689506 0.7027545852140429
5.153296875 0.6989357172852423 0.7025865129010264
5.1544453125 0.6987173573732205 0.7023256528842331
5.15559375 0.6991209493002472 0.7018134368380894
5.1567421875 0.6982306706523239 0.7005865750819047
5.157890625 0.6995813796188697 0.7008980731104029
5.1590390625 0.7006693617676607 0.7009039353828148
5.1601875 0.7009993978177144 0.7004977422671176
5.1613359375 0.7017498237150421 0.6997378528002252
5.162484375 0.7019268019707605 0.6990115763211807
5.1636328125 0.700567281908334 0.698851013787154
5.16478125 0.7000038852883377 0.6984446600428114
5.1659296875 0.7008894514516033 0.6973475282428445
5.167078125 0.7018824686104226 0.6971261274586379
5.1682265625 0.7024898242826514 0.6965066463499279
5.169375 0.7018959176468904 0.6966835057254831
5.1705234375 0.7019621116178485 0.6971319696883727
5.171671875 0.7021195671979833 0.6965990837518115
5.1728203125 0.7039930972011312 0.6964550151298663
5.17396875 0.7037800601624387 0.6959586758766378
5.1751171875 0.7036986614579356 0.6956787619207526
5.176265625 0.7042795345401333 0.695323324140708
5.1774140625 0.7044309481612735 0.695170104778409
5.1785625 0.703681058780214 0.6949535036733162
5.1797109375 0.7052881603933853 0.6955956504545866
5.180859375 0.7059514800107273 0.6953357662728216
5.1820078125 0.7055611978916825 0.6950486111177816
5.18315625 0.7051302380641342 0.6944745640326175
5.1843046875 0.7063958123665791 0.6943059298378988
5.185453125 0.7061511863350132 0.6938398125418725
5.1866015625 0.7068571317069274 0.6935193018538552
5.18775 0.7071628493180959 0.6931312326184835
5.1888984375 0.7071405252578263 0.6938395550286992
5.190046875 0.7080514045980342 0.6925142862235495
5.1911953125 0.7084625192242295 0.6920128746101643
5.19234375 0.7096983868471297 0.6922092055362254
5.1934921875 0.7090368864472465 0.6908863395158299
5.194640625 0.7092904743288658 0.6903090864730612
5.1957890625 0.7095302567336027 0.690161581232558
5.1969375 0.7091726749240804 0.6898089547366301
5.1980859375 0.7105289172833923 0.6891435612356068
5.199234375 0.7110247268504246 0.6888838815782133
5.2003828125 0.7106430911688142 0.6895454298268968
5.20153125 0.7116291673618844 0.6897195869873803
5.2026796875 0.7117275134157013 0.6895324113815195
5.203828125 0.7124451574055406 0.6889095924005509
5.2049765625 0.7118053936116904 0.6877926977621497
5.206125 0.713025541625344 0.6873651461086916
5.2072734375 0.7134694778750483 0.6876487480745446
5.208421875 0.7135383336860286 0.6875088852385985
5.2095703125 0.7151441258920627 0.6865669151624949
5.21071875 0.7162523740556475 0.6861156149339939
5.2118671875 0.7159034925120783 0.6856448446392878
5.213015625 0.717457923565932 0.6859092971192579
5.2141640625 0.7183667123508437 0.6853203571024544
5.2153125 0.7173810837199678 0.6854109222277115
5.2164609375 0.7179029303624311 0.6844586871273638
5.217609375 0.7174263634850185 0.6840563622579457
5.2187578125 0.7176698808969041 0.6836378428576537
5.21990625 0.7186229834936105 0.6825648977594325
5.2210546875 0.7181093513062992 0.6818162299663767
5.222203125 0.7195705291366956 0.6813710765261674
5.2233515625 0.7197589917637315 0.6816798537937179
5.2245 0.7192448158564633 0.6813826081744567
5.2256484375 0.7190177484534883 0.6805547130596198
5.226796875 0.7197233914139215 0.6797946439426702
5.2279453125 0.7200722976616344 0.6800462121634171
5.22909375 0.7204748064398457 0.6791897181275968
5.2302421875 0.720407111859759 0.6791369612347729
5.231390625 0.7199398433791385 0.6789628786329486
5.2325390625 0.7207333823035779 0.6787733425885464
5.2336875 0.7210311580289122 0.6778127433414227
5.2348359375 0.7204057020828948 0.6773543291678092
5.235984375 0.720938962358222 0.6773513249675869
5.2371328125 0.720907279427407 0.6768610919033422
5.23828125 0.7209710141306981 0.6770829077517599
5.2394296875 0.7218687436192729 0.6771364435348125
5.240578125 0.7225365816156002 0.6772281794106436
5.2417265625 0.7229208334049637 0.6770218489464032
5.242875 0.7225642881356503 0.6761097373644218
5.2440234375 0.7236378990875432 0.6761252954808822
5.245171875 0.72373410482403 0.6750090088466018
5.2463203125 0.7242125143350598 0.6747917808657932
5.24746875 0.7236426232118531 0.6748972636748645
5.2486171875 0.7252155940588692 0.6742219230342057
5.249765625 0.7259417845788885 0.6736493203643564
5.2509140625 0.7262478704612428 0.6736161901195235
5.2520625 0.7266312445533398 0.6734422192782326
5.2532109375 0.7263870481661517 0.6730781997497567
5.254359375 0.7276598598717489 0.6728446155091241
5.2555078125 0.727975825629019 0.6728383793502892
5.25665625 0.7284435766358144 0.6728501369381394
5.2578046875 0.7282356081301296 0.6725550091666042
5.258953125 0.7279122685709187 0.6718814138960252
5.2601015625 0.7282701568414984 0.6719907275139925
5.26125 0.7286984775678708 0.6709111548469661
5.2623984375 0.7290728371746563 0.6721010207559186
5.263546875 0.7290113792607597 0.6722508719135276
5.2646953125 0.7293116632412574 0.6719032776670995
5.26584375 0.7295421353616817 0.6708589108737824
5.2669921875 0.7294993882527732 0.6698065225073977
5.268140625 0.7300077346276415 0.6693921341315419
5.2692890625 0.7303810795012486 0.669383824707442
5.2704375 0.7307666876083079 0.6687757691790472
5.2715859375 0.7317030847021085 0.6688854105895914
5.272734375 0.7322529671619386 0.6690136055017764
5.2738828125 0.7327152110694585 0.6689574980919695
5.27503125 0.732500739860402 0.6690068792820137
5.2761796875 0.7330600809939584 0.6677419669551171
5.277328125 0.7333678473503855 0.6667237108387573
5.2784765625 0.7334535755292269 0.6673216973967874
5.279625 0.7330731504299436 0.6673380184416258
5.2807734375 0.7337541165871139 0.667119413608456
5.281921875 0.7362003433802871 0.6669987684305736
5.2830703125 0.7357532820247515 0.6673913370113562
5.28421875 0.736064094946582 0.6668523717635768
5.2853671875 0.7375575160084289 0.6661065372514331
5.286515625 0.7380617475438624 0.6651885761543752
5.2876640625 0.7383840018418083 0.6648722498363664
5.2888125 0.7388634737450904 0.6652617147631547
5.2899609375 0.7389972646188063 0.6637508419557172
5.291109375 0.7392692244359369 0.6636425102517503
5.2922578125 0.7400240974594033 0.6620588744487276
5.29340625 0.740080101244845 0.6616150388789015
5.2945546875 0.7408624257683107 0.6613135822528058
5.295703125 0.7401495373744622 0.6604372418163349
5.2968515625 0.7413759830090332 0.6613516232698443
5.298 0.7416094928223211 0.6612528993422949
5.2991484375 0.7419118041458377 0.6611212798362642
5.300296875 0.7423472161113205 0.6601928326323401
5.3014453125 0.7420323648579479 0.660309163863275
5.30259375 0.7432572655534444 0.6586672963492182
5.3037421875 0.7431094787889385 0.6581655223489542
5.304890625 0.7439026695328872 0.6590044719423531
5.3060390625 0.7442920734968137 0.6586174514693023
5.3071875 0.7451956582316979 0.6572126088696072
5.3083359375 0.7458246837613846 0.6567289251409383
5.309484375 0.7443792971696004 0.6569568069201412
5.3106328125 0.7459851955543697 0.656507100727241
5.31178125 0.7466680963631918 0.6554717114905165
5.3129296875 0.7475642372774234 0.6556520055882823
5.314078125 0.7472562813077575 0.6556668124487636
5.3152265625 0.7480057325582355 0.6544363700222884
5.316375 0.7475614838216547 0.6546143019227323
5.3175234375 0.7478835444149321 0.6536856725511075
5.318671875 0.7481865340648018 0.6543879005522591
5.3198203125 0.7492461977965816 0.6528856236383165
5.32096875 0.7483241268012742 0.6540659996340967
5.3221171875 0.7488655006907551 0.652909655768778
5.323265625 0.7493674284974791 0.6531146484439578
5.3244140625 0.7508685473892851 0.6524279609698411
5.3255625 0.7509010641488032 0.6511622195088402
5.3267109375 0.7503063014972802 0.6517850348944751
5.327859375 0.7512916443309468 0.6512580752081428
5.3290078125 0.7516926946716843 0.652181643021583
5.33015625 0.7521225359581247 0.6498192643254753
5.3313046875 0.752158973754165 0.6501541323938672
5.332453125 0.7538384532532063 0.6489429979584239
5.3336015625 0.7546322710659072 0.6479123016025943
5.33475 0.7545447640734927 0.6492178837143423
5.3358984375 0.7553060613060719 0.6485374126241129
5.337046875 0.7537065894484166 0.6478625499550013
5.3381953125 0.7546839356462148 0.6473862358356697
5.33934375 0.7549735747741343 0.6474451193575275
5.3404921875 0.755712867619031 0.6464923252563374
5.341640625 0.7565392016298981 0.6462877557488823
5.3427890625 0.7563952959773292 0.6464151312461969
5.3439375 0.7563299468895526 0.6457551580826622
5.3450859375 0.7573498099121994 0.6447732465465326
5.346234375 0.7572122597446811 0.6446029512961504
5.3473828125 0.7580060110186231 0.6445156002606632
5.34853125 0.758595160938593 0.6434660558853923
5.3496796875 0.7589296297694681 0.6430748149019871
5.350828125 0.758867574944217 0.6441270408020676
5.3519765625 0.760205261686825 0.6429701345781836
5.353125 0.7597691993790804 0.6424656743101937
5.3542734375 0.7596184689404221 0.6425523212862428
5.355421875 0.7589933913770832 0.6415523247414883
5.3565703125 0.7605234600692236 0.6412363440546051
5.35771875 0.7607076685333555 0.6413501320055859
5.3588671875 0.7614562953279665 0.6411004769377157
5.360015625 0.761395244773029 0.6400289113802954
5.3611640625 0.7617577812084023 0.6392228572374461
5.3623125 0.7622817537119169 0.6385239423388082
5.3634609375 0.7619516981198124 0.6392435361351119
5.364609375 0.7614321429346221 0.6395223407344044
5.3657578125 0.7619584939107508 0.6382959128967713
5.36690625 0.7629501691847657 0.6388023294411364
5.3680546875 0.7635145728691222 0.6377425025249115
5.369203125 0.7632573202360555 0.6383484572453916
5.3703515625 0.7647961855344422 0.6376778209752028
5.3715 0.7653664465926392 0.6370049553618766
5.3726484375 0.7660124380844652 0.6365827781435284
5.373796875 0.7652944063238597 0.6366198597837776
5.3749453125 0.764679257648836 0.6367962712387849
5.37609375 0.7660169362905315 0.6367740420775083
5.3772421875 0.7663002872740204 0.6357084329207285
5.378390625 0.7671863250550267 0.6349581058801929
5.3795390625 0.7677172043949562 0.63496865117054
5.3806875 0.7689154376471667 0.6343184946291347
5.3818359375 0.7678397082574062 0.6347422670811738
5.382984375 0.7684697445876796 0.634468318235824
5.3841328125 0.7689251551266573 0.6330049284173271
5.38528125 0.7696285587866614 0.6324521186569072
5.3864296875 0.7700748715703706 0.6325631765224377
5.387578125 0.7700114647582568 0.6320495359121859
5.3887265625 0.769916240819648 0.6318042209055965
5.389875 0.770383393716966 0.6312575593836495
5.3910234375 0.7707067242206042 0.6307154256087626
5.392171875 0.7703633466578914 0.6307981671954012
5.3933203125 0.7707090013810975 0.6299309101039183
5.39446875 0.7717189230872901 0.6300325007161707
5.3956171875 0.7723443202048615 0.6296000386714434
5.396765625 0.7726332719674462 0.6287480855075154
5.3979140625 0.772747360747362 0.6284754837584496
5.3990625 0.7734016971768299 0.6283421046122736
5.4002109375 0.7722777032922246 0.6286374921768473
5.401359375 0.7741892844604121 0.6273911304859788
5.4025078125 0.7744009949700303 0.6266774939315234
5.40365625 0.7737858750286389 0.6273450158495344
5.4048046875 0.7735726085785247 0.6271054865320198
5.405953125 0.7742301828167774 0.6267021788912052
5.4071015625 0.7740614018431324 0.6253635290755328
5.40825 0.7746197615823446 0.6253185230641848
5.4093984375 0.7750599962870833 0.6249979491081362
5.410546875 0.7761507768281108 0.6252276081091335
5.4116953125 0.77616861384851 0.6252476206828435
5.41284375 0.7763481266063825 0.6252527479136876
5.4139921875 0.7774246923133421 0.6252171936249735
5.415140625 0.7766641601954958 0.6225037597154293
5.4162890625 0.7769884522429872 0.6228546489642972
5.4174375 0.7783251967178924 0.6225953993502634
5.4185859375 0.778536459982889 0.6227369300309973
5.419734375 0.7782742829383926 0.6218327903806681
5.4208828125 0.778963564940568 0.6215487571687314
5.42203125 0.7795151058082699 0.6215888888206403
5.4231796875 0.7807294989635458 0.6212636524471022
5.424328125 0.7811458057552799 0.620475732825124
5.4254765625 0.7806867096880286 0.6200072151998756
5.426625 0.7810388598986981 0.6195691735678035
5.4277734375 0.780767618950912 0.6206798298854854
5.428921875 0.7817133037048909 0.6198459289755074
5.4300703125 0.7825724092819911 0.6186161462792773
5.43121875 0.7835259557765106 0.6187180340271047
5.4323671875 0.7838387763633234 0.6170080110351177
5.433515625 0.7828570800636405 0.6167701631143875
5.4346640625 0.7835086113224675 0.6152869138390403
5.4358125 0.783910706996622 0.6161371921675436
5.4369609375 0.7835650137129023 0.6169395875482088
5.438109375 0.7840771776342008 0.6148958489068614
5.4392578125 0.7830870059505557 0.6149364323407552
5.44040625 0.7834071548337789 0.6141617377758167
5.4415546875 0.7841643006369675 0.6137348612808419
5.442703125 0.7846256298627594 0.6130725674795576
5.4438515625 0.785293373191979 0.6129339716584881
5.445 0.7850043293160013 0.6135013472764744
5.4461484375 0.7857326944475492 0.6129433291397611
5.447296875 0.7864358075542204 0.6123358712485535
5.4484453125 0.7859437729035323 0.6113398171163708
5.44959375 0.7869415152403421 0.6106139038050358
5.4507421875 0.7866991379863446 0.6098379406635706
5.451890625 0.7869947721111721 0.6095975545130862
5.4530390625 0.7867137603990413 0.6094404440969536
5.4541875 0.7876033948911939 0.6094826922791265
5.4553359375 0.7880735095431113 0.6092429103841486
5.456484375 0.7870882955356224 0.6089043190788755
5.4576328125 0.7876318343238627 0.6086560959014327
5.45878125 0.7880149594696332 0.6085947716633932
5.4599296875 0.7882111197437636 0.6087947441685697
5.461078125 0.7893245189338916 0.6079721012617396
5.4622265625 0.7907489601545804 0.607556267958794
5.463375 0.790412714749265 0.6073647832182724
5.4645234375 0.7917407478830832 0.6070280874220749
5.465671875 0.791672844553581 0.607092760339348
5.4668203125 0.7929711974478796 0.6073371557068017
5.46796875 0.792541902717972 0.6057239283081169
5.4691171875 0.7929138474632682 0.6059760058915696
5.470265625 0.7939146363302045 0.6055945049588627
5.4714140625 0.7942176526877677 0.6053245996731824
5.4725625 0.7949059301084633 0.6041560005401142
5.4737109375 0.7950071270791355 0.6037776116057457
5.474859375 0.795251399221107 0.6036408852150226
5.4760078125 0.7965222176517669 0.6030288577936366
5.47715625 0.797027269636219 0.6043611464223995
5.4783046875 0.7961656120438202 0.6027196699530286
5.479453125 0.795310219260798 0.6013716576739876
5.4806015625 0.7965938837901828 0.6013142837373472
5.48175 0.7969931310702255 0.6009508926235071
5.4828984375 0.7969513698613478 0.6004441994558861
5.484046875 0.7971429329875601 0.6014573620171254
5.4851953125 0.7976181673210079 0.6005681190680475
5.48634375 0.7977118289532266 0.6000762110162583
5.4874921875 0.7972450248070185 0.5992071629185596
5.488640625 0.7979687104288046 0.5983507311375511
5.4897890625 0.7987389213992062 0.5987182861123964
5.4909375 0.7995016637471893 0.5979351425960037
5.4920859375 0.8013967202550044 0.5977215905468387
5.493234375 0.8010543626389712 0.5981061884555237
5.4943828125 0.8013929165369378 0.5976280977766847
5.49553125 0.8019589631664524 0.5986698902086832
5.4966796875 0.8029398095373854 0.5959445080705857
5.497828125 0.8025236201581095 0.5964526185662289
5.4989765625 0.8031214097512669 0.595568369427353
5.500125 0.803303361213994 0.5958701835621694
5.5012734375 0.8041623532921328 0.5974053900071133
5.502421875 0.804040697327317 0.5953829866164865
5.5035703125 0.8056945976962454 0.5950169265279426
5.50471875 0.8041967235597693 0.5953024914892814
5.5058671875 0.8038501388233277 0.5932974902562221
5.507015625 0.8054997295760259 0.5935325120024864
5.5081640625 0.8060558440909578 0.5929424890183388
5.5093125 0.8057245460314224 0.5920410447979216
5.5104609375 0.805723614689291 0.5916414915179744
5.511609375 0.8062622304120737 0.5915808421689507
5.5127578125 0.806207225284184 0.5905259201726656
5.51390625 0.8064764217295896 0.5905710860700868
5.5150546875 0.8059689375980594 0.5901230160645016
5.516203125 0.807173242760557 0.5885518210462987
5.5173515625 0.8072869412852466 0.5883195837334233
5.5185 0.8073979895636088 0.588482195480813
5.5196484375 0.8068609000411432 0.5874202933256788
5.520796875 0.8073333908449423 0.5871698751342576
5.5219453125 0.8076635140151944 0.587006963977043
5.52309375 0.8090712769716772 0.5858787800862064
5.5242421875 0.8091029141605595 0.5858282530126677
5.525390625 0.8093183313156747 0.5866830882155323
5.5265390625 0.8101484360327418 0.5858123704083544
5.5276875 0.8106323489081465 0.5854899122779893
5.5288359375 0.8118462651338673 0.5848907704425437
5.529984375 0.8122042203189311 0.5846988248367313
5.5311328125 0.8120332215976623 0.584579507948467
5.53228125 0.8139165624476469 0.5846321529880212
5.5334296875 0.8143002255983722 0.5833027202935388
5.534578125 0.8133166410249888 0.5840179649166669
5.5357265625 0.8141563984858841 0.5813639538076485
5.536875 0.8132301571275152 0.5819454263998202
5.5380234375 0.8150833845985678 0.5819296903246448
5.539171875 0.8138097385797901 0.581278470811475
5.5403203125 0.8137688563196118 0.5809602534004799
5.54146875 0.8144808104390829 0.5805172660252395
5.5426171875 0.8149609255877815 0.5805962333534086
5.543765625 0.8156166760467185 0.5790962099653698
5.5449140625 0.8158721378511421 0.5789664214076005
5.5460625 0.8148897596539976 0.578168687983773
5.5472109375 0.8149047924113121 0.5787099120603835
5.548359375 0.8157303399945217 0.5785873291831972
5.5495078125 0.8169591531972059 0.5782666374971113
5.55065625 0.8168317408056517 0.5770514123966067
5.5518046875 0.8172755206419852 0.5774347079344132
5.552953125 0.8175323999231423 0.5762648952757794
5.5541015625 0.8180541577456568 0.5760712449540656
5.55525 0.8177095701926321 0.5752469730170093
5.5563984375 0.8190885179343205 0.5745581170987958
5.557546875 0.818799179508528 0.5750194235659187
5.5586953125 0.819626436472114 0.5745903148435578
5.55984375 0.8198904280544331 0.5733325322887259
5.5609921875 0.8206240629658212 0.5738109335550229
5.562140625 0.8204799091010835 0.5725323722247055
5.5632890625 0.8211222085388835 0.5726425239934718
5.5644375 0.8217095496500676 0.5719906239289801
5.5655859375 0.8205363377115892 0.5707815383565865
5.566734375 0.8219717768560156 0.571848870108729
5.5678828125 0.8217737703892025 0.5716042720996523
5.56903125 0.8223666976276338 0.5707168026463821
5.5701796875 0.822330030256891 0.5704145881430748
5.571328125 0.822977205320075 0.5690353425785183
5.5724765625 0.8234336751523069 0.5698023094976575
5.573625 0.8238036130588959 0.5695227630336929
5.5747734375 0.8229334828207098 0.5691867491466638
5.575921875 0.8232447730424454 0.5678320340261606
5.5770703125 0.824025869461939 0.5678038416934774
5.57821875 0.8237169169380268 0.5682889744576459
5.5793671875 0.8243125166319475 0.5673122549773635
5.580515625 0.8242512862645618 0.5663801622770956
5.5816640625 0.8242422121973383 0.5655984347715703
5.5828125 0.8235629061142522 0.566236372926954
5.5839609375 0.8244058239745906 0.5655841331338697
5.585109375 0.8255150740478925 0.5645968559575012
5.5862578125 0.8270131869158013 0.5638843518617106
5.58740625 0.8267777943698872 0.56310564658743
5.5885546875 0.8268966104963019 0.56204930513534
5.589703125 0.8271732337471103 0.5623621480515093
5.5908515625 0.8269197565182959 0.5636475355790833
5.592 0.8288845222426102 0.5615249460974784
5.5931484375 0.8286608585535149 0.5603431139069139
5.594296875 0.829460543529578 0.5590377199645779
5.5954453125 0.8299212579162208 0.5584066052078079
5.59659375 0.8298969278863952 0.5591029818155056
5.5977421875 0.8308783636675197 0.5580297638627809
5.598890625 0.830023418450017 0.5578162098107323
5.6000390625 0.8310355279549448 0.5574802580062618
5.6011875 0.8313131483625844 0.5571191779843331
5.6023359375 0.8308637178995095 0.5569132028039646
5.603484375 0.8310855082879853 0.5560908621131722
5.6046328125 0.8313042079114926 0.5557602584726541
5.60578125 0.8323952012213253 0.5558552348409357
5.6069296875 0.8323002598362752 0.5551497525014626
5.608078125 0.8330893159990826 0.5569017215146936
5.6092265625 0.8330534364177373 0.5564481917020158
5.610375 0.8326289762647063 0.555351082011244
5.6115234375 0.8335685944122087 0.5546744158730821
5.612671875 0.8340536335732811 0.553699325181102
5.6138203125 0.8338193221680801 0.5540981280107231
5.61496875 0.8347938750875145 0.5531201014325888
5.6161171875 0.8357755589036278 0.5522993399812304
5.617265625 0.8358393513903546 0.5516737490109899
5.6184140625 0.8352318643141368 0.5517344172399486
5.6195625 0.8353675174675456 0.5513111596503115
5.6207109375 0.8355387244162868 0.5519774698601384
5.621859375 0.8364617795095002 0.5507319677742528
5.6230078125 0.83554413735445 0.54975572658759
5.62415625 0.8367334810700544 0.5488794805850681
5.6253046875 0.8364992499352516 0.5489858913612705
5.626453125 0.8382078104526298 0.548893146717104
5.6276015625 0.8379907940406646 0.5487011396312615
5.62875 0.8376623995006054 0.5483676666652998
5.6298984375 0.83882897886 0.5478362271926193
5.631046875 0.838325853724738 0.5474733427543963
5.6321953125 0.8384835608803498 0.5479538950423893
5.63334375 0.8396537761416119 0.5472054482625458
5.6344921875 0.8405981996522672 0.54608956627994
5.635640625 0.8400718194387761 0.5453619673568701
5.6367890625 0.8408813176752458 0.545373108749271
5.6379375 0.8414786431894327 0.5456293904798365
5.6390859375 0.8417574571955637 0.544072937917622
5.640234375 0.8417002577698053 0.5450735471462916
5.6413828125 0.8420613407801442 0.5431799677913383
5.64253125 0.8425538702634711 0.5434580846548777
5.6436796875 0.8415444326952962 0.5439655873129776
5.644828125 0.8423991160977208 0.5439443207227318
5.6459765625 0.8419454956557059 0.5425241218811983
5.647125 0.8417641887002183 0.541415297468003
5.6482734375 0.8427473729376724 0.5413954999016668
5.649421875 0.8424256165300371 0.5420322147301146
5.6505703125 0.8432744993491991 0.5407893890605717
5.65171875 0.8428464632120398 0.5395488941380403
5.6528671875 0.8435409898686246 0.5397333060647375
5.654015625 0.842963625263065 0.5392328584306125
5.6551640625 0.8436329669324583 0.5391305714083702
5.6563125 0.8443429386091215 0.5379768392301492
5.6574609375 0.8446839969051722 0.5375861593399685
5.658609375 0.844884674775829 0.5363168772921854
5.6597578125 0.8455926140831198 0.5358843945821585
5.66090625 0.8457220723532833 0.5350666317661567
5.6620546875 0.8464284046267546 0.5356417132411954
5.663203125 0.8465853908565196 0.5342042438874257
5.6643515625 0.8471477060688936 0.533550715567847
5.6655 0.847880877472734 0.5334959035451482
5.6666484375 0.84759628834739 0.5322997265857289
5.667796875 0.8470526421338259 0.5338570671078497
5.6689453125 0.8482888361788579 0.5323900188138919
5.67009375 0.8491781349080902 0.5324943278243534
5.6712421875 0.8494804396384753 0.531302503179275
5.672390625 0.8504362563830125 0.5308608638127837
5.6735390625 0.8499666997335812 0.5320583434614992
5.6746875 0.8507322487119915 0.5312983752276521
5.6758359375 0.850801828148255 0.5307939934536426
5.676984375 0.8510390499335637 0.5296250813822483
5.6781328125 0.8509802607147892 0.5299111240845388
5.67928125 0.8503272146601835 0.5306427371636449
5.6804296875 0.8517651820109411 0.5298813259162685
5.681578125 0.8512732735971701 0.5282583399476706
5.6827265625 0.8521854221097077 0.5279199325272534
5.683875 0.8523731377621402 0.527390689753215
5.6850234375 0.8531354805108021 0.5287414620355511
5.686171875 0.8534954914153927 0.527540705505375
5.6873203125 0.8540371538948297 0.5259204349475768
5.68846875 0.8532826998416939 0.5261941124384453
5.6896171875 0.8550117349540294 0.5243036558109803
5.690765625 0.8546049777642727 0.5248068423887963
5.6919140625 0.8538857727651862 0.5241838344191638
5.6930625 0.8560190681756076 0.5225203031001727
5.6942109375 0.8563084798875422 0.5226953535290626
5.695359375 0.856533531986014 0.5211728574745955
5.6965078125 0.8575298519203093 0.5215235162079819
5.69765625 0.8567396593363233 0.521721104553543
5.6988046875 0.8567942480553792 0.5212381480868249
5.699953125 0.8561970806186316 0.5207929014386845
5.7011015625 0.8566071697803149 0.5207028310409438
5.70225 0.8558928402249838 0.5200926877034477
5.7033984375 0.8566898704837274 0.521768955400834
5.704546875 0.859078784579061 0.5202192502831819
5.7056953125 0.8581446836568977 0.5194215553077405
5.70684375 0.8581020116633575 0.519333733224205
5.7079921875 0.8589152941606024 0.5188992796830383
5.709140625 0.8589566191351596 0.5192345913442065
5.7102890625 0.8584789863762169 0.5182493896122906
5.7114375 0.8598686387988008 0.5169519534413254
5.7125859375 0.8603443674131187 0.5160714336226481
5.713734375 0.859499589686124 0.5165521515173921
5.7148828125 0.8589412029795344 0.5159920199952877
5.71603125 0.859526716360905 0.5154439794312965
5.7171796875 0.8601350043239788 0.5152983510644481
5.718328125 0.8593756748902087 0.5156851657121073
5.7194765625 0.8601164699664309 0.5142499460374299
5.720625 0.8594220823859324 0.5145906612526068
5.7217734375 0.860469222069417 0.5136758953369316
5.722921875 0.8606978749541184 0.5123460509679225
5.7240703125 0.8611295607640221 0.5121985485675673
5.72521875 0.8605393868044406 0.5119818812231034
5.7263671875 0.8601319772870746 0.5116680834330359
5.727515625 0.8604937284076709 0.5119747829379397
5.7286640625 0.8613347265000613 0.5107176978848674
5.7298125 0.8626074148045969 0.5103895574542084
5.7309609375 0.8623651052431238 0.5116064876140552
5.732109375 0.8625530726554524 0.5116195852352405
5.7332578125 0.8636537503604477 0.5130742893771083
5.73440625 0.8646446851091769 0.5115181545732208
5.7355546875 0.8656443874835071 0.5108092771876478
5.736703125 0.866232287356324 0.509940694799008
5.7378515625 0.867053006760453 0.5087963375691251
5.739 0.8676512049010299 0.5083930050268809
5.7401484375 0.8678779322148815 0.5075481675029805
5.741296875 0.8683463814227068 0.5067286444664489
5.7424453125 0.8685017921059992 0.5058667039453487
5.74359375 0.8697136650687861 0.5036138352648993
5.7447421875 0.870006902580943 0.5038376777390765
5.745890625 0.8702277352605551 0.5042083665762822
5.7470390625 0.870486591453948 0.5025036623877293
5.7481875 0.8702171282578953 0.502040999413991
5.7493359375 0.8703926945064863 0.5017264554696266
5.750484375 0.870657529123217 0.5006699578032008
5.7516328125 0.871385967187245 0.5009105823878082
5.75278125 0.8712088551991982 0.49956785443467966
5.7539296875 0.8717469127211878 0.4995339462036523
5.755078125 0.8717494407098441 0.49842622076437587
5.7562265625 0.870622642543442 0.4989865567379029
5.757375 0.871712835280361 0.49786463318655094
5.7585234375 0.872418166429795 0.49635099335674887
5.759671875 0.873491723260566 0.4966310925269699
5.7608203125 0.8737738509969413 0.49621954374134514
5.76196875 0.8740049851910978 0.49533378190570937
5.7631171875 0.8750767888435116 0.4948427479530248
5.764265625 0.8744932624344723 0.49306257235496864
5.7654140625 0.8746339413065121 0.49171468799807
5.7665625 0.8747696985990109 0.49014571778159466
5.7677109375 0.8742415889615447 0.4900661223857287
5.768859375 0.8747827218911671 0.49128907613010264
5.7700078125 0.8742826415854933 0.49032928146305127
5.77115625 0.8744141868314576 0.4898971600678207
5.7723046875 0.8741574548012987 0.489482567919908
5.773453125 0.8739962156703532 0.4899408836013273
5.7746015625 0.8749893788334285 0.4902599203059054
5.77575 0.8749930072558343 0.490131610264258
5.7768984375 0.8745279216209749 0.4895362338190882
5.778046875 0.874309913699574 0.48939487823458844
5.7791953125 0.8743150615724271 0.4893457902170345
5.78034375 0.8750035792904703 0.4907733877782522
5.7814921875 0.8756995560531644 0.4895705443048094
5.782640625 0.8756311202313983 0.4885060551943452
5.7837890625 0.8750178375241316 0.4879499093566947
5.7849375 0.8749861240135812 0.487816506888874
5.7860859375 0.8749218128594225 0.48787084933795233
5.787234375 0.8743948416900651 0.48810066645658023
5.7883828125 0.8751584013162597 0.4872168802507346
5.78953125 0.8746715543711896 0.4867429152281669
5.7906796875 0.8755240158595088 0.4867953850821349
5.791828125 0.8755669530848994 0.48543918596831076
5.7929765625 0.8760511471416579 0.48518200329468875
5.794125 0.8755847124249163 0.4843972205540018
5.7952734375 0.87675285213775 0.4841170779983065
5.796421875 0.8777877915453557 0.48232379400872033
5.7975703125 0.8772450862810648 0.4819996901828545
5.79871875 0.8780083987673002 0.4824367756930384
5.7998671875 0.8788750157934041 0.48113176844582917
5.801015625 0.8792949531637234 0.4807222962525789
5.8021640625 0.8805111589303463 0.4799667225667245
5.8033125 0.8805243696193236 0.48009061397164543
5.8044609375 0.8814321356720181 0.48057060332176865
5.805609375 0.8817510938171487 0.47984154910242255
5.8067578125 0.8815242309043063 0.4784904752308927
5.80790625 0.8824135043051217 0.4783366602865379
5.8090546875 0.8829602696980778 0.47822052989615743
5.810203125 0.8840562771386127 0.4777369414463862
5.8113515625 0.8844600844859043 0.4770808116144798
5.8125 0.8842935172196998 0.476259651970397
5.8136484375 0.884072097469429 0.47563357141933654
5.814796875 0.8833342042540462 0.4751574276566441
5.8159453125 0.8829937422312366 0.4757577266184245
5.81709375 0.8827537901631651 0.47524769801703937
5.8182421875 0.8836284449485602 0.47442931297733737
5.819390625 0.8836363849172664 0.4737543422873387
5.8205390625 0.8837279217016422 0.4737106314413553
5.8216875 0.8838222963486162 0.47393360510078125
5.8228359375 0.8838184693472633 0.4735265807980463
5.823984375 0.8844405809393436 0.4723219500419931
5.8251328125 0.8848898900003643 0.4714832356779843
5.82628125 0.8847797371849649 0.4711263467967846
5.8274296875 0.8855091515789882 0.4708075814070771
5.828578125 0.8864235225109418 0.4704434781668455
5.8297265625 0.8859378455518585 0.47000712612434137
5.830875 0.8874394967006061 0.4684918198762413
5.8320234375 0.8875352511288043 0.4689108198055271
5.833171875 0.8876506891680335 0.4683929639904566
5.8343203125 0.8873296286484 0.4681099945197626
5.83546875 0.8881578471624323 0.46745541418229763
5.8366171875 0.8893935997662221 0.4682764389478655
5.837765625 0.8903509305126617 0.4659921169824185
5.8389140625 0.8916212876369786 0.4654271582366468
5.8400625 0.8911186889291256 0.4656206219638439
5.8412109375 0.8918083103631852 0.46441882336736484
5.842359375 0.8916999345023539 0.4650249291775623
5.8435078125 0.8919714557630269 0.4645740200113155
5.84465625 0.8925027833237897 0.4638081747523439
5.8458046875 0.8923610930209733 0.4642331578025484
5.846953125 0.8924791398709695 0.4638622068337514
5.8481015625 0.8929605778216204 0.4622052832153402
5.84925 0.89346520308244 0.46116295236740756
5.8503984375 0.8937081139286408 0.461924039276885
5.851546875 0.8933634187578098 0.4613193581829583
5.8526953125 0.8927434600790359 0.45992296361859347
5.85384375 0.8937325243752693 0.45890547131408277
5.8549921875 0.8928389337341378 0.4590814662280913
5.856140625 0.8927171204155572 0.4578574916753469
5.8572890625 0.8939114590651916 0.4584025806957673
5.8584375 0.892971559573779 0.4572900096640923
5.8595859375 0.8938394134666324 0.4563274956837792
5.860734375 0.8938081214114915 0.4560339749756223
5.8618828125 0.8940769870795785 0.45454952019028977
5.86303125 0.894098750651303 0.4548505057307023
5.8641796875 0.8939587385414267 0.4542753108758975
5.865328125 0.8936893574560618 0.4546740640412274
5.8664765625 0.8939094691748908 0.4535652248508295
5.867625 0.8934678143746265 0.453112550473364
5.8687734375 0.894331010851575 0.45257202169609184
5.869921875 0.8949412785333105 0.4523749039168625
5.8710703125 0.8953126138174674 0.45288136896261455
5.87221875 0.8947490827738251 0.4520953648672157
5.8733671875 0.8950089288107568 0.4516525457903294
5.874515625 0.8954930623112196 0.451527777509683
5.8756640625 0.8956935849617305 0.4513134692602514
5.8768125 0.8956729573180511 0.4495972680593887
5.8779609375 0.8961670940699037 0.4493777200944727
5.879109375 0.8962448637287552 0.4487641823097621
5.8802578125 0.8958097281995174 0.448807854987892
5.88140625 0.8969595067762854 0.44828191326514866
5.8825546875 0.8965227902844676 0.44838776644385275
5.883703125 0.8967579097393434 0.44861897225614555
5.8848515625 0.8959341358699896 0.44692939921804015
5.886 0.896955531369519 0.4461201700108973
5.8871484375 0.8967077610641649 0.44667970391964495
5.888296875 0.8985784444368193 0.4462301757491174
5.8894453125 0.8983437362630468 0.4450275064585241
5.89059375 0.898713723219103 0.44445949770575643
5.8917421875 0.8980069879313607 0.4445310407451586
5.892890625 0.8988593015950321 0.4437723762968985
5.8940390625 0.90035539316357 0.4448076349383036
5.8951875 0.9016168475717885 0.44332345694968395
5.8963359375 0.900181856773537 0.44261233351701945
5.897484375 0.9011059117202377 0.44230878739735946
5.8986328125 0.9011432041844066 0.44192528461025704
5.89978125 0.9015905799436784 0.442231139150531
5.9009296875 0.902336195248496 0.44034877271784273
5.902078125 0.902001595688926 0.43932181564913825
5.9032265625 0.9018138920674283 0.4389534228217391
5.904375 0.9024385308433953 0.437630409192147
5.9055234375 0.9022267181386432 0.43815758697579416
5.906671875 0.9032324739359383 0.43733015794583463
5.9078203125 0.9040975898311885 0.43671846303296685
5.90896875 0.9042858612556514 0.43605164250355616
5.9101171875 0.9051929846207873 0.43497181208034136
5.911265625 0.9052074770164388 0.43510496969063606
5.9124140625 0.9058701399698453 0.43447220289985744
5.9135625 0.9053356148989873 0.43426446143547615
5.9147109375 0.905331670184205 0.4340781460124654
5.915859375 0.9052282576639843 0.4334307455012884
5.9170078125 0.9047542787644681 0.43299195360060033
5.91815625 0.9054074830307105 0.43305752450000584
5.9193046875 0.9053245280804869 0.4325770216277535
5.920453125 0.9053936463487234 0.4328713875954284
5.9216015625 0.9061717667949964 0.4320371529256783
5.92275 0.9063133420931665 0.43224137056631806
5.9238984375 0.9061316472223193 0.43232133408937556
5.925046875 0.9064384547608764 0.4315634936359565
5.9261953125 0.9060367916156216 0.43067268333033887
5.92734375 0.9059855353464039 0.43028769402655587
5.9284921875 0.9056218276543618 0.42992018081957917
5.929640625 0.9058985860694234 0.4302354050005508
5.9307890625 0.9051178445877133 0.43065726629414347
5.9319375 0.9056476484411793 0.4291477165874005
5.9330859375 0.905950776760485 0.42851253328254
5.934234375 0.9059044519799754 0.42866724552099655
5.9353828125 0.9063431361841928 0.42850456427263883
5.93653125 0.9064514048983863 0.42775916251291723
5.9376796875 0.9065094895474659 0.4269686159281697
5.938828125 0.9072531230337423 0.4260773175674976
5.9399765625 0.9072463328257077 0.42663438290111433
5.941125 0.9072639200683322 0.42689292725724065
5.9422734375 0.908440714428711 0.42713461033455447
5.943421875 0.9083864468518293 0.4262323481193398
5.9445703125 0.907802726900221 0.4262451623651561
5.94571875 0.9083934638709941 0.42544482037662507
5.9468671875 0.9083223180597408 0.42434570653687925
5.948015625 0.9095811658405543 0.4242140510370577
5.9491640625 0.910915801841708 0.42358840652651014
5.9503125 0.9102047517060388 0.4237481683763938
5.9514609375 0.9107237719733982 0.4228764513336416
5.952609375 0.9103386648603402 0.42337964924417604
5.9537578125 0.9107506650551477 0.4228678505404158
5.95490625 0.912054328167352 0.4224835707580121
5.9560546875 0.9130633782244628 0.4215477754810096
5.957203125 0.9131271736688066 0.4211536638048766
5.9583515625 0.9130140190827625 0.42009475651717054
5.9595 0.913003251555036 0.41967811808643235
5.9606484375 0.9122453194713775 0.4188698380072793
5.961796875 0.9125161728043787 0.41877285898196953
5.9629453125 0.9131217703068694 0.41808042898882347
5.96409375 0.9134644652501835 0.4179790596036684
5.9652421875 0.9134806501079831 0.41785071788812045
5.966390625 0.914008524723539 0.4166233570813459
5.9675390625 0.9151359643816119 0.41589192325134205
5.9686875 0.9154124350152909 0.41617233428942957
5.9698359375 0.9145864569858267 0.41529305386101223
5.970984375 0.9141885925280951 0.41570712552012834
5.9721328125 0.9147478191476822 0.41411833594739544
5.97328125 0.9156123143413284 0.4134554375214382
5.9744296875 0.916011595145599 0.41331227652786795
5.975578125 0.9162521162839268 0.41260018119432373
5.9767265625 0.9164698656781117 0.4130391497009782
5.977875 0.9176455210688323 0.4120027500107711
5.9790234375 0.9178433449836938 0.41184386072308876
5.980171875 0.9183049544934456 0.4113007359961331
5.9813203125 0.9184030742502787 0.41064617270912385
5.98246875 0.9186848500215461 0.4106196880524249
5.9836171875 0.9187350325587305 0.4099078232820684
5.984765625 0.919099287191447 0.40958934282162074
5.9859140625 0.9193651401969631 0.40873162646949046
5.9870625 0.9193882819678233 0.40906125297979146
5.9882109375 0.9189767252077178 0.408300038025208
5.989359375 0.9193766355767727 0.4083157886902402
5.9905078125 0.9197952054212748 0.4072390279308966
5.99165625 0.9202240711056614 0.40665753551769634
5.9928046875 0.9208480174272341 0.40558232504598135
5.993953125 0.9202146527669619 0.4056401320393055
5.9951015625 0.9206232083976338 0.4056352555150279
5.99625 0.9206433350004534 0.40483235767128184
5.9973984375 0.9215802243769459 0.404420273784434
5.998546875 0.9219838744178318 0.40451629021089874
5.9996953125 0.9224984527767877 0.40381952004332333
6.00084375 0.9232771996323108 0.4031929672584802
6.0019921875 0.923338553286142 0.4033012240870935
6.003140625 0.9228276630801706 0.40298082002223135
6.0042890625 0.9228811956590003 0.40223645439716194
6.0054375 0.9227659498094386 0.402032334429755
6.0065859375 0.9227693973503556 0.4020550042413593
6.007734375 0.9244409494314402 0.40158704211963997
6.0088828125 0.9241383620327108 0.40097885342246453
6.01003125 0.9244728247720766 0.4008602273643732
6.0111796875 0.92350987330723 0.40141584239184247
6.012328125 0.9248045408012651 0.40150898121932793
6.0134765625 0.925524383358854 0.4009486394932033
6.014625 0.9267007746263487 0.40029325243766634
6.0157734375 0.9269010511612645 0.39966610954158555
6.016921875 0.927442784799316 0.39993370478020407
6.0180703125 0.9283321335812582 0.3991928800026051
6.01921875 0.9294936702778703 0.3983937543196293
6.0203671875 0.9295032119677947 0.3977907598521761
6.021515625 0.930268369928218 0.3971300298590189
6.0226640625 0.9301950036583501 0.3966583201437559
6.0238125 0.9313483759240413 0.3951717995674458
6.0249609375 0.9320772013605102 0.39543183329966064
6.026109375 0.9327668998983212 0.39412088256470834
6.0272578125 0.9332946523163513 0.39248475765466323
6.02840625 0.9335199680448962 0.39151489939823747
6.0295546875 0.9338317518836299 0.3905820835458246
6.030703125 0.9351227522439717 0.38992017142017954
6.0318515625 0.9336603732534131 0.3885286480082177
6.033 0.9337809793425518 0.3877190993346805
6.0341484375 0.933871632159919 0.38686628632843023
6.035296875 0.9327427232400071 0.38723920982524884
6.0364453125 0.9324692371386667 0.38637802246396913
6.03759375 0.9330853955997875 0.38490005583613196
6.0387421875 0.933279186124312 0.3851694940895207
6.039890625 0.9331091865583176 0.3845437593703284
6.0410390625 0.9322852987808719 0.3844294840063559
6.0421875 0.9326331355794155 0.38446446882151997
6.0433359375 0.9329531660969818 0.38461957103319766
6.044484375 0.9330384669144217 0.3829587330783879
6.0456328125 0.9339963251718727 0.38278447598564896
6.04678125 0.9337111988303848 0.3830604010802534
6.0479296875 0.93439554366886 0.3819599497866119
6.049078125 0.9352831442992028 0.38170859225957676
6.0502265625 0.936971206363111 0.3806832289130141
6.051375 0.9368112524195203 0.38020243505915474
6.0525234375 0.9365168714931927 0.379653947518911
6.053671875 0.9365363610538943 0.3791622027282369
6.0548203125 0.9373689664806292 0.37845390261614137
6.05596875 0.9373321264794704 0.3781801244250359
6.0571171875 0.937007550156391 0.37786682299965363
6.058265625 0.9372948912888904 0.37752632225219307
6.0594140625 0.937169674563369 0.3763270671813936
6.0605625 0.9367607283804321 0.37633474286146035
6.0617109375 0.9369936492521002 0.37576987197437495
6.062859375 0.9376581900358105 0.37564996897432784
6.0640078125 0.9384412874125811 0.3743566365813972
6.06515625 0.9383053669953509 0.37408937848923873
6.0663046875 0.9384490839962072 0.37434856335382904
6.067453125 0.93902804137902 0.373524717839754
6.0686015625 0.9382319681445704 0.37316431458622923
6.06975 0.9385256770634253 0.3726646887261461
6.0708984375 0.9382248604381861 0.3730704652529289
6.072046875 0.9395609759935218 0.372499142813214
6.0731953125 0.9393315357259592 0.3714592813120782
6.07434375 0.9393678735193959 0.3714898003154181
6.0754921875 0.9400652359321693 0.37059595872320084
6.076640625 0.9396853844322531 0.370310605895928
6.0777890625 0.9411259715055611 0.3708090944167448
6.0789375 0.9417167376292459 0.3692863748743617
6.0800859375 0.9424914573992957 0.3698840478284332
6.081234375 0.9437186234925816 0.36783420352613017
6.0823828125 0.9440296491845339 0.3665348293027058
6.08353125 0.9447276483881664 0.36632271292483115
6.0846796875 0.944561795694556 0.3660082889014975
6.085828125 0.9447382420237448 0.3650472421496763
6.0869765625 0.9458439114914701 0.36419943490602835
6.088125 0.944764920931885 0.36238927024798545
6.0892734375 0.9458668827666327 0.3617127647867582
6.090421875 0.9460530361043746 0.36140069506842887
6.0915703125 0.9464807577938891 0.3606000071700996
6.09271875 0.9467037338244118 0.3592116774673443
6.0938671875 0.9465926882485103 0.3592492676035639
6.095015625 0.9466934144813125 0.3586775134733166
6.0961640625 0.9463167678411243 0.3579141970547589
6.0973125 0.9460802099421879 0.3567282186769773
6.0984609375 0.9466461396030644 0.3561980947527279
6.099609375 0.946458210072148 0.35597089237255325
6.1007578125 0.9464610282263511 0.355547158683241
6.10190625 0.9467252178844768 0.3544733546221942
6.1030546875 0.9476931210867455 0.3545134221534809
6.104203125 0.9477682069349541 0.35497021612716106
6.1053515625 0.9477233447670967 0.3536283240969394
6.1065 0.9482189456531902 0.35240892646737826
6.1076484375 0.9473570291152305 0.3513129845292385
6.108796875 0.9474261993313816 0.3501600663950216
6.1099453125 0.9470648853653326 0.34943260965731415
6.11109375 0.9473533439037022 0.34944699523203
6.1122421875 0.9469545864502213 0.3490120103019214
6.113390625 0.9476050741421509 0.34864321657115765
6.1145390625 0.94839806248873 0.3483835380983775
6.1156875 0.9484456229659339 0.3479929577959294
6.1168359375 0.9488681337174247 0.3473632379475863
6.117984375 0.948072196558043 0.3465432960303587
6.1191328125 0.9482565884596493 0.3462075011654799
6.12028125 0.9487756142315107 0.34582258961957246
6.1214296875 0.9484655475294056 0.34525616424917316
6.122578125 0.9485451111354524 0.3452987418560183
6.1237265625 0.9488644761003141 0.3437311061004146
6.124875 0.948446116832497 0.34331535356183723
6.1260234375 0.9492560296558937 0.3442242424771493
6.127171875 0.9499526280814626 0.34307149078856597
6.1283203125 0.9498085340262581 0.3420559557293601
6.12946875 0.9501260636149381 0.34116164798028814
6.1306171875 0.9500921150509873 0.34081174407976067
6.131765625 0.9499774538644686 0.3411085002570909
6.1329140625 0.9495540830483734 0.3411014293052704
6.1340625 0.9503476072789105 0.33937120800289733
6.1352109375 0.9493214811988565 0.3386604573374863
6.136359375 0.9506355888866512 0.33759189289972524
6.1375078125 0.950474710453404 0.3385607285586047
6.13865625 0.9507403565175394 0.3375348229584272
6.1398046875 0.9502719006069574 0.33729739811728965
6.140953125 0.949954419798257 0.33638890784801523
6.1421015625 0.9496629236679678 0.3353959934646241
6.14325 0.9498652276726969 0.3351035940302094
6.1443984375 0.9512474331726678 0.3339373960519383
6.145546875 0.9503825173637864 0.3343563341620074
6.1466953125 0.9506058963351381 0.3331478602254511
6.14784375 0.9501075276198283 0.33334174753207557
6.1489921875 0.9508089878233535 0.3326379370279238
6.150140625 0.9510351562163506 0.3317799151857981
6.1512890625 0.9510681615744466 0.3325617817484231
6.1524375 0.9516575032009655 0.3298106683531788
6.1535859375 0.9513896292630222 0.330533697223943
6.154734375 0.9520315833369281 0.32943928076643547
6.1558828125 0.9518555120494568 0.3300170989007983
6.15703125 0.9522660677340239 0.3300434437441687
6.1581796875 0.9524199473920233 0.32922243906903503
6.159328125 0.9526207401434169 0.3284327809857376
6.1604765625 0.9534196082173774 0.3283746141353103
6.161625 0.9535069327463417 0.3273403940424344
6.1627734375 0.9534183801082611 0.32677932516635066
6.163921875 0.9532171864262728 0.32613770714903934
6.1650703125 0.9529758503614234 0.32464421451825864
6.16621875 0.9528903894833725 0.3242819199446179
6.1673671875 0.9536051573520329 0.324648556964805
6.168515625 0.9531616498378606 0.3235309299430757
6.1696640625 0.9533598681907391 0.32303573353403325
6.1708125 0.9534284154596823 0.3219830541063805
6.1719609375 0.9540752627230724 0.3212571511836987
6.173109375 0.954015363512754 0.32131992559552686
6.1742578125 0.9551555782040327 0.3212034652920655
6.17540625 0.9545755952399271 0.3210472300986794
6.1765546875 0.9548824411543346 0.3200196918587368
6.177703125 0.9542252200539328 0.3193990167059577
6.1788515625 0.9547873478169041 0.3194493871597612
6.18 0.9549897885782782 0.3173925915705081
6.1811484375 0.9552800082735255 0.3169277473066983
6.182296875 0.9554850274997202 0.3169060538211955
6.1834453125 0.9540958428342157 0.31579829889338434
6.18459375 0.9556667118541242 0.3160473536652392
6.1857421875 0.9551787269392766 0.31601384604648186
6.186890625 0.9554862344152425 0.3148887962310104
6.1880390625 0.9556139056235339 0.3145825356825923
6.1891875 0.9558093917521573 0.31412973301087577
6.1903359375 0.9552962912714044 0.3132708176021618
6.191484375 0.9563402908030787 0.31346406251203374
6.1926328125 0.9560121430842112 0.3129213454256565
6.19378125 0.956267033949344 0.3128511932534703
6.1949296875 0.9556762587108599 0.3121629798789984
6.196078125 0.9573927184890887 0.31291088100153513
6.1972265625 0.9575851175352016 0.31096354539296117
6.198375 0.9579140966698685 0.3098522274666232
6.1995234375 0.958058313291968 0.3096827931346843
6.200671875 0.9566455834081167 0.30869631829957606
6.2018203125 0.957080587803202 0.3087279526735499
6.20296875 0.9583490651941904 0.3084067032513964
6.2041171875 0.9577158407711653 0.3087664704493854
6.205265625 0.9573472144155267 0.3074813192757474
6.2064140625 0.9573274531509152 0.30631733761095914
6.2075625 0.9579384638739622 0.306701434427768
6.2087109375 0.9582690726554122 0.30599058250470745
6.209859375 0.958279073780968 0.30599387908646114
6.2110078125 0.9587501853147301 0.3047484389944649
6.21215625 0.9586320221477 0.30570695113772406
6.2133046875 0.9586363674079824 0.3039528550866802
6.214453125 0.9595594424012123 0.30199766671554495
6.2156015625 0.9602349289971167 0.3015749862999736
6.21675 0.9611011258469891 0.3014075400879568
6.2178984375 0.9608770399462405 0.301130054512356
6.219046875 0.9597345863428178 0.3000379554354628
6.2201953125 0.9603194098848209 0.2999239706153361
6.22134375 0.9607533108455103 0.2990159520961065
6.2224921875 0.9617518050806749 0.2969183184960076
6.223640625 0.9610903939661755 0.29598523480954597
6.2247890625 0.9618589151156651 0.29417961903992945
6.2259375 0.9614857166986757 0.29546247771547196
6.2270859375 0.9622569189151312 0.2951507970335881
6.228234375 0.9614915619331164 0.2958571480266118
6.2293828125 0.9620493020888929 0.29497274114071415
6.23053125 0.9599881520572788 0.2925948806804719
6.2316796875 0.9608584988888923 0.2923785525563855
6.232828125 0.9611513426098318 0.29229576825116466
6.2339765625 0.9632777825224486 0.2915904185916883
6.235125 0.9624583978795954 0.29083100553064284
6.2362734375 0.9614016829114368 0.2900266856128906
6.237421875 0.9614503491556645 0.28950661678573025
6.2385703125 0.9599342831644051 0.28785296718461795
6.23971875 0.9604699764892753 0.28836817959016847
6.2408671875 0.9605261834108288 0.2878263485108584
6.242015625 0.9600099585323747 0.2877924810392477
6.2431640625 0.9598545137825601 0.28736681206407894
6.2443125 0.9592891586541294 0.2860929023255184
6.2454609375 0.9599644016862748 0.28619907576514525
6.246609375 0.9609482427642904 0.2864443811838783
6.2477578125 0.9595502042903266 0.2863825193602113
6.24890625 0.958296133153403 0.2870498503535589
6.2500546875 0.9598394384375805 0.287040528280116
6.251203125 0.9595615052129489 0.28643638616770956
6.2523515625 0.9600543169775336 0.2852019614356992
6.2535 0.9601230270849691 0.2859071503726077
6.2546484375 0.9597766858883465 0.28403483493850634
6.255796875 0.9603704776601242 0.2838877118654666
6.2569453125 0.9586134069256553 0.28334366385418824
6.25809375 0.958974238743074 0.2830612861742615
6.2592421875 0.9597923099176757 0.28365691911850693
6.260390625 0.9589696979499778 0.28321972931633294
6.2615390625 0.9607940127614094 0.28389152741579815
6.2626875 0.9600117880812731 0.2844151103333825
6.2638359375 0.9617634105381153 0.2828021234987873
6.264984375 0.9621448259324027 0.2824545772612977
6.2661328125 0.9619497276621723 0.2804302375224357
6.26728125 0.9620871980682912 0.2786004863466056
6.2684296875 0.9608199399843969 0.27997972172417873
6.269578125 0.9603838474377645 0.27952866898004636
6.2707265625 0.9603200315855109 0.27968011703528234
6.271875 0.9606687954732984 0.2787807231989823
6.2730234375 0.9601426122377206 0.27875483747648855
6.274171875 0.9608972280936523 0.27970352370351204
6.2753203125 0.9613518054749242 0.27902677482008803
6.27646875 0.9614723289753305 0.27833390326424207
6.2776171875 0.9622189155248344 0.2778957251325607
6.278765625 0.961681583858063 0.2773684413657628
6.2799140625 0.9617153860674312 0.2758916813189134
6.2810625 0.9622641122832093 0.2762878941374258
6.2822109375 0.9631432962381223 0.2769641997415925
6.283359375 0.9630489002822701 0.2764944409446807
6.2845078125 0.9619002763361459 0.27481130731872583
6.28565625 0.963012355811318 0.27564714573396926
6.2868046875 0.9635720316722177 0.27482779922889844
6.287953125 0.9637275784159934 0.2748665715856856
6.2891015625 0.9648586629453854 0.2740217821151246
6.29025 0.9633256022242243 0.27218509130566476
6.2913984375 0.964393612892896 0.2727903943371375
6.292546875 0.9656625058500181 0.2731631529542163
6.2936953125 0.9646859791084844 0.27256218571423485
6.29484375 0.9638901284530352 0.27206523401846233
6.2959921875 0.9640760074034445 0.2700877334035182
6.297140625 0.964582179616631 0.2696475721410768
6.2982890625 0.9657582891502273 0.2693320551526378
6.2994375 0.9665257752640967 0.26868117562111976
6.3005859375 0.9669892430360713 0.2678173234882356
6.301734375 0.9672999003641742 0.2660035202088213
6.3028828125 0.9669956078812404 0.26606187101350304
6.30403125 0.96726717141199 0.2666911078008547
6.3051796875 0.9682073962566481 0.265367257736131
6.306328125 0.9681262876394099 0.26458772229911953
6.3074765625 0.9688928459908394 0.26401982803225665
6.308625 0.9675520420998196 0.2625224206434101
6.3097734375 0.9684038597863058 0.2625000045553837
6.310921875 0.968470086352445 0.26273369405502517
6.3120703125 0.9686113384095493 0.26223201441123334
6.31321875 0.9694933070283984 0.2608616410535208
6.3143671875 0.9680459988557191 0.25765806730745766
6.315515625 0.9692679191991344 0.2594653317186928
6.3166640625 0.9692986741523375 0.26002003305430954
6.3178125 0.9694281994263516 0.2596768809967767
6.3189609375 0.9705313344403862 0.25920726543735817
6.320109375 0.9694935458449327 0.2574899978333397
6.3212578125 0.9692474992315537 0.25723753119633574
6.32240625 0.969464643459324 0.25807478400625417
6.3235546875 0.9708745197147007 0.25786957105992186
6.324703125 0.970531305260151 0.25799953467922526
6.3258515625 0.9695434587286831 0.2553000542088076
6.327 0.9702533456343596 0.2555941146464451
6.3281484375 0.9706666194962178 0.25474875747180126
6.329296875 0.9703038349012321 0.2545591726875813
6.3304453125 0.9717412157745396 0.2540256929873553
6.33159375 0.9708137377894247 0.2525237142359663
6.3327421875 0.971024455284607 0.2532436499918551
6.333890625 0.9715391587143432 0.2532601884408276
6.3350390625 0.9716261004780523 0.2528454408733185
6.3361875 0.9695966560249939 0.25422106406822415
6.3373359375 0.9710177957958906 0.25163794300293596
6.338484375 0.9697549506182975 0.25058015883155305
6.3396328125 0.970221181297618 0.25138823964462415
6.34078125 0.9712404245582898 0.25195279084758726
6.3419296875 0.9710781018201248 0.2509306620666574
6.343078125 0.9705722530027071 0.25016405406134845
6.3442265625 0.9701067638296513 0.2502086926595833
6.345375 0.9708718826436464 0.2493403492493452
6.3465234375 0.9718995324831325 0.2488179009099663
6.347671875 0.972213140862891 0.24863536684061138
6.3488203125 0.971131636137266 0.24859504602441723
6.34996875 0.9712323858773354 0.24659780893430033
6.3511171875 0.9721287985645498 0.24729102663798683
6.352265625 0.972761625084485 0.24730465124507708
6.3534140625 0.9730089663514134 0.24714244017489162
6.3545625 0.9715370817271682 0.24707171518416995
6.3557109375 0.9709054237245386 0.24408592236700716
6.356859375 0.9717636843934999 0.2441355918164465
6.3580078125 0.9726463334404423 0.24377009207970868
6.35915625 0.9724817475998878 0.24330189197683016
6.3603046875 0.9730067023645853 0.24399319424970733
6.361453125 0.9721862366145042 0.2411549064007846
6.3626015625 0.9729451001771616 0.24111562972687642
6.36375 0.972723441291065 0.2404698323836029
6.3648984375 0.9733427419838175 0.241014792009461
6.366046875 0.9730398271982283 0.24053659449660428
6.3671953125 0.9732407950361919 0.23855566335884335
6.36834375 0.9726110940187591 0.2381950304769919
6.3694921875 0.9731003769210337 0.23829836187119577
6.370640625 0.9732009263884732 0.23861474127562676
6.3717890625 0.9727939325431463 0.23701998055440157
6.3729375 0.9724371190693427 0.23676074578379389
6.3740859375 0.9730681227805033 0.2376656340371883
6.375234375 0.9739988253314025 0.23675940612906685
6.3763828125 0.9744448416419182 0.2362579933963249
6.37753125 0.9744601628087514 0.23590078623597427
6.3786796875 0.9754123470859237 0.23466806511345767
6.379828125 0.9754315081777214 0.23381683607311526
6.3809765625 0.9758712765270323 0.23382722354737837
6.382125 0.9761862989831795 0.23372958633481158
6.3832734375 0.9753568300547781 0.23230287982528408
6.384421875 0.9755861132353797 0.23257984733535267
6.3855703125 0.9748585082220262 0.2308107728152042
6.38671875 0.9762088621862992 0.23200373804276236
6.3878671875 0.9762742446723865 0.23194534677983364
6.389015625 0.9769949514356093 0.23262756768617227
6.3901640625 0.9772864796053715 0.23279863179129787
6.3913125 0.9779061429010402 0.2305049712327775
6.3924609375 0.9781082921977304 0.2308882455601138
6.393609375 0.9790818002222119 0.2310021365361337
6.3947578125 0.9803776876123622 0.23000069939172949
6.39590625 0.9802391483807216 0.22945371024024344
6.3970546875 0.9797517289007331 0.22887687827023803
6.398203125 0.979337321954126 0.22908950958778923
6.3993515625 0.9791958108142892 0.228544622372333
6.4005 0.9796909352533973 0.22949720602618115
6.4016484375 0.9798969365784569 0.22729714879259755
6.402796875 0.9792198663204517 0.2275417519145766
6.4039453125 0.9795034011367223 0.22800782397442554
6.40509375 0.9800090923134479 0.2254141389574945
6.4062421875 0.9807586303199016 0.22601566606741838
6.407390625 0.9814472470899711 0.226650013451947
6.4085390625 0.982002830269803 0.22492355058232716
6.4096875 0.9819893831357547 0.22357107900989953
6.4108359375 0.9816135672533366 0.22134033637180767
6.411984375 0.9818394952174205 0.22242998525220836
6.4131328125 0.9827690710112253 0.2215397711383274
6.41428125 0.9826144896713165 0.22068887534826728
6.4154296875 0.9803076115572719 0.22029153497666507
6.416578125 0.9808771605467135 0.21859810734903323
6.4177265625 0.9815437959575175 0.21809266073979156
6.418875 0.9817604878533549 0.2193393350831791
6.4200234375 0.9816203391589465 0.21849683385508062
6.421171875 0.9812304655162717 0.2178184159643193
6.4223203125 0.9802198598708294 0.2155724504872246
6.42346875 0.98025530694206 0.21657384034338653
6.4246171875 0.9804229507587761 0.2163545709305837
6.425765625 0.9801115049069282 0.2161935745318375
6.4269140625 0.9800877485958369 0.21530784016612048
6.4280625 0.9808126520106712 0.21630407424854411
6.4292109375 0.9804051649054779 0.21377759967786647
6.430359375 0.9814976372072435 0.21481151254692996
6.4315078125 0.9821573320978878 0.21665218844716552
6.43265625 0.9842980930354326 0.2147887747215093
6.4338046875 0.9827536241301454 0.21542256330899343
6.434953125 0.9836207179484873 0.21254166829154406
6.4361015625 0.9843988733477125 0.21193295003343882
6.43725 0.98493951803089 0.21163122098606307
6.4383984375 0.9857468843543342 0.20984682819339157
6.439546875 0.9842171554500435 0.20877429072614972
6.4406953125 0.9847231960899381 0.20656362116012905
6.44184375 0.9860415559925184 0.20723742735213635
6.4429921875 0.9850995156826857 0.20574374224307113
6.444140625 0.9860562023042954 0.20483506270645235
6.4452890625 0.9853956580886635 0.20270862660386557
6.4464375 0.9859484694421077 0.20051836400383627
6.4475859375 0.9874280452587729 0.20083219456538592
6.448734375 0.9862811458308833 0.20071620556565417
6.4498828125 0.9861751616823693 0.2016640268040807
6.45103125 0.9864021417856926 0.20090001655993805
6.4521796875 0.9846579812840631 0.20031297868765474
6.453328125 0.9853926182456327 0.20025828155956715
6.4544765625 0.9855807856339992 0.1997137675209168
6.455625 0.9862877785324203 0.19971259218622617
6.4567734375 0.9866071769275441 0.20061381838351722
6.457921875 0.9852330820993301 0.198482819518069
6.4590703125 0.9850279975835249 0.19737644039731672
6.46021875 0.9854484022749801 0.19859399083722057
6.4613671875 0.9855646077743178 0.1975494636126614
6.462515625 0.9865859543714977 0.19689389152768444
6.4636640625 0.987857260214526 0.1965731529882785
6.4648125 0.9873482432766475 0.19510139580030245
6.4659609375 0.9875668968918443 0.1957714884061954
6.467109375 0.9876113896584829 0.1975173425592449
6.4682578125 0.9881755433319436 0.19748612775828905
6.46940625 0.9879119766946034 0.1970455111546192
6.4705546875 0.9866534835872288 0.1947766129641177
6.471703125 0.9879336674654156 0.1963793012146463
6.4728515625 0.9866790825241629 0.19687970740988525
6.474 0.9874944354279833 0.19538125531370243
6.4751484375 0.9879700075969708 0.1946526452125158
6.476296875 0.9882828054354111 0.19309488155620408
6.4774453125 0.9888607829916289 0.1936817317534122
6.47859375 0.9884955393392691 0.19503316787546587
6.4797421875 0.9889359428410167 0.19452665419260723
6.480890625 0.9891572604249574 0.19264345029611007
6.4820390625 0.9881430767080758 0.1906236064854438
6.4831875 0.9878960172964392 0.19008824889666132
6.4843359375 0.9882545782838215 0.1886328593422833
6.485484375 0.9884498848368046 0.18805896347770365
6.4866328125 0.9886401136257716 0.18795109780751887
6.48778125 0.9893898834905872 0.18708573139609957
6.4889296875 0.989242487028409 0.18585943310137634
6.490078125 0.9888442610926128 0.18641514879727505
6.4912265625 0.9890462246144353 0.18541313225419398
6.492375 0.9908645817484469 0.1838373813860743
6.4935234375 0.9902438874323711 0.1821997832646526
6.494671875 0.9894521168742045 0.17988960658620062
6.4958203125 0.9903842599505139 0.18112557225896012
6.49696875 0.9906977715894703 0.18034413219545406
6.4981171875 0.9895604155923275 0.18028138527871895
6.499265625 0.9889627765862781 0.17908007278583987
6.5004140625 0.9888392528926718 0.17854120639283264
6.5015625 0.9886633443041287 0.17887558330613065
6.5027109375 0.9883487947811516 0.17809076287221529
6.503859375 0.9895314744595521 0.17726969431981476
6.5050078125 0.988573624757184 0.17582658388174469
6.50615625 0.9883874543300409 0.1751683382281795
6.5073046875 0.9888003369304719 0.17457709940868943
6.508453125 0.9897056412416386 0.17587390576143475
6.5096015625 0.988376519383408 0.17504293233126114
6.51075 0.9896341343726219 0.17535028016702303
6.5118984375 0.9891488824199578 0.17207564582283888
6.513046875 0.9895928380070187 0.17264037625315487
6.5141953125 0.9893285160295326 0.17307599363871723
6.51534375 0.9909942831257296 0.17202373708548363
6.5164921875 0.990582366743992 0.1713247990022161
6.517640625 0.9905756076392016 0.1700443030467555
6.5187890625 0.9912185663271927 0.1684062638699521
6.5199375 0.9913911804890447 0.16891215912796814
6.5210859375 0.9913337129521633 0.1686954706718621
6.522234375 0.9928790155064572 0.16671204295362138
6.5233828125 0.9912770751991408 0.16574296062893246
6.52453125 0.9914220320875007 0.16451708803206616
6.5256796875 0.9916490996811645 0.16399938991660912
6.526828125 0.9925015047952922 0.16350083888631145
6.5279765625 0.9919419276869638 0.16266921234217951
6.529125 0.9930600653981181 0.16148945445369758
6.5302734375 0.9921051290518634 0.159907563445227
6.531421875 0.9924379616169565 0.16098906454047557
6.5325703125 0.9919663725488657 0.15855954429786043
6.53371875 0.9908666399527162 0.15881713423420038
6.5348671875 0.9917023907604477 0.15920389299627383
6.536015625 0.9908512905141785 0.15721674165850863
6.5371640625 0.9920811814486179 0.15753985492037173
6.5383125 0.9912683940502898 0.15643545334530198
6.5394609375 0.9919756287021319 0.1568439330859212
6.540609375 0.9910656857743145 0.15651529700424713
6.5417578125 0.9906588060445358 0.15505755878227032
6.54290625 0.9909145086141343 0.15492881935487215
6.5440546875 0.9918197212474109 0.15446032213976085
6.545203125 0.9917338637409313 0.15404514215122364
6.5463515625 0.9913222139190261 0.15447695764035935
6.5475 0.9916711238597883 0.15250388032968604
6.5486484375 0.9925046290504109 0.15205594063811056
6.549796875 0.9925665402560071 0.15186973032417755
6.5509453125 0.9925487347590272 0.15155147741576927
6.55209375 0.9915070668085136 0.15113754066093327
6.5532421875 0.9916360906060793 0.14992090024049237
6.554390625 0.9913269448850658 0.14906881594767812
6.5555390625 0.9895847141826448 0.1495665266380101
6.5566875 0.9897266910624484 0.14935785021806722
6.5578359375 0.9897075037799026 0.15060909310509404
6.558984375 0.9901637876551416 0.14846903675189432
6.5601328125 0.9900540729038423 0.14758647355954133
6.56128125 0.9900325445385938 0.14741569216491118
6.5624296875 0.9898163729010203 0.14825917623578524
6.563578125 0.988394909403179 0.1477922074386028
6.5647265625 0.9874770028252633 0.14743853619158948
6.565875 0.9876644983294921 0.14673015671576137
6.5670234375 0.9877278750713724 0.1471016454018068
6.568171875 0.9890256064670825 0.1467369006117201
6.5693203125 0.9888076582169857 0.14684794117784208
6.57046875 0.9879462590741829 0.14686817309250566
6.5716171875 0.9885642427514615 0.14510201151732388
6.572765625 0.9893084413248152 0.1467232326565393
6.5739140625 0.9893099292327687 0.14535469975009174
6.5750625 0.9889715271175441 0.14600785885519157
6.5762109375 0.988925772687832 0.14428480737334137
6.577359375 0.98888816020425 0.1426535574102648
6.5785078125 0.9890309552350544 0.142829122510355
6.57965625 0.9899003542459179 0.1419606724840434
6.5808046875 0.9903390077951477 0.14261485082258746
6.581953125 0.9904588356391821 0.14169977736753467
6.5831015625 0.9895040676795952 0.13906043602685145
6.58425 0.9909594958180382 0.1413007003208175
6.5853984375 0.9907715799557175 0.13987252496028318
6.586546875 0.9909285348906043 0.13944085314564325
6.5876953125 0.9910304887114576 0.13859122652836223
6.58884375 0.9912401776798409 0.1364858284721682
6.5899921875 0.9911348635716136 0.1358624236242844
6.591140625 0.9918103562980832 0.13539699140941214
6.5922890625 0.9917378279731751 0.13463783147724928
6.5934375 0.991365767568176 0.13528176186710064
6.5945859375 0.9910522433928477 0.1348142790523631
6.595734375 0.9910091732466756 0.1330399642919944
6.5968828125 0.992506843132549 0.13349394593808545
6.59803125 0.9935414478310295 0.13297524181217496
6.5991796875 0.9932619097970097 0.1327100055096619
6.600328125 0.9933211700036979 0.13253790175704883
6.6014765625 0.9937101192805498 0.1308729459402408
6.602625 0.9950851736989881 0.1298055539642695
6.6037734375 0.993791499531246 0.12966368404142703
6.604921875 0.9932830625151516 0.12949407388591672
6.6060703125 0.9937956168767877 0.1288505451397711
6.60721875 0.9922699831218598 0.12701287600730995
6.6083671875 0.993316190060992 0.12685630546652446
6.609515625 0.9946906781040861 0.12676133796494388
6.6106640625 0.9946416713329332 0.12794924449505102
6.6118125 0.9944150168850935 0.1272191142311413
6.6129609375 0.9950130549274389 0.12545272584558936
6.614109375 0.9946665283588999 0.12653717604543285
6.6152578125 0.9936888157542386 0.12617241243156224
6.61640625 0.9937076770200924 0.1260954851087031
6.6175546875 0.994620840081457 0.12588641337154655
6.618703125 0.9939219580306867 0.1246059292888208
6.6198515625 0.9933057444501225 0.12530344586430903
6.621 0.9939078332463749 0.12513153537278898
6.6221484375 0.9929442903165477 0.12432919340298748
6.623296875 0.9929006803887646 0.1244586463779988
6.6244453125 0.9932654050126555 0.12287994146649328
6.62559375 0.9934121510850645 0.12176019489747791
6.6267421875 0.9947099928522681 0.12193936294749791
6.627890625 0.9939919721676314 0.12048337599954201
6.6290390625 0.9946738363860024 0.12007632356057119
6.6301875 0.993486206567924 0.1196867715445813
6.6313359375 0.9938782503243764 0.11866763080707726
6.632484375 0.9931227506260215 0.11853978344907162
6.6336328125 0.9938990557580003 0.11844994907650536
6.63478125 0.9948817441341298 0.11779067626145001
6.6359296875 0.9952537685372603 0.11726386066070726
6.637078125 0.9945202775035757 0.1145010681997729
6.6382265625 0.9953562675131001 0.11537560668105057
6.639375 0.9955671312859441 0.11413624357398389
6.6405234375 0.9952222512447608 0.1139400874562938
6.641671875 0.994619449888691 0.1131843652543556
6.6428203125 0.9944526013007555 0.11119732029481372
6.64396875 0.9948543228456552 0.11251331971333328
6.6451171875 0.9942833224121612 0.11284831661197403
6.646265625 0.9942412550662176 0.11243336536618709
6.6474140625 0.9940647620000111 0.11207246663386505
6.6485625 0.993661714595762 0.10946436106642127
6.6497109375 0.9934555953029525 0.10924043674960027
6.650859375 0.9944734682187777 0.10966591844861856
6.6520078125 0.9932065727636994 0.10822563433172422
6.65315625 0.9927742090741468 0.10878927982814485
6.6543046875 0.9929138814653606 0.1068296062890243
6.655453125 0.9935229368144882 0.10706436966778943
6.6566015625 0.9929421406584987 0.10658619601598121
6.65775 0.9929095514827462 0.10574167546605179
6.6588984375 0.9925714998115789 0.10596003828419925
6.660046875 0.9925303468353959 0.10473799988119811
6.6611953125 0.9938986639615432 0.10402053138152689
6.66234375 0.9943358417314544 0.10377147194645278
6.6634921875 0.9932792050783712 0.10310683793358655
6.664640625 0.9924393067436457 0.10276053128163043
6.6657890625 0.9923802984043815 0.10226319857021407
6.6669375 0.9924961758611575 0.10094733995344635
6.6680859375 0.9921777601679906 0.10112373519059153
6.669234375 0.993409222559546 0.10054439115795252
6.6703828125 0.9940304132411402 0.10088659289673416
6.67153125 0.9940902050695999 0.10078319911071942
6.6726796875 0.9936472101821934 0.09815318212414739
6.673828125 0.9944714334198648 0.09857673560137406
6.6749765625 0.993890830848673 0.0979393002721152
6.676125 0.9942781866118324 0.09755891806626368
6.6772734375 0.994103157651197 0.09720342009642371
6.678421875 0.9945846083085776 0.09525964988071145
6.6795703125 0.9941810567160965 0.09629069720423541
6.68071875 0.9959677633727557 0.09531710647598138
6.6818671875 0.9953639511222371 0.09462988954200884
6.683015625 0.9954943197247663 0.09443780907750038
6.6841640625 0.9955447459478792 0.09297903426638532
6.6853125 0.9954109306008765 0.09296700902976165
6.6864609375 0.9953222067879333 0.09306438861270956
6.687609375 0.9947896545453954 0.09275944670608799
6.6887578125 0.9948513512066184 0.09282264693775406
6.68990625 0.9939981617198863 0.09168050242944438
6.6910546875 0.9947858416415012 0.09145467135706756
6.692203125 0.9955225744113835 0.09152232974435189
6.6933515625 0.9959622449002722 0.09099673950200848
6.6945 0.9952765107422774 0.09056280024503735
6.6956484375 0.9961440523143437 0.08925868541175036
6.696796875 0.9952289503512484 0.0881805629444626
6.6979453125 0.9953560993563983 0.08784409350472701
6.69909375 0.9955674324725621 0.08752655646394218
6.7002421875 0.9959001528360858 0.08690977504917152
6.701390625 0.9960139666039678 0.08643715539226852
6.7025390625 0.9962974345423772 0.08385359467553245
6.7036875 0.9958614555823809 0.08442105246615697
6.7048359375 0.9960318346121237 0.08473896367929823
6.705984375 0.9959893432768459 0.08436877766922082
6.7071328125 0.9957696781615369 0.08321913186720002
6.70828125 0.9945229089789608 0.08226731125351064
6.7094296875 0.9950408522460942 0.0843228359777127
6.710578125 0.9940089515202755 0.08317770006110704
6.7117265625 0.9952667201762375 0.08253422938137445
6.712875 0.994845001720474 0.08173824594684548
6.7140234375 0.9950677866898177 0.08006256744834432
6.715171875 0.994880623025342 0.08000630237195028
6.7163203125 0.9945103967693834 0.08002836700724726
6.71746875 0.9944837217420758 0.07973337222363625
6.7186171875 0.9929707387686459 0.07973778993934447
6.719765625 0.9940030047890897 0.0784820423565291
6.7209140625 0.9935072684276254 0.07773235768726172
6.7220625 0.9950565250407071 0.0773258994559922
6.7232109375 0.9954239139194901 0.0770385482590851
6.724359375 0.9944495121673258 0.07659459138119896
6.7255078125 0.9943423027865123 0.07540063963846172
6.72665625 0.9945951422930588 0.07428897648731335
6.7278046875 0.9945489915034836 0.0751428987585546
6.728953125 0.9954448260338068 0.0745683669346455
6.7301015625 0.9955880342450081 0.07406523566380988
6.73125 0.9954769863880022 0.07359515027261679
6.7323984375 0.9952779862584211 0.0720589834492917
6.733546875 0.994989994509586 0.07229829988230115
6.7346953125 0.9957508080109284 0.07212380935485285
6.73584375 0.9951719803402026 0.07119661978591765
6.7369921875 0.9959062674439667 0.07038760171063085
6.738140625 0.9961374822048051 0.0696157736500147
6.7392890625 0.9960270514958365 0.07001514891505624
6.7404375 0.9953332449517344 0.06966586834994651
6.7415859375 0.9960310523028337 0.06908743208881796
6.742734375 0.9961678758601202 0.06909331554079795
6.7438828125 0.9961604773281496 0.06653658413961555
6.74503125 0.9963030823110225 0.06653198504138642
6.7461796875 0.996460566952825 0.0662848072334474
6.747328125 0.9968039445972552 0.06570108700072166
6.7484765625 0.9971955208634199 0.06367637544844149
6.749625 0.9968248192490907 0.06302496906119927
6.7507734375 0.9969704479377931 0.06318139720839529
6.751921875 0.9970704427593585 0.06198615733003289
6.7530703125 0.99730037845237 0.06227140132668615
6.75421875 0.9967961808412071 0.061960704302064795
6.7553671875 0.9963586128325377 0.06190482267127083
6.756515625 0.9970200946994234 0.06147531801440398
6.7576640625 0.9969910798805032 0.0616882909894778
6.7588125 0.997647293425016 0.06112049656932325
6.7599609375 0.9974941236677317 0.06043551854415028
6.761109375 0.9969684771906775 0.06013748371101689
6.7622578125 0.9969423903028218 0.05922168702954593
6.76340625 0.9971561987804061 0.058920293484903116
6.7645546875 0.9971695879635148 0.0588380669751216
6.765703125 0.9973697527468884 0.05816566519490596
6.7668515625 0.9971697944799687 0.056643222336525315
6.768 0.9969301135833195 0.056220529978499016
6.7691484375 0.9964187218136071 0.05629476880431847
6.770296875 0.99636987828015 0.056088842178464604
6.7714453125 0.9966034134975686 0.05499205436905098
6.77259375 0.9973461140560038 0.05471618642468985
6.7737421875 0.996630595645789 0.05336948495986066
6.774890625 0.997538157762985 0.053349362794980454
6.7760390625 0.9976400327921433 0.05344870090538001
6.7771875 0.9982391634724019 0.05322456134100874
6.7783359375 0.9976117150821153 0.05260365360197533
6.779484375 0.9975123947688594 0.050738400430687
6.7806328125 0.9983180806247249 0.05114264301803509
6.78178125 0.9986913712315338 0.04990825663655443
6.7829296875 0.998689412778774 0.04885993353811674
6.784078125 0.9986650180218767 0.048715758177318685
6.7852265625 0.9985690427439581 0.047463664304429706
6.786375 0.9976369893756154 0.04655219225759957
6.7875234375 0.9967477390308866 0.046544011111066125
6.788671875 0.9962577986739956 0.04619385662016534
6.7898203125 0.9971941204507608 0.04469604541954625
6.79096875 0.9958915554284113 0.043455505890368396
6.7921171875 0.994322351874442 0.04399197513607428
6.793265625 0.9943848624586826 0.0433641379784912
6.7944140625 0.9936248105777734 0.04307245399697043
6.7955625 0.9930641596234377 0.04237809370942175
6.7967109375 0.9926866880011815 0.041199000376834605
6.797859375 0.992964914618575 0.041258143946348885
6.7990078125 0.9932748813911757 0.041095537270879834
6.80015625 0.9931258183440458 0.04173574611576952
6.8013046875 0.9923993454865118 0.0412917802197674
6.802453125 0.9924352461180459 0.04236802382592866
6.8036015625 0.9922760186642169 0.04183901837766185
6.80475 0.9934044685877761 0.04075738093900644
6.8058984375 0.9932539288825142 0.041058026649540336
6.807046875 0.9926073473085333 0.0410282865589518
6.8081953125 0.9928920032972969 0.04059280501403542
6.80934375 0.9940487417639013 0.039835648333213264
6.8104921875 0.9942762279666482 0.03960985278677864
6.811640625 0.9937667357833315 0.03900458734214557
6.8127890625 0.9942267052658484 0.03891531488288927
6.8139375 0.9939551284783079 0.038342918969203776
6.8150859375 0.9936214020303732 0.03762750659365541
6.816234375 0.9946131611232992 0.037651913958618194
6.8173828125 0.9954537043098062 0.03691602666829377
6.81853125 0.9957787658369381 0.036433030607383315
6.8196796875 0.9960307428040384 0.0357038684507959
6.820828125 0.9961572821183857 0.03495912328081116
6.8219765625 0.9949317596968076 0.03455602370897096
6.823125 0.9948051462144053 0.034766916892596006
6.8242734375 0.9958005544368304 0.03551896306237026
6.825421875 0.9950405913610905 0.035395500033430616
6.8265703125 0.9953076392756035 0.03466822045737575
6.82771875 0.9959316333674957 0.03449129389332757
6.8288671875 0.9955954810264276 0.03477449790041415
6.830015625 0.9968603996294663 0.03466023486087992
6.8311640625 0.9973825651323955 0.032646461857526815
6.8323125 0.9968892102601925 0.03244658256814606
6.8334609375 0.997231454500398 0.03182298872584338
6.834609375 0.997659400505523 0.032106116215406016
6.8357578125 0.9972227933943725 0.031677845803863985
6.83690625 0.9981894550250153 0.03131268925877975
6.8380546875 0.9980658746725818 0.030558480931312096
6.839203125 0.9979432264323964 0.028916801240783177
6.8403515625 0.9978710397223414 0.029039916322099096
6.8415 0.9979198692202225 0.028690159067348092
6.8426484375 0.9986748403857313 0.027660077918625237
6.843796875 0.9985089128711672 0.027269151839931643
6.8449453125 0.9983312434579381 0.026379708785611203
6.84609375 0.9990650715434919 0.025601303211648246
6.8472421875 0.999032212812838 0.025406618479716647
6.848390625 0.9990044389983199 0.024949487515645935
6.8495390625 0.998921025943607 0.02435471631367464
6.8506875 0.9990299029926427 0.023841048546730206
6.8518359375 0.999380247908969 0.022833793932071023
6.852984375 1.000253204722913 0.022443365944177965
6.8541328125 0.9998764349615638 0.021098675038466297
6.85528125 1.0000948870313375 0.019831545386884447
6.8564296875 0.9999164758593369 0.018742268207451007
6.857578125 0.9998550926937865 0.017495868071294024
6.8587265625 0.9997064245013715 0.017493810562491774
6.859875 0.9995326967575509 0.016940933508854644
6.8610234375 0.9996514284830458 0.01597745425807924
6.862171875 0.9997734567431014 0.015984923858193487
6.8633203125 0.9988520729935301 0.01526852234750279
6.86446875 0.9991219711683947 0.014781931285740658
6.8656171875 0.9982853735445911 0.013973859280251508
6.866765625 0.9971501826436593 0.013164322280747348
6.8679140625 0.9968330914157018 0.013186925320152088
6.8690625 0.9968067911731749 0.012290178583310662
6.8702109375 0.9972078735236414 0.012672318360087226
6.871359375 0.9967430946789676 0.011490469792900831
6.8725078125 0.997568901117408 0.011300252318333308
6.87365625 0.9974799855258303 0.011571475534246527
6.8748046875 0.9973551326614039 0.011046704732965915
6.875953125 0.9965893173522735 0.010433775924812483
6.8771015625 0.9966741363536844 0.01054547851709034
6.87825 0.9962599053891352 0.010894960049436048
6.8793984375 0.9963474524220949 0.010416275354098475
6.880546875 0.9967677812117022 0.010144530009675815
6.8816953125 0.9971426719652143 0.010070432471352836
6.88284375 0.9972867397362436 0.009508253606733116
6.8839921875 0.9977026316167277 0.008759456072081367
6.885140625 0.9978699287426466 0.008432759753111058
6.8862890625 0.9980133177175727 0.007529771008944114
6.8874375 0.9988886949260167 0.006963420906630671
6.8885859375 0.9993500218903357 0.006652125835579004
6.889734375 0.9991798178125875 0.005746790104635802
6.8908828125 0.9993835989064992 0.004723950803092958
6.89203125 1.0001563996838867 0.004360142293629465
6.8931796875 1.0004227033917374 0.003196646560027522
6.894328125 1.0001820276029942 0.0027940095372183393
6.8954765625 1.0005861934280984 0.0016946772803686505
6.896625 1.000106934346142 0.001375648921798811
6.8977734375 1.0001719656144725 0.0007675634529065722
6.898921875 0.9996956283923512 -0.00016371239752416278
6.9000703125 1.0002033632127212 -0.000709496657056552
6.90121875 1.0000049695019124 -0.0008979419468827521
6.9023671875 1.000480205804923 -0.0015730363653436996
6.903515625 0.9995694588194404 -0.0017154311331620264
6.9046640625 1.0003625859047516 -0.0026228892187183106
6.9058125 1.0004740349775187 -0.0035986102689355426
6.9069609375 1.0002530546474289 -0.003510994759275937
6.908109375 0.9992359275333413 -0.004085908282577794
6.9092578125 0.9993375094903625 -0.0040711758000153975
6.91040625 0.9997181212199386 -0.005060939675640697
6.9115546875 0.9991700921973268 -0.005828126992597188
6.912703125 0.9992618870417529 -0.006158467572808635
6.9138515625 0.9993890857493839 -0.007653138776911372
6.915 1.0001208941150463 -0.007741390197400055
6.9161484375 1.0002930975675979 -0.008201539765784
6.917296875 0.999965666791526 -0.009442341286083594
6.9184453125 0.9998247438731228 -0.008787503480535946
6.91959375 0.9992783914530341 -0.009163415637366584
6.9207421875 0.9997894072388614 -0.009775453246716276
6.921890625 0.999800792250586 -0.011230637429677282
6.9230390625 0.999850019911799 -0.011185531990291098
6.9241875 0.9997827501847346 -0.0111028568258284
6.9253359375 0.9994137510455017 -0.011564280861120685
6.926484375 0.9994014336588339 -0.012339312503871436
6.9276328125 0.9995148033454111 -0.012976253165427193
6.92878125 0.9990941630008486 -0.013926952460314168
6.9299296875 0.9988157471694581 -0.014862734504421826
6.931078125 0.9994938679831737 -0.015530247530807173
6.9322265625 0.9986454875700327 -0.015551016875612556
6.933375 0.9985587822943562 -0.015676409391766455
6.9345234375 1.000002329641975 -0.016669084516106214
6.935671875 0.9995602835296042 -0.016651570267521537
6.9368203125 0.9995222310019307 -0.017450685059833937
6.93796875 0.9994984019854489 -0.01810081587217771
6.9391171875 1.0003057019751975 -0.019365938576731023
6.940265625 1.0005118345327702 -0.020453222960714668
6.9414140625 0.9996644191973826 -0.020206498176690457
6.9425625 0.9992951347181038 -0.020727378108362532
6.9437109375 0.9994174157057834 -0.0218574566288654
6.944859375 0.9990599680703116 -0.02169565930669981
6.9460078125 0.9993462079658532 -0.02222794203777781
6.94715625 0.9994083358463045 -0.02294308456395583
6.9483046875 0.9985444823223542 -0.022383240095207924
6.949453125 0.9987956474641967 -0.022915291306037866
6.9506015625 0.9977596445702119 -0.0233785308201947
6.95175 0.9995363554807123 -0.02384747658981444
6.9528984375 0.9992024152228265 -0.02421846258751323
6.954046875 0.9990891949736884 -0.025067433283492493
6.9551953125 0.9984055379819159 -0.02594330756063845
6.95634375 0.9980021587511957 -0.025892811962112836
6.9574921875 0.9979272786009795 -0.026944276729950284
6.958640625 0.9978472064461481 -0.02721558171469389
6.9597890625 0.9984168637579166 -0.027544757354917876
6.9609375 0.999008847046756 -0.027494455738658545
6.9620859375 0.998958509122522 -0.028668317787142503
6.963234375 0.9984090911111532 -0.028809893495967014
6.9643828125 0.9984678291201388 -0.02913019178400475
6.96553125 0.998896433089928 -0.030013888953265476
6.9666796875 0.9991087720898718 -0.031013460177986802
6.967828125 0.9987088684144468 -0.03147091604872955
6.9689765625 0.9990637387250279 -0.03208478948397813
6.970125 0.9989490648223638 -0.03283610949798656
6.9712734375 0.9981553932092659 -0.032231090408103125
6.972421875 0.9983796492816562 -0.033378794588449626
6.9735703125 0.9982448052998887 -0.0340605821094396
6.97471875 0.9983131118330388 -0.0344653329322616
6.9758671875 0.9984759038905265 -0.035351069747724055
6.977015625 0.9979579135898946 -0.035715630966481116
6.9781640625 0.9979403249607055 -0.03572319788491049
6.9793125 0.9981431706205987 -0.03652555120154672
6.9804609375 0.9981231239230418 -0.03707038084858813
6.981609375 0.9983739815882543 -0.037399700972643134
6.9827578125 0.9984529041930377 -0.0374797606669468
6.98390625 0.9984599676808521 -0.03806586219201283
6.9850546875 0.9984843839692957 -0.03919065123332389
6.986203125 0.9989931614067101 -0.039490269048388454
6.9873515625 0.998744264142311 -0.039551321718478194
6.9885 0.9983386928122122 -0.03978569448924882
6.9896484375 0.9987288318963838 -0.04078038545533988
6.990796875 0.9982602866500991 -0.04120108078398828
6.9919453125 0.9980291659347265 -0.04186613307653189
6.99309375 0.9979243022139879 -0.04272495774530968
6.9942421875 0.9979808612593479 -0.04289394689570644
6.995390625 0.9980580737325062 -0.04301584888707026
6.9965390625 0.9981506638520907 -0.04490177331489066
6.9976875 0.9980444585133847 -0.04394731421253242
6.9988359375 0.998613570417643 -0.0446925555575889
6.999984375 0.9980807602107902 -0.04505549521077323
7.0011328125 0.9984594087206226 -0.04633747305004243
7.00228125 0.9975898306981645 -0.04573505698615196
7.0034296875 0.9977643211044328 -0.04630027590114352
7.004578125 0.9982026243309807 -0.04727407497792786
7.0057265625 0.9977306876603278 -0.04755439615325148
7.006875 0.9977367188995521 -0.04836579452210074
7.0080234375 0.9981333310146381 -0.04876105568527897
7.009171875 0.9976461361080258 -0.04964483856265199
7.0103203125 0.9976190129862124 -0.0495093931992371
7.01146875 0.9982913187490126 -0.050296632239410596
7.0126171875 0.9982512126233645 -0.05010013323301586
7.013765625 0.9979276301696342 -0.050739098574850525
7.0149140625 0.9977115237962502 -0.052278998165183097
7.0160625 0.9977061577549715 -0.05153059255653178
7.0172109375 0.998211018377125 -0.0516987700308571
7.018359375 0.9980326099202643 -0.05257153550861482
7.0195078125 0.9980841859204458 -0.05286021989454301
7.02065625 0.9987393793233548 -0.053381968159759846
7.0218046875 0.9988484607717496 -0.05377837476247789
7.022953125 0.9993650338712222 -0.05464899179828585
7.0241015625 0.9988668109393695 -0.055540849162081
7.02525 0.998646138330936 -0.05637414064206442
7.0263984375 0.9986761173993617 -0.05662524769652595
7.027546875 0.9983816732168249 -0.05733751749176855
7.0286953125 0.9986106244270594 -0.057498838869460056
7.02984375 0.9983242486146261 -0.057417277175203174
7.0309921875 0.998004835643392 -0.058170363488372845
7.032140625 0.9971769190484807 -0.058738153418990996
7.0332890625 0.9976199283179947 -0.05917359318631965
7.0344375 0.9988210209828086 -0.06050145673665673
7.0355859375 0.9986669232652781 -0.06055900069370438
7.036734375 0.9984805461729696 -0.06092406366039013
7.0378828125 0.9987199343718061 -0.0620015513546521
7.03903125 0.9990279095400276 -0.06207374142605093
7.0401796875 0.9988494866502555 -0.06209302895976776
7.041328125 0.9987556129296176 -0.06326934974780263
7.0424765625 0.9990927849023525 -0.0636202374725566
7.043625 0.9988996777342031 -0.06426819933029124
7.0447734375 0.9994968117935058 -0.06534102712080005
7.045921875 0.99933245528106 -0.06587530446390095
7.0470703125 0.9999022530510259 -0.06574249115635727
7.04821875 0.9989440052188094 -0.06557630848937009
7.0493671875 0.9993438425793233 -0.06703749117069728
7.050515625 0.9984976085685426 -0.06740830452692119
7.0516640625 0.9983537914946544 -0.06833300275701912
7.0528125 0.9995798328399823 -0.06858108737952984
7.0539609375 0.9987023346012884 -0.06979546013062736
7.055109375 0.9991577590134098 -0.07016915327042794
7.0562578125 0.9993059996429325 -0.0707666459157601
7.05740625 0.9988097035582586 -0.07040136399755578
7.0585546875 0.9989865210210718 -0.06983719403113711
7.059703125 0.9990861470530594 -0.07138719898354534
7.0608515625 0.9991496898402974 -0.07205269753088167
7.062 0.998945325027583 -0.0723840920283175
7.0631484375 0.9985902346112071 -0.07293740701959908
7.064296875 0.9992111920419463 -0.07285845005404451
7.0654453125 0.9990167101900053 -0.07305945660441732
7.06659375 0.9990430648079923 -0.073223117944056
7.0677421875 0.999786877124955 -0.07432074365011804
7.068890625 0.9994933624460258 -0.07514372794824747
7.0700390625 0.9993202348000401 -0.07508115543056265
7.0711875 0.9993245054701245 -0.0761720191413473
7.0723359375 0.9994392615322545 -0.07643902762411839
7.073484375 0.9990172380076536 -0.07661369048672306
7.0746328125 0.9989114193714757 -0.07662529241591648
7.07578125 0.9996768672418411 -0.07772197111085236
7.0769296875 1.0002786350084634 -0.07919401122272957
7.078078125 0.9995631510297054 -0.07944564609830407
7.0792265625 0.9993162601233704 -0.08052905515184788
7.080375 0.9987595463361185 -0.0807551538957354
7.0815234375 0.9986340402374503 -0.08137426362341216
7.082671875 0.998647950403486 -0.08230058803977675
7.0838203125 0.9987049129177066 -0.08261264846572569
7.08496875 0.9986575741949169 -0.08288649742435411
7.0861171875 0.9985545112888438 -0.08443603745475992
7.087265625 0.9981954518957444 -0.08402783524210933
7.0884140625 0.9989022323355548 -0.0840865183460211
7.0895625 0.9980463070030791 -0.08453953149607879
7.0907109375 0.9986222593777547 -0.08647602701247425
7.091859375 0.9978230629847666 -0.08588684839656507
7.0930078125 0.9979413063256535 -0.08648094325405326
7.09415625 0.9981699515060408 -0.08631583325763742
7.0953046875 0.9990625456373042 -0.08646786510497606
7.096453125 0.9985146880974751 -0.0865964796286105
7.0976015625 0.999474513899768 -0.08741241341386785
7.09875 0.9990610310378772 -0.0885290322553417
7.0998984375 0.9984855268934927 -0.0882351775659696
7.101046875 0.9983824108893192 -0.0888439514726066
7.1021953125 0.9992220862601071 -0.09049691415587657
7.10334375 0.998796057427899 -0.09117635086927317
7.1044921875 0.9981521914186644 -0.0922288617699174
7.105640625 0.9997631872732421 -0.09286233172336833
7.1067890625 0.9977926179551282 -0.0934333046537617
7.1079375 0.9973503997088906 -0.09353254776220443
7.1090859375 0.9972336786076386 -0.0948945616090136
7.110234375 0.9977813442993756 -0.09420777723443716
7.1113828125 0.9989481501024742 -0.09532025906534874
7.11253125 0.9989093647765468 -0.09573314540038025
7.1136796875 0.9984149700454088 -0.09561438705106204
7.114828125 0.9988384729542615 -0.09631726423066939
7.1159765625 0.9983941914230738 -0.09737949793534606
7.117125 0.9982041226321143 -0.09832344572171048
7.1182734375 0.9987159584905585 -0.0983988318367838
7.119421875 0.9982376805766663 -0.09851332794284454
7.1205703125 0.9982536843846488 -0.098901018979351
7.12171875 0.9980020083256756 -0.09913065021569914
7.1228671875 0.9985237543275708 -0.09873219951500936
7.124015625 0.9982363353889221 -0.09855216525892985
7.1251640625 0.9979653978711039 -0.09950008035077834
7.1263125 0.9982137399327804 -0.10035924457222287
7.1274609375 0.9988434648988116 -0.10046643806137745
7.128609375 0.9992286430269679 -0.10115986610750649
7.1297578125 0.9997662371594037 -0.10117978507147447
7.13090625 0.9990187053498119 -0.10098598868469812
7.1320546875 0.9998656954103384 -0.10390408294442019
7.133203125 0.9998926356163986 -0.10371892684726884
7.1343515625 1.0003517753511266 -0.10420780796508475
7.1355 1.000138122806868 -0.10484845113933759
7.1366484375 1.000167544024194 -0.1052322647556176
7.137796875 1.0006304494313165 -0.10619661949360268
7.1389453125 1.0009900660193047 -0.10754394002772352
7.14009375 1.0010019478572014 -0.10863710926466183
7.1412421875 1.0004803971947978 -0.10957383295615557
7.142390625 1.0004096993695046 -0.10895252353183438
7.1435390625 1.0005662613679935 -0.11085206873665776
7.1446875 0.9999488029540939 -0.11220140017250868
7.1458359375 1.0009900006960255 -0.11347606832106497
7.146984375 1.0014997316423517 -0.11503941437183025
7.1481328125 1.0011681131530858 -0.11496681309419865
7.14928125 1.0006247137361415 -0.11630678850698038
7.1504296875 0.9992971663147678 -0.1178841742026571
7.151578125 0.9995270474688474 -0.1179099648655112
7.1527265625 0.998801242513306 -0.1180822868969179
7.153875 0.9997912867315359 -0.11916358896692747
7.1550234375 0.9993790319743884 -0.12056621503876094
7.156171875 0.9990988300125551 -0.12178431750344064
7.1573203125 0.9988880869343961 -0.12212384132443015
7.15846875 0.9980187942171137 -0.12169942742914018
7.1596171875 0.9986249372160603 -0.12157237358973522
7.160765625 0.997410382944673 -0.1223336816817168
7.1619140625 0.9965979436601302 -0.1231858880602884
7.1630625 0.9956367636890973 -0.12398350104657244
7.1642109375 0.9952645065511581 -0.12497544088175425
7.165359375 0.9945751565136464 -0.12448506979540236
7.1665078125 0.9949820036136368 -0.12517625884061034
7.16765625 0.994165104565585 -0.124529427208035
7.1688046875 0.9937124008148904 -0.1245669541407636
7.169953125 0.9937941367408321 -0.12493000285741404
7.1711015625 0.9941733238566312 -0.12496324778365797
7.17225 0.9936629315368481 -0.12548976622839259
7.1733984375 0.9938604286899541 -0.12535537342365047
7.174546875 0.9923206165194972 -0.1254656660367191
7.1756953125 0.9926406949441478 -0.1265928092009887
7.17684375 0.9932375965053308 -0.1274663603791182
7.1779921875 0.9931729316657725 -0.12650147646071166
7.179140625 0.992588913636614 -0.12709013678168335
7.1802890625 0.9931267403433748 -0.12752495474313374
7.1814375 0.9929811139254703 -0.1277881065494133
7.1825859375 0.9932154767379116 -0.12821001460552778
7.183734375 0.9942157293406793 -0.12841164295715257
7.1848828125 0.9937448477052382 -0.1278173041828387
7.18603125 0.9926814555856622 -0.12940324848855617
7.1871796875 0.9925587054705973 -0.12919667128181386
7.188328125 0.9929029291025957 -0.1293168598672771
7.1894765625 0.9938305232052507 -0.12844566585217534
7.190625 0.9942692092472069 -0.1293510627149101
7.1917734375 0.9947431415078657 -0.13051547425277854
7.192921875 0.994520224162832 -0.13096244694735334
7.1940703125 0.9952283758915714 -0.13090061985752288
7.19521875 0.9958567380801367 -0.1307700439362491
7.1963671875 0.9954263284163334 -0.13175318892038373
7.197515625 0.9957519444314236 -0.1327879797317772
7.1986640625 0.9959006997829345 -0.13252877446547318
7.1998125 0.995660034247335 -0.13321817169983421
7.2009609375 0.9967383255270945 -0.13331272161648283
7.202109375 0.9961665906979175 -0.13339229875241798
7.2032578125 0.9970138948035281 -0.13477588821949757
7.20440625 0.9966399764756553 -0.13578830762086477
7.2055546875 0.9957691669077338 -0.13650380303080606
7.206703125 0.9948047512040876 -0.13725726191953622
7.2078515625 0.9952552652708059 -0.13801303565285686
7.209 0.9961829264876478 -0.1386134376416932
7.2101484375 0.9958888519944673 -0.13859752277008403
7.211296875 0.995148485644009 -0.13876009599415082
7.2124453125 0.9954570483559585 -0.13885407754873233
7.21359375 0.9962290818614699 -0.13858358978494256
7.2147421875 0.9960783336220911 -0.14029982500346075
7.215890625 0.996437921922172 -0.1411220169259436
7.2170390625 0.9956938088973666 -0.14199286552894638
7.2181875 0.9968059600209315 -0.14291772261837693
7.2193359375 0.9979266662571309 -0.14277544215608656
7.220484375 0.9967153678968692 -0.14372585382926195
7.2216328125 0.9971741572831108 -0.14398822673713516
7.22278125 0.9966326314442806 -0.14469306176922486
7.2239296875 0.9970861940891849 -0.14596310746905505
7.225078125 0.9968710760186079 -0.14537839247799322
7.2262265625 0.9973733516797179 -0.14566588460745417
7.227375 0.9977197562177065 -0.14699889029472013
7.2285234375 0.9982775604905414 -0.14815507134929423
7.229671875 0.999449847015874 -0.14977975304498553
7.2308203125 0.9991222815491975 -0.14834781116912385
7.23196875 0.9980546131552874 -0.14893961882400814
7.2331171875 0.9970426405278305 -0.1498704445495675
7.234265625 0.9993719342666993 -0.15044404854667562
7.2354140625 0.9991766839907635 -0.15045309240599147
7.2365625 0.9999060391570167 -0.15048371388246257
7.2377109375 1.0008186054631418 -0.1522263109239183
7.238859375 1.000313319756689 -0.15342124066342688
7.2400078125 1.0003853248224135 -0.15487782520527543
7.24115625 1.000439781531322 -0.15592934908457795
7.2423046875 1.0009553138688545 -0.15689009586232083
7.243453125 1.0013996445057936 -0.1580699111287137
7.2446015625 1.0019513948048495 -0.16004838638730057
7.24575 1.0013550981293613 -0.16197378876782825
7.2468984375 1.0007621541478424 -0.16249044175039373
7.248046875 0.9996384981268578 -0.16390044030719836
7.2491953125 1.0006005705237717 -0.16414349994096905
7.25034375 0.9983670577062207 -0.1656057049441269
7.2514921875 0.997728193787451 -0.16651108321683633
7.252640625 0.9980357634290625 -0.16849448901893355
7.2537890625 0.997827246959097 -0.1682412554820138
7.2549375 0.9981703424907127 -0.16753483501033528
7.2560859375 0.9957122807921724 -0.1691575260972351
7.257234375 0.9952875483174862 -0.17010095139042403
7.2583828125 0.994126517263761 -0.17160493204643368
7.25953125 0.9938341440898437 -0.172281383078559
7.2606796875 0.9943049638751199 -0.1718594252605195
7.261828125 0.9927148525367797 -0.17247092106494633
7.2629765625 0.9922127772842806 -0.17354461581237945
7.264125 0.9921854481650199 -0.1750859048736894
7.2652734375 0.9921944588843234 -0.17468954295333794
7.266421875 0.9904865049482516 -0.17485563639896629
7.2675703125 0.9906134448647048 -0.17447771211131707
7.26871875 0.9883149930991468 -0.17601197413840697
7.2698671875 0.988985312166905 -0.17548286344162395
7.271015625 0.9894168943514061 -0.17659974587537353
7.2721640625 0.9897546427519757 -0.1771397266537837
7.2733125 0.9899462739130225 -0.1769213490449819
7.2744609375 0.9913160625499876 -0.1783940618430953
7.275609375 0.9901687651214295 -0.17870699996774408
7.2767578125 0.9891329779525349 -0.17898529292556142
7.27790625 0.989661232777057 -0.17886355636821177
7.2790546875 0.9897872342561796 -0.17848989491396305
7.280203125 0.9889899396279945 -0.1786517047870504
7.2813515625 0.9888452389697767 -0.1801887650117695
7.2825 0.9879473034847535 -0.1819242296535098
7.2836484375 0.9871530286869467 -0.18270509091932555
7.284796875 0.9883561789475248 -0.18164835948447808
7.2859453125 0.9874521158471063 -0.18256005070611048
7.28709375 0.9872625756332786 -0.18260724028715064
7.2882421875 0.9865257430435647 -0.18342549052818288
7.289390625 0.9866165037078072 -0.18455257955094292
7.2905390625 0.986924009052272 -0.18360361224587146
7.2916875 0.9862529557662175 -0.18385321387678832
7.2928359375 0.9861834917811793 -0.18499164373977792
7.293984375 0.986645889863341 -0.18537250926565613
7.2951328125 0.9867578836361371 -0.18559270529519445
7.29628125 0.9861540705262279 -0.1856697620742973
7.2974296875 0.9863871267588037 -0.18613233004029636
7.298578125 0.9859655987320614 -0.186931395100694
7.2997265625 0.9853705942884788 -0.18717965706517753
7.300875 0.9854554570345783 -0.18738081447164034
7.3020234375 0.9853804219079981 -0.18703099382300514
7.303171875 0.9856621123548359 -0.18802320450044863
7.3043203125 0.9844270473391838 -0.18789228008610007
7.30546875 0.984765317733989 -0.1876848199615348
7.3066171875 0.9854537217969616 -0.1903215083435416
7.307765625 0.9861786836715049 -0.18970202720154478
7.3089140625 0.986006500737255 -0.1902388547796794
7.3100625 0.9846356231382092 -0.1900841650785569
7.3112109375 0.9841481686417459 -0.19015555007764934
7.312359375 0.9833983627618631 -0.1895741577456184
7.3135078125 0.9834110550391755 -0.19006841366592028
7.31465625 0.9833159433879332 -0.18936657321488087
7.3158046875 0.9827483084700848 -0.19004306341912774
7.316953125 0.9838151943493024 -0.19114068111706095
7.3181015625 0.9831313609268915 -0.1911729401797864
7.31925 0.9837869004790326 -0.19120562808024813
7.3203984375 0.9847456183278136 -0.18999736961621772
7.321546875 0.9840605943802576 -0.19190551100107334
7.3226953125 0.9844878536783225 -0.19142050744438893
7.32384375 0.9848205341483056 -0.1915975877347017
7.3249921875 0.9846358900472492 -0.19278082467429222
7.326140625 0.9852551542884369 -0.19223669581227573
7.3272890625 0.9856804660591028 -0.19401201288611244
7.3284375 0.9853574252440978 -0.19516167428212633
7.3295859375 0.9861358237161543 -0.1956891593932735
7.330734375 0.9847360247846385 -0.19681025295367616
7.3318828125 0.9857318750118171 -0.19600167024675988
7.33303125 0.98475967038775 -0.19834355556658184
7.3341796875 0.984623364640533 -0.19905805334877613
7.335328125 0.9859686975546924 -0.19948718960265913
7.3364765625 0.9852934460342313 -0.20008184976444318
7.337625 0.9868529757453463 -0.19955917163551665
7.3387734375 0.9863588076070836 -0.20156480625537027
7.339921875 0.9872552640601899 -0.201641049059415
7.3410703125 0.9872333980778936 -0.20258291087192035
7.34221875 0.9868133150617818 -0.20343245505244223
7.3433671875 0.9853778000155491 -0.20338225834825907
7.344515625 0.9849882767361317 -0.20424406914917687
7.3456640625 0.9847817691742834 -0.2059703760704274
7.3468125 0.9845569346065021 -0.20668071793435788
7.3479609375 0.9846944605442166 -0.2077127694523155
7.349109375 0.9844374124910769 -0.20832448977393697
7.3502578125 0.9851018526035675 -0.20869128745765345
7.35140625 0.9841508701676277 -0.21051819216896914
7.3525546875 0.9840589370316063 -0.20933312514693211
7.353703125 0.9839798033177074 -0.21106590249258972
7.3548515625 0.9837327609958506 -0.2126740916874595
7.356 0.9850221896861189 -0.21286055623141417
7.3571484375 0.9835591269047953 -0.21357339126192876
7.358296875 0.9828256836343012 -0.21335983086409366
7.3594453125 0.9832074162942793 -0.21539409681579055
7.36059375 0.9838879629345593 -0.21708663395991867
7.3617421875 0.9835481973392524 -0.21567914065031094
7.362890625 0.9823288625886929 -0.21691093268299602
7.3640390625 0.9832619658042259 -0.21644454201640934
7.3651875 0.9841992704912177 -0.21746445713540635
7.3663359375 0.9835458016783647 -0.2191113451883122
7.367484375 0.9828353441238042 -0.21847290526913773
7.3686328125 0.9827561870060885 -0.21870812599562994
7.36978125 0.9812494642668905 -0.21842640099792138
7.3709296875 0.9810658276653801 -0.21826903519163873
7.372078125 0.9822574530666865 -0.22006273848485278
7.3732265625 0.9838927603081997 -0.2194821217620956
7.374375 0.9834539203125837 -0.21920850630853103
7.3755234375 0.982669361296731 -0.22122067762819453
7.376671875 0.9827514398834362 -0.22332922863707289
7.3778203125 0.9824241516815269 -0.22331563915686975
7.37896875 0.9830041581780993 -0.2235398512206725
7.3801171875 0.9837200223618241 -0.22400216390538744
7.381265625 0.9835616225998025 -0.22538277008455693
7.3824140625 0.984373780369348 -0.22615142633316848
7.3835625 0.9838948477334977 -0.22654986351074397
7.3847109375 0.9838264378618349 -0.2270300763409322
7.385859375 0.9851122492421267 -0.22740579849783474
7.3870078125 0.9842351988664344 -0.22957538703731742
7.38815625 0.9833303596724734 -0.23079113709467136
7.3893046875 0.9832238844346624 -0.23174930205582694
7.390453125 0.9833401527450257 -0.23275479703426502
7.3916015625 0.983077197020621 -0.23231068578082914
7.39275 0.9823530846167068 -0.23329964540276132
7.3938984375 0.9805853914175553 -0.23313911548513577
7.395046875 0.9800003492953706 -0.23455112997083094
7.3961953125 0.980169704684893 -0.23508887897901282
7.39734375 0.9812341747449711 -0.23519919554228796
7.3984921875 0.9800642723709171 -0.23586804030459824
7.399640625 0.9795714435578534 -0.238085366653287
7.4007890625 0.9788563445717802 -0.23783140829487837
7.4019375 0.9772827712243248 -0.2390261030976638
7.4030859375 0.9773543296178049 -0.23866409135116906
7.404234375 0.976674056876178 -0.2403886146831576
7.4053828125 0.9756319725562314 -0.24027213079207432
7.40653125 0.9754643210947619 -0.24099797296399006
7.4076796875 0.9750482793322781 -0.2414175540491465
7.408828125 0.9747033843858 -0.24080396512701996
7.4099765625 0.9742670326995662 -0.2406736090772046
7.411125 0.9719700112842569 -0.24213688434305947
7.4122734375 0.9720618246486676 -0.24226750957274934
7.413421875 0.9709931776267067 -0.24169628812378452
7.4145703125 0.9706441113835862 -0.24264745941205756
7.41571875 0.9717004453294222 -0.24246893092573757
7.4168671875 0.9714389608778863 -0.24264652609052517
7.418015625 0.9701471599707336 -0.2432226943338292
7.4191640625 0.9703145952213226 -0.24258987409966337
7.4203125 0.9694971478432599 -0.24195533202729425
7.4214609375 0.9710911745379324 -0.24208808282326383
7.422609375 0.9714245339423757 -0.24448862908292307
7.4237578125 0.9705983180327094 -0.24489023257948445
7.42490625 0.9710907386226006 -0.24447709389128547
7.4260546875 0.9703050721903506 -0.2450510941519891
7.427203125 0.9710697433833779 -0.2452796631087194
7.4283515625 0.9692043752414747 -0.24615969734630277
7.4295 0.9708403609488818 -0.24730672765941464
7.4306484375 0.9708965302794692 -0.2485747836180841
7.431796875 0.9701168491889525 -0.24773052309190124
7.4329453125 0.971493114630027 -0.24793428640274173
7.43409375 0.9716155425371344 -0.24849022059622117
7.4352421875 0.9713458827872021 -0.24946496131225637
7.436390625 0.9704752696039517 -0.24992353636427478
7.4375390625 0.9706630920884946 -0.2511761634531181
7.4386875 0.9719118443779251 -0.2504118077043429
7.4398359375 0.9719194802482689 -0.25084295798056466
7.440984375 0.9718952854255007 -0.251337612279822
7.4421328125 0.9697370455704305 -0.25232366921597227
7.44328125 0.9706691483948738 -0.2529946934073647
7.4444296875 0.9715837672262144 -0.252757959303872
7.445578125 0.9704130308113721 -0.25313261563225026
7.4467265625 0.9697018322866117 -0.25441938483835025
7.447875 0.9700191857748708 -0.25529571298725123
7.4490234375 0.9697608829933042 -0.2557276779555727
7.450171875 0.9702863896268786 -0.25719920903262766
7.4513203125 0.9705791246085995 -0.2566736260648075
7.45246875 0.9695458542863691 -0.2572697863163345
7.4536171875 0.9700363204628281 -0.2582106259038722
7.454765625 0.9702465863500341 -0.26009480804840224
7.4559140625 0.9707674359592235 -0.25973479385058545
7.4570625 0.9709504029961825 -0.26031461045503024
7.4582109375 0.9697145221299658 -0.26153555734295125
7.459359375 0.9701993612970791 -0.262750502097313
7.4605078125 0.9702991388154922 -0.26440696012257714
7.46165625 0.9690491898853861 -0.26406179284643494
7.4628046875 0.9693915395256595 -0.26300393652343035
7.463953125 0.9690141699439973 -0.2634243141571267
7.4651015625 0.9687047985731434 -0.26395600344902376
7.46625 0.9682196700202028 -0.2644959703123382
7.4673984375 0.9676772286397095 -0.26506693635228706
7.468546875 0.9677361173104669 -0.26445905274854486
7.4696953125 0.96681659987289 -0.2648550639321783
7.47084375 0.9672017417843136 -0.2653706317299981
7.4719921875 0.9675389438577757 -0.26750453563368815
7.473140625 0.9682124125855865 -0.2687779989807121
7.4742890625 0.9684679668107263 -0.27077778492631793
7.4754375 0.9675649230592842 -0.27089260038417295
7.4765859375 0.9670594319073711 -0.271846131587127
7.477734375 0.9670878019295084 -0.27149750855425775
7.4788828125 0.9660170512109538 -0.2711720982973014
7.48003125 0.9663097342336944 -0.27105948540231245
7.4811796875 0.9656221880853944 -0.27248775498367994
7.482328125 0.9655482876129396 -0.27429096787648
7.4834765625 0.9649141150633956 -0.2745764770920374
7.484625 0.9637881702374747 -0.2747480572242873
7.4857734375 0.9634852067619133 -0.2757781930850339
7.486921875 0.962623705414969 -0.2752913120673181
7.4880703125 0.9623550401956332 -0.2762731763383574
7.48921875 0.9626455821837991 -0.27649655321219113
7.4903671875 0.9627002481406766 -0.27777213963699604
7.491515625 0.9625260496109223 -0.27875763234311424
7.4926640625 0.9604064131441692 -0.27973834659041813
7.4938125 0.960879593272483 -0.28093847848056314
7.4949609375 0.9594499253741381 -0.28299213081053315
7.496109375 0.9605134375614566 -0.28185342675908465
7.4972578125 0.9595409779933627 -0.2817503556522183
7.49840625 0.9598080390289108 -0.28157580212879174
7.4995546875 0.9593189863116367 -0.2829629408418749
7.500703125 0.9577230834652576 -0.28335773024427624
7.5018515625 0.9580318983671859 -0.2829152460534141
7.503 0.9569823283379113 -0.28326050914659445
7.5041484375 0.9562038719500262 -0.2840034428831367
7.505296875 0.9563358287354207 -0.2856397648588157
7.5064453125 0.955147703156243 -0.2870593516721933
7.50759375 0.9559570234315768 -0.2874932513476871
7.5087421875 0.9556207082176842 -0.2875368828037222
7.509890625 0.9552141173891732 -0.28859113660376645
7.5110390625 0.9539408970617833 -0.289448925061986
7.5121875 0.9542871226660448 -0.2898105622884228
7.5133359375 0.9540132235963596 -0.29018530825525035
7.514484375 0.9534809814238185 -0.29049526531728054
7.5156328125 0.9525029181601159 -0.29048556776765583
7.51678125 0.9514525257895925 -0.29040126868057936
7.5179296875 0.9493320635546786 -0.2914702061877981
7.519078125 0.9479602446877499 -0.29129530566248907
7.5202265625 0.9468814774541943 -0.29033720517552236
7.521375 0.9460225121693789 -0.2902359841219032
7.5225234375 0.9450737954946576 -0.2897359468358533
7.523671875 0.9450538194385195 -0.29124195414907317
7.5248203125 0.9443945348185105 -0.29200351874693464
7.52596875 0.9445003059364405 -0.2921337009196903
7.5271171875 0.9443667507943 -0.2912010679970741
7.528265625 0.9438401045596618 -0.2895874919889693
7.5294140625 0.9433070054069608 -0.2887357711473856
7.5305625 0.9422748617827169 -0.28870280226470146
7.5317109375 0.9421268390950184 -0.28851183228748645
7.532859375 0.9427994807305495 -0.2880151724953305
7.5340078125 0.9430804349989068 -0.2876153834473573
7.53515625 0.9434117354419699 -0.2878652007513812
7.5363046875 0.9441519819760456 -0.28709086707452036
7.537453125 0.9436278259481808 -0.286785156476815
7.5386015625 0.9449590469043285 -0.2857965343816833
7.53975 0.9434268168111168 -0.28463275465686777
7.5408984375 0.9436230497086135 -0.28475124151882825
7.542046875 0.9431744535523053 -0.284788725243874
7.5431953125 0.9436482411113771 -0.28520600720022915
7.54434375 0.9441636434831631 -0.28453840205193387
7.5454921875 0.9444230897632403 -0.2849417430780573
7.546640625 0.9443874095217772 -0.28518192472774695
7.5477890625 0.9446815976146794 -0.2844926278546233
7.5489375 0.9445535841372339 -0.2840369094114813
7.5500859375 0.9456981561606965 -0.28307774729260343
7.551234375 0.9469553181715948 -0.28376912006780325
7.5523828125 0.9470097755781991 -0.28379566877523615
7.55353125 0.9484432434277962 -0.28565587076434296
7.5546796875 0.948955642737938 -0.28698720485701923
7.555828125 0.9496583309427982 -0.2862978719001757
7.5569765625 0.9510576057967421 -0.28705692646772335
7.558125 0.9509152911165972 -0.2876709239334823
7.5592734375 0.951033227365813 -0.287542547631092
7.560421875 0.9518475429188143 -0.2869871700726868
7.5615703125 0.9527608965883224 -0.2878946215126877
7.56271875 0.9535522114525162 -0.2874479837662216
7.5638671875 0.9544825595732953 -0.287521487331873
7.565015625 0.9540178620771214 -0.2902578357976363
7.5661640625 0.954087846837928 -0.2911022987048688
7.5673125 0.9549523697029738 -0.2914589314124539
7.5684609375 0.9553779491076393 -0.2914069667951487
7.569609375 0.9556219215206813 -0.2929291649000907
7.5707578125 0.9558750809910541 -0.294105264003234
7.57190625 0.9549022088099371 -0.2960518467221977
7.5730546875 0.955315605751373 -0.2956843894428967
7.574203125 0.9554867356840226 -0.2968273601938076
7.5753515625 0.9546526903331873 -0.2972911665915638
7.5765 0.9566465886397144 -0.2982558436609892
7.5776484375 0.9574223807837415 -0.29939242951395734
7.578796875 0.9565960941237057 -0.29879833131568445
7.5799453125 0.9558394321421961 -0.30143238089418745
7.58109375 0.9565941112808549 -0.3016182178299722
7.5822421875 0.956557104543595 -0.30276077238583926
7.583390625 0.9581204348035689 -0.3040422549844761
7.5845390625 0.9579839028900414 -0.30545642376509674
7.5856875 0.9575657510783149 -0.3058352486562929
7.5868359375 0.9565099271820534 -0.3070627926453792
7.587984375 0.9564437695851719 -0.3065726922497052
7.5891328125 0.9557317035397923 -0.30899437717359884
7.59028125 0.9561250040909021 -0.30952597628246376
7.5914296875 0.9560063065814061 -0.31075866451637096
7.592578125 0.95666161610254 -0.3113027331131223
7.5937265625 0.9551013139579724 -0.3106902940518125
7.594875 0.9550484157925085 -0.3114611103809001
7.5960234375 0.9558712323502278 -0.3119206856944972
7.597171875 0.9554805618561069 -0.3130206098824226
7.5983203125 0.9562001998982389 -0.3149072886597439
7.59946875 0.9551737864332588 -0.31545551676164374
7.6006171875 0.954296575819369 -0.31537086815144855
7.601765625 0.9558504453476449 -0.31663868815997254
7.6029140625 0.9546210143043385 -0.31761042800407246
7.6040625 0.9538581385015572 -0.31737705378294434
7.6052109375 0.954400140293236 -0.318379057223404
7.606359375 0.953611641847762 -0.3190978086990706
7.6075078125 0.9546978121523045 -0.3196078897959194
7.60865625 0.9549766386397014 -0.3207065404208214
7.6098046875 0.955557324696297 -0.32189716567103127
7.610953125 0.955357116200278 -0.3218138365146464
7.6121015625 0.9551604523884636 -0.3223554499652286
7.61325 0.9547467238879207 -0.3225639013798013
7.6143984375 0.9559395927650922 -0.32126429822450203
7.615546875 0.9555790294949861 -0.3217489573933112
7.6166953125 0.9555013971056445 -0.32401819892249617
7.61784375 0.9553416542891366 -0.3243270087841702
7.6189921875 0.9538381338729018 -0.323415598049892
7.620140625 0.9548050048923677 -0.3255248723009736
7.6212890625 0.9554613117496923 -0.3275397095618746
7.6224375 0.957029508856853 -0.3276860591967171
7.6235859375 0.9564215375560544 -0.3280960106173618
7.624734375 0.9564562064918499 -0.3289168727678403
7.6258828125 0.9553685341339835 -0.32878099540330186
7.62703125 0.9531231519125494 -0.3291023281885975
7.6281796875 0.9545882273158278 -0.3304116433554516
7.629328125 0.9543897856159929 -0.3316679717866958
7.6304765625 0.9537901356005409 -0.3324419020673819
7.631625 0.9522900988593141 -0.33310712658979247
7.6327734375 0.9541501098061211 -0.33280649303525733
7.633921875 0.9544052743838911 -0.33379310880872237
7.6350703125 0.9535278298476356 -0.3350537083939694
7.63621875 0.9547916775691934 -0.3370501493423177
7.6373671875 0.9543479445145995 -0.33718282144456624
7.638515625 0.9552570895597647 -0.3395806726417948
7.6396640625 0.9541057088667937 -0.33866397058814945
7.6408125 0.9549622653614256 -0.33949030107570144
7.6419609375 0.9528505397543884 -0.34056465953163784
7.643109375 0.9540778510318946 -0.34281549955276225
7.6442578125 0.9540774723198246 -0.34204877834635206
7.64540625 0.9524695076805012 -0.3435926811778567
7.6465546875 0.9529531349307662 -0.34374113161188413
7.647703125 0.9509463191532447 -0.3463656764502394
7.6488515625 0.9504609509233859 -0.3468030990609388
7.65 0.949515142246676 -0.3465778090853101
7.6511484375 0.9490777790065387 -0.3464401742568026
7.652296875 0.9476709815361812 -0.3462100750895767
7.6534453125 0.9490112264443354 -0.34859598688945004
7.65459375 0.9477785376282263 -0.3502998508769893
7.6557421875 0.9479590122296426 -0.3517227443984756
7.656890625 0.9480525960489281 -0.35133298334535196
7.6580390625 0.9500565030870464 -0.35093600851640866
7.6591875 0.9487753050294168 -0.3520349289909949
7.6603359375 0.9467115919667615 -0.3528366000271416
7.661484375 0.9453928505148224 -0.35300348835700346
7.6626328125 0.9452317505029333 -0.3531728686730138
7.66378125 0.9441564419843008 -0.3528836274689575
7.6649296875 0.9430137591113844 -0.3519642742358131
7.666078125 0.944375019776449 -0.354160125795836
7.6672265625 0.9430187358056769 -0.35495086503268003
7.668375 0.9434362754189 -0.3563875534879338
7.6695234375 0.9421123259216097 -0.3570122727795046
7.670671875 0.9418257980515062 -0.3576776599172807
7.6718203125 0.9414257072752734 -0.3590625484478335
7.67296875 0.9410448978631615 -0.3599138772955478
7.6741171875 0.9427166877717432 -0.3588013168291234
7.675265625 0.942668392546776 -0.359944852242959
7.6764140625 0.9425006952135471 -0.3604693552754801
7.6775625 0.9415650804627131 -0.3616627116184661
7.6787109375 0.9400789827831075 -0.36201560198159355
7.679859375 0.9409988615025995 -0.36350338373275337
7.6810078125 0.9421217357239408 -0.3633006844580412
7.68215625 0.9411327599270753 -0.3625306138821737
7.6833046875 0.94135778737996 -0.36307249049036083
7.684453125 0.9393301028411922 -0.36579513777611894
7.6856015625 0.9405020097161674 -0.3652381315877654
7.68675 0.941529976045411 -0.36423933511008627
7.6878984375 0.9420882476893208 -0.365793118031726
7.689046875 0.9406775218736223 -0.36585292430524047
7.6901953125 0.9392537786354739 -0.36600135216827545
7.69134375 0.9385739095827462 -0.36705405575580174
7.6924921875 0.9373503484336404 -0.3660885758122624
7.693640625 0.9376349065574843 -0.36780541661842586
7.6947890625 0.9382092274416105 -0.36797296698534165
7.6959375 0.9375422244776761 -0.36873024028923285
7.6970859375 0.936747951566911 -0.36907195982615815
7.698234375 0.9357116520334848 -0.37051133577181905
7.6993828125 0.9351265457342618 -0.37130703277028143
7.70053125 0.9332295954821669 -0.37015288007401903
7.7016796875 0.9338606295779277 -0.37221123416304736
7.702828125 0.935385790527887 -0.3720325557887253
7.7039765625 0.935821022374944 -0.372485990673294
7.705125 0.9341279934194997 -0.3735543969597235
7.7062734375 0.9341245377129372 -0.37353010391275365
7.707421875 0.9340315210032497 -0.3724849381217317
7.7085703125 0.9326005970960218 -0.3744479213412125
7.70971875 0.9311219957527583 -0.3741048694789262
7.7108671875 0.930225506666004 -0.3728122830646651
7.712015625 0.9302050684918881 -0.37365616229771076
7.7131640625 0.9317310087902678 -0.37290580845028687
7.7143125 0.9300340346703841 -0.37612836157861435
7.7154609375 0.9301282174395529 -0.37673340097231167
7.716609375 0.9301618006649881 -0.37744726105759274
7.7177578125 0.9306227516406909 -0.3763597333313931
7.71890625 0.9321438482104928 -0.37630471764361756
7.7200546875 0.9305849512240529 -0.3762419878356596
7.721203125 0.9296732397670051 -0.378405308373177
7.7223515625 0.9307752817658503 -0.37773273220091197
7.7235 0.9291361576862038 -0.37823464131050666
7.7246484375 0.9308992590673486 -0.3796396978094563
7.725796875 0.9307303263769873 -0.37896399835005107
7.7269453125 0.9307834361313774 -0.380011229637711
7.72809375 0.9302409485532303 -0.38171111683460296
7.7292421875 0.9306563709925055 -0.38163502886507833
7.730390625 0.9313469099531023 -0.3833782618409011
7.7315390625 0.9303674065981863 -0.3817540789147454
7.7326875 0.9308532722994449 -0.38100774738766474
7.7338359375 0.9313767958008199 -0.38261720469791716
7.734984375 0.929544135207056 -0.3847007381251307
7.7361328125 0.9298376936802593 -0.3847837857070571
7.73728125 0.9304184728567628 -0.38572856123877125
7.7384296875 0.930000609417883 -0.38594633574042525
7.739578125 0.929418016325384 -0.38677316009353296
7.7407265625 0.9283603816724237 -0.38877272307837435
7.741875 0.9293217516190095 -0.38804626576064793
7.7430234375 0.9283604604466092 -0.38785403391854784
7.744171875 0.9269870064704003 -0.3882955196224801
7.7453203125 0.9283183181453744 -0.3896460928678279
7.74646875 0.9277017472803921 -0.39129691244623466
7.7476171875 0.927106192414891 -0.3928193387819107
7.748765625 0.9283692093358239 -0.3942855333995786
7.7499140625 0.9259307020026188 -0.39706028473801097
7.7510625 0.9276136019826206 -0.39637309429036416
7.7522109375 0.9285425861860415 -0.3958719338331952
7.753359375 0.928973150534226 -0.3951695688825664
7.7545078125 0.9298867155683537 -0.3964428982992245
7.75565625 0.9253455023694944 -0.39732995889164036
7.7568046875 0.9250143808579393 -0.3990133601720115
7.757953125 0.9265477006196764 -0.3986198335667017
7.7591015625 0.9254251476138604 -0.39886493775842424
7.76025 0.9256341596071999 -0.3994836201031049
7.7613984375 0.9255245308890924 -0.40099010602571716
7.762546875 0.9241966438496944 -0.4039528972780949
7.7636953125 0.9248377566464117 -0.4053583452875492
7.76484375 0.9239250928257033 -0.40708160487024947
7.7659921875 0.9230109126716904 -0.40636682759439835
7.767140625 0.9219032448097151 -0.40293825181254994
7.7682890625 0.9209476244599106 -0.4059627931572265
7.7694375 0.9201802128265398 -0.40612954560343495
7.7705859375 0.9195153146163706 -0.4081447408338954
7.771734375 0.9182828737983961 -0.40710036108840364
7.7728828125 0.9184401143389692 -0.40621928835799703
7.77403125 0.9168443638645376 -0.40404949101486687
7.7751796875 0.9177933179692623 -0.405467555794248
7.776328125 0.91706757386943 -0.40797549898826757
7.7774765625 0.9178695963917394 -0.4082284131661996
7.778625 0.918636123804717 -0.40768167975369285
7.7797734375 0.91450893170102 -0.40874095667032617
7.780921875 0.9150806758418892 -0.40767030715077046
7.7820703125 0.9165373179800679 -0.4060781458460644
7.78321875 0.9173535725959117 -0.40907267646973144
7.7843671875 0.916960777543617 -0.4092486690253532
7.785515625 0.9150924196786787 -0.4108646120892676
7.7866640625 0.9169503460083783 -0.4103497363954989
7.7878125 0.9173723104511998 -0.409146609952289
7.7889609375 0.9143846802433293 -0.41018102829335135
7.790109375 0.9155829307018837 -0.41187625406173833
7.7912578125 0.9136118450897124 -0.412790259019712
7.79240625 0.9139380385186436 -0.4139683443642973
7.7935546875 0.9166298020374614 -0.41570214277770523
7.794703125 0.9139128225391703 -0.4159281008422684
7.7958515625 0.9163576145623827 -0.4168734407677016
7.797 0.9141417590588282 -0.41478766970605907
7.7981484375 0.9133703491328918 -0.41812416659929486
7.799296875 0.9113440033324713 -0.41993307595146523
7.8004453125 0.9112637735720646 -0.42170199477537607
7.80159375 0.9122311519922461 -0.4225140700574944
7.8027421875 0.9122856828866662 -0.42336498632934405
7.803890625 0.9086802217980252 -0.42498052277545106
7.8050390625 0.9106501648162355 -0.42309464451028067
7.8061875 0.9102764328625865 -0.42418712112619805
7.8073359375 0.9099563493011522 -0.4239005263645145
7.808484375 0.9123946697207723 -0.42122321709662636
7.8096328125 0.9072496931058348 -0.4243968952311614
7.81078125 0.9080236194123058 -0.42285760213646484
7.8119296875 0.9066782424802522 -0.42384187048733857
7.813078125 0.9078940180585744 -0.42477124731524396
7.8142265625 0.9086536722931724 -0.42438784812523767
7.815375 0.905857701869903 -0.426017004042345
7.8165234375 0.9072616687907342 -0.42488410170749435
7.817671875 0.9070819031149844 -0.42472880696570836
7.8188203125 0.9068977676208198 -0.42392780212993375
7.81996875 0.9068300853837786 -0.4255042503952692
7.8211171875 0.9057948052697603 -0.42685302444752216
7.822265625 0.9052985456204152 -0.427707985636264
7.8234140625 0.9059667579736095 -0.4271869051056567
7.8245625 0.9058985220648216 -0.42551683500570936
7.8257109375 0.9063044494112047 -0.42548627844627707
7.826859375 0.9025566904208348 -0.42582671046373144
7.8280078125 0.9032285586885824 -0.4292045035209082
7.82915625 0.9038521382131266 -0.42856042807882233
7.8303046875 0.9025835760962269 -0.42894603121276453
7.831453125 0.9035125257838826 -0.42886548652347556
7.8326015625 0.9031231258154266 -0.4307119132778323
7.83375 0.9023910291992843 -0.430999993461181
7.8348984375 0.9021051951345976 -0.4297753278445432
7.836046875 0.9027064966177195 -0.43054268712615984
7.8371953125 0.9028938565106681 -0.43214429134977483
7.83834375 0.9034755276260766 -0.4317776657699145
7.8394921875 0.9003157684188685 -0.4333997521455982
7.840640625 0.9006762071651652 -0.4311740052379338
7.8417890625 0.9015647442162797 -0.4330035666020575
7.8429375 0.9034624736110771 -0.4317388822468503
7.8440859375 0.9022341012965485 -0.4336294090458912
7.845234375 0.899623559015925 -0.4367674714895776
7.8463828125 0.9024569964030125 -0.4355505287141451
7.84753125 0.901944331710615 -0.43299406051806105
7.8486796875 0.9029428030335247 -0.438282522844463
7.849828125 0.9027554693201325 -0.43510587749519214
7.8509765625 0.8991923653494258 -0.4378892462186289
7.852125 0.9003096544335347 -0.44183557149522645
7.8532734375 0.8988937357433912 -0.4391201737043475
7.854421875 0.8985186058963355 -0.4366191730926111
7.8555703125 0.898415417547763 -0.43714157936127607
7.85671875 0.897963532788608 -0.43836605240189785
7.8578671875 0.9003261297087104 -0.4411361279084251
7.859015625 0.9008486244910008 -0.4409363792644434
7.8601640625 0.8997916206010552 -0.4395906208679884
7.8613125 0.9006679168794431 -0.4405727762459446
7.8624609375 0.8970117467349227 -0.44078565087455074
7.863609375 0.8988940712275162 -0.43867558439409216
7.8647578125 0.8992539270006827 -0.43809683695906504
7.86590625 0.8993430577530696 -0.43867400296212566
7.8670546875 0.8984781526896264 -0.4388293456676237
7.868203125 0.8992504135352483 -0.4385938360776881
7.8693515625 0.896429207274175 -0.4410453003232632
7.8705 0.8970024907540444 -0.4400645467710431
7.8716484375 0.8975229487135994 -0.442738035214715
7.872796875 0.89498510445637 -0.4448453892577425
7.8739453125 0.8959375368786612 -0.4436564008521856
7.87509375 0.8946456796078527 -0.4450956862633927
7.8762421875 0.8964326754752365 -0.44305140067738286
7.877390625 0.8972853066944155 -0.44356181765870184
7.8785390625 0.8940115433327289 -0.44333397343844505
7.8796875 0.8952173518506741 -0.44556027671156423
7.8808359375 0.8930456616079584 -0.44625455082971055
7.881984375 0.8932400548782377 -0.4471770608161102
7.8831328125 0.8920261384765741 -0.4471199164677944
7.88428125 0.8925448737818515 -0.4496728243952278
7.8854296875 0.8922666884881497 -0.44997334147851503
7.886578125 0.8928166960566639 -0.45045810534481
7.8877265625 0.8920587684504885 -0.44904351391743014
7.888875 0.892828306956456 -0.4492461169869991
7.8900234375 0.8931615153922341 -0.44924128669189306
7.891171875 0.8943739307492318 -0.45071773536303933
7.8923203125 0.8925924536294816 -0.450885380927257
7.89346875 0.8933573347932424 -0.45105370860461297
7.8946171875 0.8942931836713526 -0.4496291850908912
7.895765625 0.8938498670846338 -0.4503116513785761
7.8969140625 0.892899826962023 -0.4530389960527288
7.8980625 0.892528154462024 -0.45391572673452923
7.8992109375 0.893232264409631 -0.4550286691906286
7.900359375 0.8937475482364499 -0.45460412375703396
7.9015078125 0.893949701307972 -0.4567790678288153
7.90265625 0.8923193436388601 -0.4605776143857968
7.9038046875 0.892085802393813 -0.45817717218748194
7.904953125 0.8922979645534647 -0.4604900302359575
7.9061015625 0.8918715508601072 -0.46223503265265037
7.90725 0.8929441331835268 -0.4625997830317309
7.9083984375 0.893976434234653 -0.46175133564817394
7.909546875 0.8927505365531977 -0.46191164535673235
7.9106953125 0.8880834420962951 -0.46499932063845817
7.91184375 0.889568420252287 -0.4640156587206602
7.9129921875 0.8898740543224968 -0.4639362424432185
7.914140625 0.8922041952272896 -0.46660614249269816
7.9152890625 0.891466503511821 -0.4659624100190657
7.9164375 0.8865936414178708 -0.46746609494628655
7.9175859375 0.8884093651892055 -0.46663104045185233
7.918734375 0.8876907049785593 -0.468547467256048
7.9198828125 0.8862192089653758 -0.4681675034739343
7.92103125 0.8862024718931507 -0.4684646357088449
7.9221796875 0.8854817350913761 -0.4726665757013405
7.923328125 0.8856205705993299 -0.4689061038310519
7.9244765625 0.8828023528207041 -0.46846400016628276
7.925625 0.8831967871261779 -0.46879288144191544
7.9267734375 0.8838428474984807 -0.4700566812077476
7.927921875 0.8804432105488442 -0.4709008089961858
7.9290703125 0.8822015573513208 -0.46983406711543285
7.93021875 0.8807813807163418 -0.4678097939551822
7.9313671875 0.8817452107897424 -0.4701328183696911
7.932515625 0.8785606478526558 -0.47129814912339285
7.9336640625 0.8801131075697513 -0.4733913129109464
7.9348125 0.8780203454369895 -0.47407560196603316
7.9359609375 0.8813096913554951 -0.4755273091961154
7.937109375 0.8816392148076964 -0.47570899893841856
7.9382578125 0.8776369392646659 -0.47291166561659204
7.93940625 0.8798360340535181 -0.47369218696063686
7.9405546875 0.8771293679786156 -0.473139949717743
7.941703125 0.8776339746479463 -0.47356302902328884
7.9428515625 0.876687585155262 -0.4758501161039932
7.944 0.8774896314493246 -0.47699571506182514
7.9451484375 0.8776422195398916 -0.475913546959299
7.946296875 0.8746932750652497 -0.4780918321498555
7.9474453125 0.8788524705885238 -0.4778406156565038
7.94859375 0.876572252728081 -0.47640838344573133
7.9497421875 0.8799471990433784 -0.4753380855416198
7.950890625 0.8792153920084004 -0.4764054212147216
7.9520390625 0.8774175263294689 -0.4799480878924851
7.9531875 0.879407299560444 -0.47918733333643326
7.9543359375 0.878148108602393 -0.4808166264811845
7.955484375 0.8770520131179771 -0.4807646294157326
7.9566328125 0.8736599628877164 -0.4803050700413344
7.95778125 0.873961817842476 -0.484699641961279
7.9589296875 0.8735412795791837 -0.48216588589050846
7.960078125 0.8733923509843688 -0.4827782045729483
7.9612265625 0.8740326170385511 -0.48161342696182174
7.962375 0.871936418877235 -0.48315292580254066
7.9635234375 0.8727525450675564 -0.4828831435027221
7.964671875 0.8730691615383321 -0.48264438139940347
7.9658203125 0.8723483777388934 -0.48509812281093195
7.96696875 0.8750934280425939 -0.4848187961227046
7.9681171875 0.8728325415585004 -0.48586361141676976
7.969265625 0.8700537524461154 -0.48793884033284307
7.9704140625 0.8668929530010152 -0.48819607652449964
7.9715625 0.8706191638528287 -0.48783653072674626
7.9727109375 0.8736538890406759 -0.48885247734324055
7.973859375 0.8706290070238988 -0.48496675373962406
7.9750078125 0.867719519007535 -0.48722084615304395
7.97615625 0.8699505010922358 -0.4898555067701904
7.9773046875 0.8710399251483928 -0.493282268054209
7.978453125 0.8752348685062304 -0.4956094692714254
7.9796015625 0.8735300140318324 -0.492223222860563
7.98075 0.8758522508283113 -0.49294141905710626
7.9818984375 0.8709078570311048 -0.4956340540656834
7.983046875 0.8684702001676401 -0.4931203464588936
7.9841953125 0.8739997302215747 -0.4917858695440923
7.98534375 0.8732176825948533 -0.49255025342686454
7.9864921875 0.8767692961195164 -0.49452830493634703
7.987640625 0.8747798155156383 -0.49935986125723314
7.9887890625 0.8735773300126539 -0.49786812006067394
7.9899375 0.8738074265659337 -0.4982822987726837
7.9910859375 0.8754242882689909 -0.4962227490112683
7.992234375 0.8725310948862044 -0.4992969793423612
7.9933828125 0.8719398322101003 -0.5001402368135875
7.99453125 0.8711827994713376 -0.5007383360011857
7.9956796875 0.8682331736489434 -0.49777252244908776
7.996828125 0.8668809163057299 -0.5013217116916717
7.9979765625 0.8685775264762781 -0.5021428471076299
7.999125 0.8668745164499244 -0.5035323292827377
8.0002734375 0.8639865870595086 -0.5066245943061687
8.001421875 0.8654199977278615 -0.505965051125489
8.0025703125 0.8669156398160567 -0.5042286025993996
8.00371875 0.8646279309499607 -0.5078518993437451
8.0048671875 0.8618625170977968 -0.5077219933957384
8.006015625 0.8613427245575702 -0.5063238826648533
8.0071640625 0.863162905146946 -0.5037716987770062
8.0083125 0.8621470468496678 -0.507175361743449
8.0094609375 0.8611919168918503 -0.5051334328189034
8.010609375 0.8649432402077553 -0.5047079444146956
8.0117578125 0.8629269904765635 -0.5075736033236706
8.01290625 0.8636394970478765 -0.506481564628871
8.0140546875 0.8610516958527561 -0.5108923455636016
8.015203125 0.8616912609801142 -0.5087686583673754
8.0163515625 0.864660843719786 -0.5127715961219481
8.0175 0.8589841783299423 -0.507389292655289
8.0186484375 0.8607299700435493 -0.507982021454948
8.019796875 0.8628266668019803 -0.5080892154337393
8.0209453125 0.8602620088313755 -0.5082984430361774
8.02209375 0.8601052002859704 -0.5078651491304627
8.0232421875 0.8587056465210873 -0.5097191868295892
8.024390625 0.8579229975931093 -0.507298172301115
8.0255390625 0.861560438123808 -0.5086873797576819
8.0266875 0.862457266388371 -0.5092186540565653
8.0278359375 0.862147332036264 -0.5113141415154714
8.028984375 0.8592791281522894 -0.5105526414285502
8.0301328125 0.8596729916646224 -0.5140285780672031
8.03128125 0.8601330372977991 -0.5098741053287613
8.0324296875 0.8557404713875125 -0.509239070398712
8.033578125 0.8566868926973294 -0.5097166574231109
8.0347265625 0.8574607595527208 -0.5096256955331725
8.035875 0.8553953289014198 -0.5116931056346289
8.0370234375 0.8570252616180069 -0.5132956352841261
8.038171875 0.8597240331169742 -0.5108490196937534
8.0393203125 0.8561404677837884 -0.510069458398331
8.04046875 0.8560628329980873 -0.512517362879354
8.0416171875 0.8541993369553696 -0.516300993022283
8.042765625 0.8542833900187375 -0.5132538681203518
8.0439140625 0.8528732935749144 -0.5184669090573475
8.0450625 0.8556894886478816 -0.5183101123238285
8.0462109375 0.854740148052935 -0.5171490399905091
8.047359375 0.8505226368412206 -0.5182202843423342
8.0485078125 0.8522032660115456 -0.5195657480481403
8.04965625 0.8508072353993419 -0.5165328983243211
8.0508046875 0.8516299317176479 -0.5184862984421214
8.051953125 0.8477451217172198 -0.5155988764109369
8.0531015625 0.8480248723959627 -0.5191928713709586
8.05425 0.8450929758181531 -0.5152160944469601
8.0553984375 0.8478680774003855 -0.513634215965245
8.056546875 0.845242822308913 -0.5173654897398778
8.0576953125 0.84571714773354 -0.5166655441456957
8.05884375 0.8421076477444882 -0.5179117424072391
8.0599921875 0.8437028313491266 -0.5157706530037333
8.061140625 0.8442913288666054 -0.5158864222869273
8.0622890625 0.8416588070993456 -0.5152761134619639
8.0634375 0.8437418722071773 -0.5178003804013098
8.0645859375 0.8431378505241685 -0.5165261475163001
8.065734375 0.8424751793078611 -0.516882722794076
8.0668828125 0.8452429482309936 -0.5141558540774824
8.06803125 0.843447672851174 -0.5161082406409994
8.0691796875 0.842334122580148 -0.517811924963959
8.070328125 0.8430744481837188 -0.517716457555345
8.0714765625 0.8397838505779793 -0.5212066716663717
8.072625 0.8421013860862567 -0.5196452471897924
8.0737734375 0.8418989676704856 -0.5191523052753879
8.074921875 0.8403761874925897 -0.5186835289881923
8.0760703125 0.8407575010028 -0.5222314836378246
8.07721875 0.8394053846818209 -0.5240007849788655
8.0783671875 0.8436564321681266 -0.5237287674465617
8.079515625 0.8419122960142903 -0.5243778873130909
8.0806640625 0.8426340674265067 -0.5273079937128492
8.0818125 0.8412721909843388 -0.5281663494849845
8.0829609375 0.8384925516578494 -0.5318941196011302
8.084109375 0.8405111646884189 -0.530567240851796
8.0852578125 0.8394593075910102 -0.5304773411157193
8.08640625 0.8416251131624419 -0.5334395391427185
8.0875546875 0.8382122417388164 -0.5313779943564331
8.088703125 0.8375965291058928 -0.5313472932660258
8.0898515625 0.8412526168940901 -0.5302408763489754
8.091 0.8422913855706529 -0.5298600314265174
8.0921484375 0.8422836402263827 -0.531455480421743
8.093296875 0.8408060008720939 -0.5273232173892075
8.0944453125 0.8381782000160483 -0.5312472256741515
8.09559375 0.8379819063837545 -0.5269836612521939
8.0967421875 0.8380633524475367 -0.5280796327408143
8.097890625 0.8400772033546928 -0.5281781346604248
8.0990390625 0.8425929640628778 -0.5325615525612352
8.1001875 0.8388336616768627 -0.5324493785957436
8.1013359375 0.8392314252088513 -0.5294513141455512
8.102484375 0.8411788017936199 -0.5309182278059645
8.1036328125 0.8435356957154014 -0.533847378597331
8.10478125 0.8415112746970603 -0.5329877803506318
8.1059296875 0.8413416070782793 -0.5316600884739155
8.107078125 0.8378526256404254 -0.5378680516881518
8.1082265625 0.8391666564286755 -0.5336645720221878
8.109375 0.8384457194248871 -0.5321446119865987
8.1105234375 0.8397663504696146 -0.5313725905292794
8.111671875 0.8412524032433575 -0.5311561063401715
8.1128203125 0.8363194442025306 -0.5350909392115647
8.11396875 0.8443722773940224 -0.533693279978549
8.1151171875 0.8480067467660759 -0.538372444031546
8.116265625 0.8469359042440547 -0.5374472705170195
8.1174140625 0.8460103415500844 -0.5375659759859944
8.1185625 0.8426284103881696 -0.5379960473852083
8.1197109375 0.843335278323209 -0.5344767452083685
8.120859375 0.8446103786361416 -0.5397241861967556
8.1220078125 0.8456171281252046 -0.5339025398636155
8.12315625 0.8436492440307135 -0.5345237034548489
8.1243046875 0.8402135911195063 -0.5412151314326747
8.125453125 0.843324889679604 -0.5381881000270978
8.1266015625 0.8443385183666703 -0.5388369277949187
8.12775 0.8400166435742444 -0.5402138953266824
8.1288984375 0.8439574115658776 -0.544887056161568
8.130046875 0.8414775332450231 -0.542026309122526
8.1311953125 0.8411296226424331 -0.5438679576602335
8.13234375 0.8440045926636063 -0.5454717454608811
8.1334921875 0.8440873457104202 -0.5463527118945875
8.134640625 0.8382999707104931 -0.5484868879751754
8.1357890625 0.8380122639101356 -0.552613388705989
8.1369375 0.8378399692677242 -0.5554015980664724
8.1380859375 0.839517970149797 -0.5504547493363547
8.139234375 0.837605861585295 -0.5506437401216788
8.1403828125 0.8367127934812304 -0.5521134947018571
8.14153125 0.8349627001357163 -0.5539541272349019
8.1426796875 0.8351063595261465 -0.5582039299591283
8.143828125 0.8352805941189926 -0.5575693949895226
8.1449765625 0.833285313391357 -0.5576324481718584
8.146125 0.8355470886071196 -0.5578909514913494
8.1472734375 0.8360724048541823 -0.5597631502326704
8.148421875 0.8322646967222108 -0.5621211146612636
8.1495703125 0.8321247471130284 -0.5607960545265259
8.15071875 0.8299947793583261 -0.562026545397851
8.1518671875 0.8316321815132579 -0.5614097110098044
8.153015625 0.8270393987128469 -0.5585778846634359
8.1541640625 0.82338093309931 -0.5630118202629462
8.1553125 0.8223021102294252 -0.5598681211520875
8.1564609375 0.8245996124233039 -0.5620350694593139
8.157609375 0.8253421033289572 -0.5612439040115258
8.1587578125 0.8247053787923548 -0.5610570060532596
8.15990625 0.8194162437527046 -0.5627511109940759
8.1610546875 0.8208823905062237 -0.5615527147095407
8.162203125 0.8207183302899449 -0.5606424788061459
8.1633515625 0.8246481297125385 -0.5609814024588905
8.1645 0.8198228829998025 -0.5601367483630132
8.1656484375 0.8175273435024552 -0.5619891986097405
8.166796875 0.8173732633428029 -0.5624636596106861
8.1679453125 0.8186109908689425 -0.5626496959117769
8.16909375 0.8197539050602336 -0.5657393049785655
8.1702421875 0.8191650793760334 -0.5625270188897762
8.171390625 0.8211832000844553 -0.5646954917294436
8.1725390625 0.8175196039882282 -0.5650661495965387
8.1736875 0.8170879532431906 -0.5639418459713056
8.1748359375 0.8183287714093141 -0.561479592490904
8.175984375 0.8218978385937371 -0.5653800248188869
8.1771328125 0.8179131468287574 -0.5625366106867731
8.17828125 0.820838051591955 -0.5658411113851598
8.1794296875 0.8226372841398234 -0.5652912280531484
8.180578125 0.8182286000169912 -0.5642443615191377
8.1817265625 0.8200457022288881 -0.566111557441219
8.182875 0.81766147737138 -0.5659221486984178
8.1840234375 0.8124906163809853 -0.5690774474065252
8.185171875 0.8198702640142728 -0.5687052623680081
8.1863203125 0.8219033135874189 -0.5689779869316366
8.18746875 0.8183958035205012 -0.5665848655006067
8.1886171875 0.8184611176457264 -0.5675168229198816
8.189765625 0.8160157668755781 -0.5701458152971861
8.1909140625 0.8198484267550442 -0.5670763838387262
8.1920625 0.8202825941357017 -0.5691886003340769
8.1932109375 0.8172628441124017 -0.5709704285551561
8.194359375 0.8183277051160283 -0.570617732459413
8.1955078125 0.8162942147719914 -0.5717567179674361
8.19665625 0.8173738811881883 -0.573749901773874
8.1978046875 0.8189521556877976 -0.5721054351086936
8.198953125 0.8165296182399526 -0.5738685886231142
8.2001015625 0.8168878893239149 -0.5722744959850334
8.20125 0.8154301138375413 -0.5744444752536458
8.2023984375 0.8141565753997271 -0.5735575036072869
8.203546875 0.8135918293265192 -0.5717601029959942
8.2046953125 0.8135804543301428 -0.5705795597119323
8.20584375 0.8116458877267332 -0.5697636890063852
8.2069921875 0.8141096971542899 -0.569193440684093
8.208140625 0.8097233191084229 -0.5735226994900577
8.2092890625 0.8102466103814125 -0.5723894932273774
8.2104375 0.8112885768251884 -0.5748501255275574
8.2115859375 0.8123244333837563 -0.5723782022196713
8.212734375 0.813970247009477 -0.5750549848999756
8.2138828125 0.8070664523173853 -0.5740291922667706
8.21503125 0.8093064848504469 -0.577685284377133
8.2161796875 0.8108259558254935 -0.574415331728324
8.217328125 0.8113722474579281 -0.5726229660789217
8.2184765625 0.8069328781046405 -0.5749457443883624
8.219625 0.8054506309601475 -0.5773331214877033
8.2207734375 0.8070122940240071 -0.5775528082131427
8.221921875 0.8054135923735292 -0.5773860372273963
8.2230703125 0.8048290360049315 -0.5802605850436671
8.22421875 0.8025323044313715 -0.577317623177338
8.2253671875 0.7997093568612409 -0.579706405336496
8.226515625 0.8040700210089098 -0.5794511225303742
8.2276640625 0.8009309262943439 -0.580464438392255
8.2288125 0.8018068567297536 -0.5758241949205187
8.2299609375 0.8019690846879813 -0.5803493471919858
8.231109375 0.7978315298714336 -0.5820909441848972
8.2322578125 0.7988368420645613 -0.5810819259119783
8.23340625 0.8024888768846421 -0.5792477187340914
8.2345546875 0.8030961108129122 -0.5806634196906304
8.235703125 0.802483416259838 -0.5826648933703009
8.2368515625 0.8018778807238938 -0.586203127497154
8.238 0.7987890668524178 -0.5832376296299879
8.2391484375 0.8016853632761982 -0.5821937571014599
8.240296875 0.8037952702373469 -0.5872788292961795
8.2414453125 0.8037637848033512 -0.5884244002088165
8.24259375 0.8030415911685547 -0.5852061420460475
8.2437421875 0.8018274089851393 -0.5866904130780463
8.244890625 0.8001059569390374 -0.5880899927609731
8.2460390625 0.8020335709687337 -0.586952206930738
8.2471875 0.8017115977133422 -0.5872201216454179
8.2483359375 0.801634397227224 -0.5880033738919657
8.249484375 0.7959761024603929 -0.5891473158182982
8.2506328125 0.8015929093955962 -0.5870082777080369
8.25178125 0.8054343059143717 -0.5864373787248651
8.2529296875 0.8041413245926058 -0.5907052393635701
8.254078125 0.8042164777314275 -0.5917793075294226
8.2552265625 0.8016326447339652 -0.5957981039945908
8.256375 0.8060111811443983 -0.5943810723775793
8.2575234375 0.802508837960744 -0.5938348204222382
8.258671875 0.8025787841266012 -0.5924372861676626
8.2598203125 0.8009843946981791 -0.5926385549038367
8.26096875 0.7965403634819647 -0.5973776332610777
8.2621171875 0.7977476347494251 -0.5938673697937401
8.263265625 0.7958796710436987 -0.5948202904737458
8.2644140625 0.798478909770441 -0.5917327871376497
8.2655625 0.800046670636772 -0.5949183198656629
8.2667109375 0.7972907717618185 -0.5998859338614215
8.267859375 0.7979470868378236 -0.5945257050687547
8.2690078125 0.7989970613808041 -0.5943125225362141
8.27015625 0.8000176294096669 -0.5913794762672437
8.2713046875 0.8027419158813099 -0.5927675446937164
8.272453125 0.797909957010396 -0.5964512177271323
8.2736015625 0.7994239683516763 -0.5953030903300831
8.27475 0.7994866075905871 -0.5960919265976623
8.2758984375 0.7989761424309467 -0.5934912305457731
8.277046875 0.7971503739834532 -0.5955832565048771
8.2781953125 0.7989916137777161 -0.5981629444317502
8.27934375 0.7974354786039843 -0.5972099976052994
8.2804921875 0.7981666920905505 -0.5967983317693089
8.281640625 0.7992062991090821 -0.5967662792022093
8.2827890625 0.7977455318002937 -0.5937017263928548
8.2839375 0.79854254154585 -0.5931588612876844
8.2850859375 0.7964375546536475 -0.5966240037730239
8.286234375 0.7977946323469542 -0.5963438115879944
8.2873828125 0.7958080323638045 -0.5961110973969413
8.28853125 0.7947719189534714 -0.596889126218468
8.2896796875 0.7934365396158525 -0.5973184655097048
8.290828125 0.7904844120921534 -0.5994597772406836
8.2919765625 0.7935541685969905 -0.5969587497495756
8.293125 0.7942447203697411 -0.5969723681145814
8.2942734375 0.7934775700244718 -0.5995633776775889
8.295421875 0.7919903329353133 -0.5977407319377378
8.2965703125 0.7866455036771531 -0.5994635540911273
8.29771875 0.7919879923659269 -0.6006002861058996
8.2988671875 0.7912209614882592 -0.599124053357819
8.300015625 0.7906578009478944 -0.5984027210327925
8.3011640625 0.7893759557597653 -0.6017126340445311
8.3023125 0.7900269641930829 -0.6012523426556017
8.3034609375 0.7885418734842412 -0.6013709339920472
8.304609375 0.7899374446776508 -0.5997702338751637
8.3057578125 0.7878403435520227 -0.5983845649840255
8.30690625 0.7875958870740442 -0.600150344126486
8.3080546875 0.7850604629140108 -0.600832161653563
8.309203125 0.7849346369932493 -0.6001350332168227
8.3103515625 0.7821105610477167 -0.600494013617018
8.3115 0.7838447327551832 -0.5995467427723322
8.3126484375 0.7834201719194309 -0.6003587033221691
8.313796875 0.7808034327184549 -0.6029827241174193
8.3149453125 0.7815547180042282 -0.605762768354787
8.31609375 0.7811023223980587 -0.6044514381215845
8.3172421875 0.7832646673086526 -0.6062044177249987
8.318390625 0.7799038444327534 -0.6042037309016564
8.3195390625 0.7803282669792755 -0.6071288666250321
8.3206875 0.777850388362859 -0.6092990936188216
8.3218359375 0.7800876204959583 -0.604269568251803
8.322984375 0.782218587076434 -0.6050655098995672
8.3241328125 0.7806989316550699 -0.6077333226279168
8.32528125 0.7784796728766403 -0.608407575306483
8.3264296875 0.7730545646712523 -0.6149885123750718
8.327578125 0.7786654606129215 -0.6117985766352227
8.3287265625 0.7772949944168548 -0.6109863578746862
8.329875 0.7802233857016803 -0.6133711267335967
8.3310234375 0.7752194881033062 -0.6125300780708791
8.332171875 0.7745621098769182 -0.6102371226718175
8.3333203125 0.7739942030018205 -0.6134025860720445
8.33446875 0.7735098909323787 -0.6164790131496602
8.3356171875 0.7780349886015521 -0.6149217624668382
8.336765625 0.7742445433201547 -0.6163834041864191
8.3379140625 0.7750435468769792 -0.6165841542128627
8.3390625 0.7735626386068052 -0.6202940199704752
8.3402109375 0.7737343206943094 -0.621097542328245
8.341359375 0.774552507848485 -0.6177690654839164
8.3425078125 0.7735598378788419 -0.6173017609620327
8.34365625 0.775715114955657 -0.6185710973709393
8.3448046875 0.7748753125290964 -0.6215036147472766
8.345953125 0.7767452770870338 -0.6209766705698735
8.3471015625 0.7772257560768058 -0.6200518994813558
8.34825 0.7746725597688 -0.6187539295912275
8.3493984375 0.7773384483441317 -0.6187096271153757
8.350546875 0.7739872782008101 -0.6177325072880954
8.3516953125 0.7748177269635634 -0.618677019126818
8.35284375 0.7741275701813886 -0.6161833872714174
8.3539921875 0.7738992506292958 -0.6145940211738675
8.355140625 0.774042478187863 -0.6163696880837083
8.3562890625 0.772809668194582 -0.6144275361716317
8.3574375 0.7743825695034611 -0.6148792683056163
8.3585859375 0.7744462742980446 -0.6185846943500907
8.359734375 0.7750255672569852 -0.6188930457745789
8.3608828125 0.7743642838023546 -0.6185156220944954
8.36203125 0.7757895308725479 -0.617218534214702
8.3631796875 0.7759107874705162 -0.6171040970189855
8.364328125 0.7746252696376601 -0.6158208157006642
8.3654765625 0.7762430281832299 -0.6181794288787328
8.366625 0.7772210413594728 -0.6151338676885009
8.3677734375 0.7740272831635371 -0.6160986078495561
8.368921875 0.7757006817084183 -0.6170945357334768
8.3700703125 0.7746130539419012 -0.619214345140396
8.37121875 0.7736496019611945 -0.6174268450041902
8.3723671875 0.7755441099393511 -0.6159333762308185
8.373515625 0.7741139017396291 -0.6175993853543477
8.3746640625 0.7727509717360334 -0.6197394092621241
8.3758125 0.7710381761726659 -0.6187106903158461
8.3769609375 0.7708008532048226 -0.6170395800044364
8.378109375 0.774710086893791 -0.6193017326014792
8.3792578125 0.7742202884374427 -0.61624872202098
8.38040625 0.7715481598451323 -0.620436596107548
8.3815546875 0.7730076797907691 -0.6182033962351219
8.382703125 0.771763540560238 -0.618816220695864
8.3838515625 0.7713670919051678 -0.6196201848000469
8.385 0.7714170781655648 -0.6215121379522976
8.3861484375 0.7669781574200037 -0.6208060638874044
8.387296875 0.7713316208706659 -0.6221951527079244
8.3884453125 0.769720514988796 -0.6243111093353221
8.38959375 0.7690939073442398 -0.6239928394224904
8.3907421875 0.7717905565895788 -0.6218140844395084
8.391890625 0.7685226380399974 -0.6270184897543548
8.3930390625 0.7704224615738225 -0.6241762438439132
8.3941875 0.7706944049968099 -0.6255330138490103
8.3953359375 0.7731853518885523 -0.6257769330248035
8.396484375 0.7739820594481961 -0.6271286890829121
8.3976328125 0.7681945278557796 -0.625746917243987
8.39878125 0.7717207791782476 -0.6261799723339294
8.3999296875 0.7719958570156389 -0.6251597490190478
8.401078125 0.7708602769600337 -0.6265385842191048
8.4022265625 0.7703417617969219 -0.6272667105376889
8.403375 0.7647382674145508 -0.6291431733847379
8.4045234375 0.7678937713190366 -0.6293539377828266
8.405671875 0.7703660510296867 -0.6298760537965253
8.4068203125 0.769526674594519 -0.6308852832014996
8.40796875 0.7690592537929509 -0.6306373996018915
8.4091171875 0.7671333765530816 -0.6291647063495687
8.410265625 0.7665375727343106 -0.630506791358284
8.4114140625 0.7692182813118967 -0.6307499972117669
8.4125625 0.7711831725390048 -0.6304644283734161
8.4137109375 0.7674752402533394 -0.6315836475595134
8.414859375 0.7689094488213081 -0.6342584083962427
8.4160078125 0.7678700325456298 -0.6332789716732472
8.41715625 0.7698849580192846 -0.6344960624906311
8.4183046875 0.7675859673391593 -0.6342652609789141
8.419453125 0.7688342651991359 -0.6358363901962373
8.4206015625 0.7701537325648576 -0.6356307193155264
8.42175 0.7669103443355803 -0.6385077842706534
8.4228984375 0.7692719158548743 -0.6378088764079299
8.424046875 0.7691440470156377 -0.6357229064205485
8.4251953125 0.7675092064112454 -0.6386656891875213
8.42634375 0.7693756073344049 -0.635816255174657
8.4274921875 0.7667646946504966 -0.6420823620251666
8.428640625 0.7679358929610134 -0.6391410370990223
8.4297890625 0.7652169185479383 -0.640789475912992
8.4309375 0.7671025376099458 -0.642043112584813
8.4320859375 0.7678279795314856 -0.6417203706739437
8.433234375 0.7648962955782137 -0.6431454336859712
8.4343828125 0.7679820343881789 -0.6424201242040657
8.43553125 0.7682195967278909 -0.6436700421273127
8.4366796875 0.7692810397081548 -0.6439352160547562
8.437828125 0.7683732354931962 -0.6433507458765427
8.4389765625 0.76526719522766 -0.6444225002952433
8.440125 0.7661825295939524 -0.6422509108683376
8.4412734375 0.7687261784275475 -0.6440209032750817
8.442421875 0.7671491902418688 -0.6441020098658674
8.4435703125 0.7685519660390994 -0.6450563280029521
8.44471875 0.7673931080885485 -0.6456246855986534
8.4458671875 0.7670026403905286 -0.6471281614431362
8.447015625 0.7693136005954335 -0.6463585651258671
8.4481640625 0.7682437095052297 -0.6474826534598672
8.4493125 0.7660236630237004 -0.6474908356897398
8.4504609375 0.7652720578778097 -0.651430611217937
8.451609375 0.7645310182537159 -0.6521958732777411
8.4527578125 0.7696426224062334 -0.6493175226241544
8.45390625 0.7684892846022513 -0.6499508282359565
8.4550546875 0.7668952810715107 -0.6532363171414816
8.456203125 0.7655579767813769 -0.6517896785520552
8.4573515625 0.7660893091712295 -0.6554704699042384
8.4585 0.767140365737963 -0.6552503320786088
8.4596484375 0.7676804786209438 -0.655310122549382
8.460796875 0.7661946780759168 -0.6548358707423535
8.4619453125 0.7656721367629407 -0.6567560074024903
8.46309375 0.7633595458021962 -0.6591584058482484
8.4642421875 0.765884015244181 -0.6593792490237526
8.465390625 0.7644680044241196 -0.6587523865216072
8.4665390625 0.7648585547919232 -0.6591734789244654
8.4676875 0.7635876544006353 -0.6625139411778556
8.4688359375 0.7598142142338266 -0.6626379407750936
8.469984375 0.760146192568467 -0.6628911787530298
8.4711328125 0.7590570594417446 -0.668596606333
8.47228125 0.7594163145720999 -0.6666455557206987
8.4734296875 0.7604979245702049 -0.6647471168250807
8.474578125 0.7552748522599255 -0.6684552397731365
8.4757265625 0.7563000528463205 -0.6684405848519155
8.476875 0.7553174154974103 -0.6667036230505043
8.4780234375 0.7548679618791228 -0.6693378853330743
8.479171875 0.7533110222420583 -0.6711846478748245
8.4803203125 0.7559303160580115 -0.6726218794777072
8.48146875 0.7529867650883784 -0.6725980409462105
8.4826171875 0.7529810428705486 -0.6738466895250067
8.483765625 0.7534973082766779 -0.6742526544419347
8.4849140625 0.7530584105480134 -0.6753138119260121
8.4860625 0.7492154013643633 -0.677478492829241
8.4872109375 0.7470656867618017 -0.6796602874299222
8.488359375 0.748611451335226 -0.6775371752007364
8.4895078125 0.7481501674134066 -0.6802510964494315
8.49065625 0.7496726381359775 -0.6792624360870696
8.4918046875 0.7476857998059114 -0.6818767099525138
8.492953125 0.7433375783313959 -0.684029540975992
8.4941015625 0.7465338210232058 -0.6824742933239856
8.49525 0.7456141215840542 -0.6808297562651386
8.4963984375 0.7450526765290779 -0.6811398277576122
8.497546875 0.7447314653831749 -0.6824663764376303
8.4986953125 0.7427300577626362 -0.6853528587146218
8.49984375 0.7428041242669858 -0.683197047483582
8.5009921875 0.7455045773755805 -0.6868199051764502
8.502140625 0.7455925589279767 -0.6882329175977998
8.5032890625 0.7448543847017496 -0.6869024557626123
8.5044375 0.7420909855228225 -0.6889402658165836
8.5055859375 0.7437896674938524 -0.6856573498614251
8.506734375 0.7431100709323937 -0.6856433883295325
8.5078828125 0.7424855952185154 -0.6841667484769411
8.50903125 0.740070844298391 -0.6833990960240373
8.5101796875 0.7382984991364411 -0.68572557126724
8.511328125 0.7360937209384819 -0.6824383936512389
8.5124765625 0.7382967447067796 -0.6854793601865266
8.513625 0.7403338812119542 -0.6826632232731308
8.5147734375 0.739611041821856 -0.6841471092016309
8.515921875 0.7377955359194224 -0.6853273668236268
8.5170703125 0.7351281964739931 -0.6880337457522455
8.51821875 0.7366554828089107 -0.6871118219820462
8.5193671875 0.7355718037279138 -0.6869400235320469
8.520515625 0.7352296246780462 -0.6821374938968324
8.5216640625 0.7344753612505738 -0.6833040613878217
8.5228125 0.7299239398747523 -0.6843399477276415
8.5239609375 0.7352743831549868 -0.6846392857703754
8.525109375 0.7364923427941186 -0.6830998625123699
8.5262578125 0.7330454924985248 -0.6821784598491298
8.52740625 0.7334299585417463 -0.6828864712961452
8.5285546875 0.7285270902153547 -0.6834317172743896
8.529703125 0.7310194699859954 -0.6835146620832249
8.5308515625 0.7317218892897991 -0.6818563464415606
8.532 0.7317933738819464 -0.683620401513801
8.5331484375 0.7324559179208807 -0.6828475346296036
8.534296875 0.7310195278463417 -0.6826787569453914
8.5354453125 0.7310882064151472 -0.6822220670723538
8.53659375 0.7312308739161035 -0.682653625459933
8.5377421875 0.7329411803628252 -0.6823294654996814
8.538890625 0.7321939556992055 -0.6803851811817379
8.5400390625 0.7315309644734389 -0.6827745043972894
8.5411875 0.7312572779543473 -0.6827618687964512
8.5423359375 0.7309521667068087 -0.683398358372525
8.543484375 0.7303247156710473 -0.6850344636727124
8.5446328125 0.7280572713711426 -0.6862078384955821
8.54578125 0.7279979399337442 -0.6861973509608126
8.5469296875 0.7246693445626976 -0.6886323168772025
8.548078125 0.7275752274615523 -0.6867470941755988
8.5492265625 0.7279192303485043 -0.6869283641410862
8.550375 0.7254704066659757 -0.6875807211545694
8.5515234375 0.7262210679614535 -0.6855234139211392
8.552671875 0.725463804929008 -0.6867792634795737
8.5538203125 0.7274876187673144 -0.6867726235487013
8.55496875 0.7264923228891693 -0.6850127728299853
8.5561171875 0.7245817429419532 -0.6857213588675981
8.557265625 0.725723106777381 -0.6889508222845664
8.5584140625 0.7228665325565347 -0.6894161930411686
8.5595625 0.7251673459014945 -0.6867082883896145
8.5607109375 0.7257699415088545 -0.6881671647260399
8.561859375 0.7257436663473461 -0.6887195762174726
8.5630078125 0.7246002749964705 -0.6886057040688607
8.56415625 0.721420632930688 -0.6890106973689873
8.5653046875 0.7227541990528421 -0.6874707608125452
8.566453125 0.7240635723333455 -0.689272092458026
8.5676015625 0.7239432244308805 -0.6913837110395467
8.56875 0.7214789788978392 -0.6932538609949299
8.5698984375 0.7211636795929577 -0.6942681233478726
8.571046875 0.7234286754165782 -0.693561231932696
8.5721953125 0.7210343522043495 -0.6945851688073601
8.57334375 0.7213894946024669 -0.6944895372235702
8.5744921875 0.7209841740867164 -0.6942368816009399
8.575640625 0.7182356996910118 -0.6964348278849439
8.5767890625 0.719062756826303 -0.6964669803779958
8.5779375 0.7188942492355863 -0.6966200995028433
8.5790859375 0.7197406630827825 -0.69500856156078
8.580234375 0.7193682125618308 -0.6976839198650628
8.5813828125 0.7179732994349179 -0.6992503140824765
8.58253125 0.7171632842664535 -0.6976643692307942
8.5836796875 0.7159062864233745 -0.6980775265849715
8.584828125 0.7156698737105103 -0.6999167899497148
8.5859765625 0.7157099580593066 -0.6997979523484432
8.587125 0.7143618480710127 -0.6995817057929948
8.5882734375 0.7144027314274641 -0.7022956554220519
8.589421875 0.7153484755336454 -0.7004758562418634
8.5905703125 0.7148890620002526 -0.700143062080749
8.59171875 0.7155996257752462 -0.7031226213606971
8.5928671875 0.7152873915075423 -0.7008573509575962
8.594015625 0.7119492297928186 -0.7022538985871185
8.5951640625 0.7129080441077362 -0.7010750360052465
8.5963125 0.71303403054094 -0.7036752894848707
8.5974609375 0.7138829866091579 -0.704427034155627
8.598609375 0.7110698174803987 -0.7032675527557022
8.5997578125 0.7097426137445998 -0.7040101382065015
8.60090625 0.7113360747051496 -0.7070899086598076
8.6020546875 0.7112478204703527 -0.7052896790405763
8.603203125 0.7115308734709193 -0.7066908911150542
8.6043515625 0.7135197332059818 -0.707566344621938
8.6055 0.711706014009093 -0.70837393162399
8.6066484375 0.7114256889439453 -0.7058858826705525
8.607796875 0.7113860960234244 -0.7049564227736816
8.6089453125 0.7110616461911483 -0.7054474384393169
8.61009375 0.7099683521670239 -0.7047270567004987
8.6112421875 0.7093500951751891 -0.7042874534822154
8.612390625 0.7075083130311247 -0.7058107346946633
8.6135390625 0.7069401109731424 -0.7068110537258302
8.6146875 0.7083680531417309 -0.7076571308907313
8.6158359375 0.7077235393828849 -0.7091424174041858
8.616984375 0.7084092765865584 -0.7102537756860832
8.6181328125 0.7078562319681889 -0.7081131609978694
8.61928125 0.7066968616119444 -0.7069469991351551
8.6204296875 0.7044091002892445 -0.7090312416368088
8.621578125 0.7056763162694141 -0.7070730636951972
8.6227265625 0.7040979807851921 -0.7061632152846125
8.623875 0.7038689607817695 -0.707829392901385
8.6250234375 0.7045499026057321 -0.7075036016624989
8.626171875 0.705227913497965 -0.7095364266154507
8.6273203125 0.7073496673456091 -0.7105667682741281
8.62846875 0.7045012809208109 -0.7119433711192232
8.6296171875 0.7038661452068989 -0.7112746939833807
8.630765625 0.7051517937126627 -0.7092636188804462
8.6319140625 0.7058826127667475 -0.7093266028618155
8.6330625 0.7027721469099788 -0.7103135435826882
8.6342109375 0.7047940038782807 -0.708906971320029
8.635359375 0.7005768339012012 -0.7103635421142218
8.6365078125 0.7013686889742907 -0.71013426920663
8.63765625 0.7012082346516801 -0.7109701402790127
8.6388046875 0.701969889429451 -0.7118629574296003
8.639953125 0.702427826387115 -0.7122281496133982
8.6411015625 0.7020542845614293 -0.7133825184140615
8.64225 0.7014285048433181 -0.7113953225047689
8.6433984375 0.7004527053846358 -0.7129565894948825
8.644546875 0.6999207672988337 -0.7119774176087383
8.6456953125 0.6996165346000142 -0.7132016710537346
8.64684375 0.6980879948601049 -0.7130714930074085
8.6479921875 0.6983846180281651 -0.7142048573860831
8.649140625 0.7005674233684889 -0.7158547298994707
8.6502890625 0.6995978204682118 -0.7143770151789747
8.6514375 0.6992125313468354 -0.7144671169909487
8.6525859375 0.6998642951618066 -0.7135673580026498
8.653734375 0.6957370391475657 -0.7138528754209805
8.6548828125 0.6968055792257954 -0.715686811284912
8.65603125 0.6969562657038942 -0.7138141773406266
8.6571796875 0.6973409182369626 -0.7146097596300003
8.658328125 0.696952534149035 -0.714464114684792
8.6594765625 0.6948487263388274 -0.7154986048275817
8.660625 0.6947619714490179 -0.7159954330016394
8.6617734375 0.695880949931079 -0.7144151126240147
8.662921875 0.694850520467369 -0.7152919999956959
8.6640703125 0.6949595008087339 -0.7166804265990552
8.66521875 0.6946499644972852 -0.7172697672340793
8.6663671875 0.6952005603693798 -0.7172044800476076
8.667515625 0.6968913615141141 -0.7166115161113175
8.6686640625 0.6965218636577861 -0.7165774564347598
8.6698125 0.6944575669910161 -0.7169925367123213
8.6709609375 0.6927545883489359 -0.7168990728014436
8.672109375 0.6947190412102552 -0.7176455971202329
8.6732578125 0.6940804631496647 -0.7183019969585114
8.67440625 0.6926477130270031 -0.7182550250143098
8.6755546875 0.695828726367342 -0.7189482846677695
8.676703125 0.6946369841467694 -0.7198176417680253
8.6778515625 0.6920003736815494 -0.7199950690802934
8.679 0.6944543825446311 -0.7205725361932007
8.6801484375 0.693197464448037 -0.7193790119831023
8.681296875 0.6927629056775807 -0.7204184487725034
8.6824453125 0.6929507023008283 -0.7207837774499596
8.68359375 0.6916103044356574 -0.7211718628809625
8.6847421875 0.6924527350709105 -0.7220001675410577
8.685890625 0.6914251124172037 -0.722606559464171
8.6870390625 0.6924382870421778 -0.7224370615713194
8.6881875 0.6890940836626326 -0.7234119973379005
8.6893359375 0.6876149513400478 -0.7244498822755543
8.690484375 0.6904489406788539 -0.7252262425419349
8.6916328125 0.6907267117585373 -0.7236010274127797
8.69278125 0.6877982703258105 -0.724835143597609
8.6939296875 0.6889616885667839 -0.7245065084256048
8.695078125 0.6882196712560009 -0.725650601354572
8.6962265625 0.6894937964338143 -0.7240255822160396
8.697375 0.6888211542485999 -0.7259475143593718
8.6985234375 0.6878961383286671 -0.7244856511484956
8.699671875 0.6879245956035954 -0.7235953845999628
8.7008203125 0.6876237268164618 -0.726202767127223
8.70196875 0.6888657144270198 -0.7264256551683954
8.7031171875 0.688102661172087 -0.726226668690372
8.704265625 0.6867501330849506 -0.7272693403232174
8.7054140625 0.6876802629613277 -0.7263691401708625
8.7065625 0.6873576966297128 -0.727633407439422
8.7077109375 0.687356375225827 -0.727960065230093
8.708859375 0.6872429818058443 -0.7283893949756222
8.7100078125 0.6873038249219923 -0.7280523624541856
8.71115625 0.6865088498786993 -0.7285314997615867
8.7123046875 0.686687388375095 -0.7294995622392091
8.713453125 0.6869287979887432 -0.7314251404978662
8.7146015625 0.6872337141984365 -0.7309350752398601
8.71575 0.6855040358949227 -0.7318960512616313
8.7168984375 0.6842979911762811 -0.7330737758931094
8.718046875 0.6857951125435331 -0.732886853070064
8.7191953125 0.683503803430408 -0.7345480994126826
8.72034375 0.6850152094880637 -0.7338757305568169
8.7214921875 0.6851060940961795 -0.734223216998515
8.722640625 0.6843390492480286 -0.7349826927574175
8.7237890625 0.6837054871185152 -0.7348424686847264
8.7249375 0.6813351123021616 -0.7362140174682481
8.7260859375 0.6826929971199556 -0.7369050381927362
8.727234375 0.6836072977021657 -0.7365129773637102
8.7283828125 0.6826730714517449 -0.7384371782542503
8.72953125 0.6833380382825761 -0.7378284476426894
8.7306796875 0.6817052063566772 -0.7400190601978369
8.731828125 0.6826566127698197 -0.7389891302585273
8.7329765625 0.6815935412468916 -0.7394806194544911
8.734125 0.6811151099923178 -0.7414501109993985
8.7352734375 0.6825026511367209 -0.7405069919634112
8.736421875 0.682165207607502 -0.741082229199602
8.7375703125 0.6818674676022507 -0.7414804483561044
8.73871875 0.680686101255348 -0.7417135397854103
8.7398671875 0.6801524021423947 -0.7412083810871586
8.741015625 0.680157843311266 -0.7417176357324082
8.7421640625 0.6781915533173747 -0.7420123544276688
8.7433125 0.6784357869762432 -0.7430207933354771
8.7444609375 0.6790446813170008 -0.7434942833739959
8.745609375 0.6783693584186767 -0.7449882564632895
8.7467578125 0.6773578507254938 -0.7450230403655524
8.74790625 0.6773121386846626 -0.7458050065515871
8.7490546875 0.6751391066578358 -0.748374704233204
8.750203125 0.6755381753408216 -0.7469355183890961
8.7513515625 0.6768337750513267 -0.745584071070724
8.7525 0.6747707696500604 -0.7463004423628152
8.7536484375 0.6756372599504971 -0.7466698580870725
8.754796875 0.6731980641584945 -0.7484537452356229
8.7559453125 0.672909010556162 -0.7477260225084064
8.75709375 0.6725282439896276 -0.7485478885317952
8.7582421875 0.6717656054492077 -0.7471072497062572
8.759390625 0.6729564190373256 -0.7482601655525658
8.7605390625 0.6708564577546753 -0.7497746164837867
8.7616875 0.6706025367497143 -0.7487668043236498
8.7628359375 0.6701474920972946 -0.7483704745898618
8.763984375 0.6704198799699198 -0.7489782125214759
8.7651328125 0.6698511091885877 -0.7497546426896688
8.76628125 0.6701143443032913 -0.7492697448373639
8.7674296875 0.6685578356392781 -0.7497398755747584
8.768578125 0.6688634891070959 -0.7488697221824953
8.7697265625 0.6683541732088815 -0.7481445426289287
8.770875 0.6686237126636754 -0.749740038143642
8.7720234375 0.6681746923898664 -0.7497357231720353
8.773171875 0.6665615759800094 -0.7497273921477597
8.7743203125 0.6679380730899707 -0.7499230793015038
8.77546875 0.6671910750785768 -0.7511404038484857
8.7766171875 0.6683915109014291 -0.7513513999469835
8.777765625 0.6678455730596771 -0.7509725321807011
8.7789140625 0.6675434903558322 -0.7527614533526381
8.7800625 0.668157270962578 -0.7525429249038511
8.7812109375 0.6658820201411928 -0.7532666679110173
8.782359375 0.6653545258459589 -0.753320818181745
8.7835078125 0.6647072449375293 -0.7540330204805663
8.78465625 0.6654176047192353 -0.7536044141229914
8.7858046875 0.6649328497969793 -0.755202465377234
8.786953125 0.6643418743691183 -0.7545642803167232
8.7881015625 0.6628791629220774 -0.7537049852943314
8.78925 0.6637490870764183 -0.7536700610712496
8.7903984375 0.6621204460591421 -0.7549588011147355
8.791546875 0.6631911679835172 -0.7548032413301227
8.7926953125 0.6633335835562312 -0.7548308799699254
8.79384375 0.6629583118605591 -0.754890701346857
8.7949921875 0.6631701025684658 -0.7548908798326308
8.796140625 0.6623514764687002 -0.7549743986534092
8.7972890625 0.6619479475175982 -0.7546687948401314
8.7984375 0.6612446430462439 -0.7558077649555532
8.7995859375 0.6615537862975817 -0.7561403556901461
8.800734375 0.6617804033946111 -0.7558230919651563
8.8018828125 0.6608399129214549 -0.7565994967570514
8.80303125 0.6624056147102216 -0.7563172282859679
8.8041796875 0.6607797484895972 -0.7566210512714036
8.805328125 0.6594145848159487 -0.7583567303183201
8.8064765625 0.6598666671771363 -0.7599655195464211
8.807625 0.6599109121872684 -0.7598638597952414
8.8087734375 0.6596502583766721 -0.7600926558758138
8.809921875 0.6588776607951011 -0.7610690447508399
8.8110703125 0.6577834625483665 -0.7602487059145324
8.81221875 0.6573683389573872 -0.7604237252630909
8.8133671875 0.657520223875679 -0.7621030501428181
8.814515625 0.6583208455582936 -0.7629379231347758
8.8156640625 0.6561032192212803 -0.7624590326341467
8.8168125 0.6556189291472222 -0.7628815082220413
8.8179609375 0.6565758893719567 -0.7629009460804492
8.819109375 0.655844875315772 -0.7624681441087219
8.8202578125 0.6555326110051651 -0.7641757590411364
8.82140625 0.6552095474330235 -0.7632462330268182
8.8225546875 0.6551579380648033 -0.762971926763562
8.823703125 0.6535544650367382 -0.7637983226481926
8.8248515625 0.6536544850842283 -0.7639210592552651
8.826 0.6543295909347324 -0.7651978744623246
8.8271484375 0.6544101685413628 -0.7648987348126759
8.828296875 0.6535700777562747 -0.765093137735972
8.8294453125 0.6522932661518166 -0.765377645359338
8.83059375 0.6525819465949636 -0.7645120366695372
8.8317421875 0.651895889653799 -0.7667624330488803
8.832890625 0.652423617874942 -0.7658717175752285
8.8340390625 0.6522747100104402 -0.7661030419386284
8.8351875 0.651994327258608 -0.7668002369778769
8.8363359375 0.6512453842703574 -0.7674330041721767
8.837484375 0.6515684752346664 -0.7675489415404494
8.8386328125 0.6521339744079366 -0.7685263101615813
8.83978125 0.6505568830247973 -0.7676097651881141
8.8409296875 0.6507981489555617 -0.769180600522875
8.842078125 0.6510559562429281 -0.7682080791591661
8.8432265625 0.6498569823145626 -0.7686705468824455
8.844375 0.6509285025998617 -0.769871198995504
8.8455234375 0.6512509867690331 -0.7691382589468828
8.846671875 0.6496247783479503 -0.7709240951764393
8.8478203125 0.6500798271182329 -0.7708023263641226
8.84896875 0.6490286657459718 -0.7712832010856244
8.8501171875 0.6491138819513868 -0.7717859108915758
8.851265625 0.6497993875942598 -0.7726633067158626
8.8524140625 0.6492688760238259 -0.7732724234706493
8.8535625 0.6490512886542349 -0.7735265630797477
8.8547109375 0.6470957217850867 -0.7738840587932675
8.855859375 0.6490066749814335 -0.7732997785153017
8.8570078125 0.6490982148480717 -0.773438488499147
8.85815625 0.6475916320217155 -0.7747426284042196
8.8593046875 0.6476613281447409 -0.7755810780992973
8.860453125 0.6485112536143498 -0.7778856281066665
8.8616015625 0.6473920814909404 -0.7788186228600269
8.86275 0.6476062681725764 -0.7771840138700608
8.8638984375 0.6463270015733737 -0.7780024012361535
8.865046875 0.6461629602817198 -0.7782887996396781
8.8661953125 0.6451859916533838 -0.7789903178234486
8.86734375 0.6453864103384481 -0.7799404980783657
8.8684921875 0.6454831751501929 -0.78059288403667
8.869640625 0.6442176458071184 -0.7819291431848774
8.8707890625 0.6437589354550496 -0.782463294118562
8.8719375 0.6430996515595232 -0.782661695868921
8.8730859375 0.641560136803035 -0.7824861109392707
8.874234375 0.6427320507090484 -0.7829627637250949
8.8753828125 0.6426146799767077 -0.7829753945735737
8.87653125 0.6403091586506506 -0.7843110629368911
8.8776796875 0.6415340232332492 -0.7844417657097194
8.878828125 0.6411188862264489 -0.7846024742113729
8.8799765625 0.6403631562459425 -0.7848513422954242
8.881125 0.6391432235327071 -0.7853856462883295
8.8822734375 0.6388377641414442 -0.7861978686809514
8.883421875 0.6395859068767805 -0.7864672489054665
8.8845703125 0.6391108104410466 -0.7873973904263643
8.88571875 0.6390536720026367 -0.7880090326077878
8.8868671875 0.6378782267785608 -0.7883972265428251
8.888015625 0.6365780811702723 -0.7890414160465091
8.8891640625 0.6364500794759201 -0.7890807108312372
8.8903125 0.6361412444109492 -0.7879855898972514
8.8914609375 0.6349481910649666 -0.7893784681674003
8.892609375 0.6346822107813135 -0.7895408445900667
8.8937578125 0.6351560401459153 -0.7904021036255503
8.89490625 0.6338787069406477 -0.7899800570853885
8.8960546875 0.6321869318625107 -0.7907493523608035
8.897203125 0.6322642255053821 -0.7910282569862275
8.8983515625 0.6315244508864934 -0.7906785783577532
8.8995 0.6311049596102541 -0.7917305941246899
8.9006484375 0.631615333477579 -0.791970204627037
8.901796875 0.6306844257516127 -0.791577358612441
8.9029453125 0.6297005850686204 -0.7922404731566999
8.90409375 0.6294951296232685 -0.7913715030660398
8.9052421875 0.6295557912813213 -0.7913079280279187
8.906390625 0.6287492524075099 -0.7904482881161996
8.9075390625 0.6276359364085957 -0.7915268618758393
8.9086875 0.6282904944087357 -0.7915279866736644
8.9098359375 0.6278177278595185 -0.792586055521176
8.910984375 0.6267088815971102 -0.7931403538285098
8.9121328125 0.626916315643917 -0.7925638538324012
8.91328125 0.626796251308287 -0.7919587159760544
8.9144296875 0.6269850085983862 -0.7925882604860435
8.915578125 0.6264077930156404 -0.7924580407047479
8.9167265625 0.6253951121584804 -0.7925610026413878
8.917875 0.6261991797476459 -0.7926179135990257
8.9190234375 0.6270102771064329 -0.7926725415437941
8.920171875 0.6258038177321268 -0.7926859526870328
8.9213203125 0.626379912200903 -0.7933685785179884
8.92246875 0.6252850208080576 -0.7937410838030865
8.9236171875 0.6257090105671865 -0.7940400146000792
8.924765625 0.6260805486871504 -0.7944556097284632
8.9259140625 0.6250351841128973 -0.7953561430647009
8.9270625 0.625899089231001 -0.7961165251992198
8.9282109375 0.6248381146646553 -0.7955674144090816
8.929359375 0.6239958953202721 -0.7975184766900512
8.9305078125 0.6247330263109243 -0.7979554751911047
8.93165625 0.6248842135807341 -0.7978692725713487
8.9328046875 0.6239787915757171 -0.7980124734728214
8.933953125 0.6240014032490074 -0.7987566694224413
8.9351015625 0.6235299129264703 -0.7978669297095802
8.93625 0.6238955429089161 -0.7984241490341453
8.9373984375 0.6230084381439174 -0.7989156668817587
8.938546875 0.6234172291551224 -0.7992933345566942
8.9396953125 0.6229330014587309 -0.7989363071181518
8.94084375 0.6218893120119836 -0.8006502998928308
8.9419921875 0.6222531140792135 -0.7997259522187845
8.943140625 0.6228380090494066 -0.8003360317408106
8.9442890625 0.6226037684374538 -0.8013694697447612
8.9454375 0.6231591009106442 -0.8021861907948732
8.9465859375 0.6222479001367083 -0.8036267868345626
8.947734375 0.6223171582199732 -0.8036374267461814
8.9488828125 0.622924680232457 -0.8042318605563895
8.95003125 0.6216380615248216 -0.804903478773322
8.9511796875 0.6209518407732324 -0.8048789017404171
8.952328125 0.6205198336535805 -0.8058615844575987
8.9534765625 0.6212316768454613 -0.8062046886992711
8.954625 0.6205187857701038 -0.807855760308893
8.9557734375 0.6199841719731838 -0.808374117671288
8.956921875 0.6199660707235339 -0.8083740951827469
8.9580703125 0.6179780233625582 -0.8078509680852752
8.95921875 0.618588896480443 -0.8091022593588345
8.9603671875 0.6185756400693238 -0.8088394610804647
8.961515625 0.6176239659118118 -0.8089020672229386
8.9626640625 0.6178371377942125 -0.8104259413133252
8.9638125 0.615614762766486 -0.8104787735755368
8.9649609375 0.6151754770576375 -0.8112018536399408
8.966109375 0.616463988143174 -0.8110914246877443
8.9672578125 0.6156664430400209 -0.8121578347250069
8.96840625 0.6154181501336444 -0.8122208956471377
8.9695546875 0.6156159552887286 -0.8123136710376424
8.970703125 0.6150602169125634 -0.8138375902686421
8.9718515625 0.6148726485939207 -0.8140591446410861
8.973 0.6145299060158529 -0.8145942692796346
8.9741484375 0.6145344171159923 -0.8155070326436111
8.975296875 0.6134118549377039 -0.8151702574292419
8.9764453125 0.6141167143391408 -0.8159042951269098
8.97759375 0.6135183465317815 -0.8148454109354506
8.9787421875 0.611922884900607 -0.8158011199381445
8.979890625 0.6128054596552741 -0.8173791770889874
8.9810390625 0.6117772788458564 -0.8177204555232146
8.9821875 0.6114726040517395 -0.8178398874094364
8.9833359375 0.6109939004625335 -0.8178672395678406
8.984484375 0.6113228576350481 -0.8179443809363552
8.9856328125 0.6100821091062811 -0.8189201369779959
8.98678125 0.6098398353725234 -0.8198821231047486
8.9879296875 0.6096711751165852 -0.8195882039212314
8.989078125 0.6087934056225595 -0.8202769253934956
8.9902265625 0.6085713750866546 -0.8204762942126005
8.991375 0.6075912061663497 -0.8211256934006865
8.9925234375 0.6073719732011257 -0.8201774790474263
8.993671875 0.6064439272486634 -0.8217521458517106
8.9948203125 0.606827226751393 -0.8215378713368053
8.99596875 0.607950601728668 -0.8222604458547178
8.9971171875 0.608332416845427 -0.8224741607411271
8.998265625 0.6071011226299371 -0.8244999525224614
8.9994140625 0.6067631491408606 -0.8251977915070215
9.0005625 0.60501576792288 -0.8247801513520364
9.0017109375 0.6037868161670144 -0.8269279668364342
9.002859375 0.6030380382723394 -0.827007752788387
9.0040078125 0.6027232810207943 -0.8264588073879358
9.00515625 0.6016009586152944 -0.8283215149792978
9.0063046875 0.6025049768556099 -0.8279595168083753
9.007453125 0.6014511654337873 -0.8283308168592667
9.0086015625 0.5992639932802479 -0.8298262171950506
9.00975 0.6013284889376415 -0.8298662746922046
9.0108984375 0.6016521020245972 -0.8291060057482078
9.012046875 0.598796845104098 -0.8300342891630863
9.0131953125 0.5987608795176713 -0.8293677818571148
9.01434375 0.5988971783749809 -0.8296526702428532
9.0154921875 0.5981071661961637 -0.8297827916493461
9.016640625 0.5979357028973542 -0.8314281427715959
9.0177890625 0.5972725528298213 -0.8310515006899923
9.0189375 0.5967715032000801 -0.8317373030619641
9.0200859375 0.5955178185404972 -0.833135841605917
9.021234375 0.5941235023108116 -0.8327328453135017
9.0223828125 0.5968941936003107 -0.8332354691591359
9.02353125 0.5941595192865846 -0.8330288212794668
9.0246796875 0.5937115819624937 -0.8340047305992504
9.025828125 0.5945830612347163 -0.8337014773427969
9.0269765625 0.5925524560708268 -0.834184720473623
9.028125 0.5928941283362958 -0.8341681685804218
9.0292734375 0.5923412405608801 -0.8347464648192755
9.030421875 0.5917622253454745 -0.8346542839574178
9.0315703125 0.5903608936596528 -0.8347635631766575
9.03271875 0.5910863062785802 -0.8354121131998071
9.0338671875 0.5923964588693267 -0.8356814949544158
9.035015625 0.5904577403460343 -0.8368667211969768
9.0361640625 0.5904884416356194 -0.838142890277326
9.0373125 0.5885353867847171 -0.8371167328572883
9.0384609375 0.5889495996872791 -0.8382973256858434
9.039609375 0.5884723691390702 -0.8375380111719752
9.0407578125 0.5866322456562171 -0.8379456473650136
9.04190625 0.5856823079251864 -0.8386883560399518
9.0430546875 0.5851424783574941 -0.8385045329363036
9.044203125 0.5855661177837994 -0.8402370273125466
9.0453515625 0.5857637276975072 -0.8398125343629094
9.0465 0.5830816389447347 -0.8401953097204673
9.0476484375 0.5838961033255203 -0.8397108684476109
9.048796875 0.5836157497234727 -0.8393201006163351
9.0499453125 0.5835866164260919 -0.8406911837437886
9.05109375 0.5831770909889421 -0.841067168211902
9.0522421875 0.5836296633778543 -0.8407760143900973
9.053390625 0.5827018281614904 -0.8400795394025984
9.0545390625 0.5824644105360175 -0.8416396618076907
9.0556875 0.5827686619458969 -0.842510221133556
9.0568359375 0.5813019870926442 -0.8423775969834847
9.057984375 0.5816677209815198 -0.8438618877257444
9.0591328125 0.5814639717738082 -0.8431509205541486
9.06028125 0.5800670076175073 -0.8430775849501727
9.0614296875 0.5803983774834279 -0.8449378876487761
9.062578125 0.5806367098154465 -0.8440012446246057
9.0637265625 0.5803424644888426 -0.8456463829700562
9.064875 0.5788459452375877 -0.846180330148582
9.0660234375 0.5791268173716096 -0.8465473550530799
9.067171875 0.57737665035911 -0.8473423163598088
9.0683203125 0.5776842652704838 -0.8482682770014395
9.06946875 0.5773530281910692 -0.8496716906441133
9.0706171875 0.5766347167022451 -0.848176097073556
9.071765625 0.5753232353905727 -0.8489923055974038
9.0729140625 0.572764374232535 -0.8509361967764549
9.0740625 0.5738531595163767 -0.8505441246354711
9.0752109375 0.5735083287897931 -0.8509138337683269
9.076359375 0.5722654002870836 -0.8523576931392948
9.0775078125 0.5723478193012635 -0.8521167485851202
9.07865625 0.5713275749876193 -0.8530041970666947
9.0798046875 0.569485233762679 -0.852815311283312
9.080953125 0.5699302794712966 -0.8530916437197621
9.0821015625 0.5686965811725272 -0.8527936593266281
9.08325 0.567972366389725 -0.853632932067037
9.0843984375 0.5664658918959053 -0.8530781408151306
9.085546875 0.5657456321000617 -0.8548640962485078
9.0866953125 0.5666399629654886 -0.8543016419609475
9.08784375 0.5660644056025093 -0.8546353681634278
9.0889921875 0.565803488615237 -0.8536748651458734
9.090140625 0.566238012063358 -0.8544336735077673
9.0912890625 0.5644548515385959 -0.855129099240882
9.0924375 0.5643187057936099 -0.8550729345273964
9.0935859375 0.5648846042333253 -0.8546658940832337
9.094734375 0.5643643812478691 -0.8558949927101995
9.0958828125 0.5625355113007511 -0.8549946509134334
9.09703125 0.5613151839825126 -0.8546323999224754
9.0981796875 0.562082217528214 -0.8552858246824013
9.099328125 0.562432872809801 -0.857116145193662
9.1004765625 0.5600717940222968 -0.856304688665522
9.101625 0.56058423333843 -0.8577672110863378
9.1027734375 0.5586071510056925 -0.8570013555409157
9.103921875 0.5595872700842612 -0.8572129407911019
9.1050703125 0.5592809030250797 -0.8561390971995284
9.10621875 0.5583773106463832 -0.8577249548216989
9.1073671875 0.5590362708612164 -0.8579402003968546
9.108515625 0.5586169650287077 -0.8589297318149575
9.1096640625 0.557953833073661 -0.8592156053644886
9.1108125 0.5570138386299246 -0.8582924713922917
9.1119609375 0.5563829060970699 -0.8592466595223236
9.113109375 0.556015749752558 -0.8586522937930843
9.1142578125 0.5557501358325013 -0.8607920598374579
9.11540625 0.5561306808938321 -0.8606606182843701
9.1165546875 0.5561152858185532 -0.8593005464979209
9.117703125 0.5540625974122558 -0.8598890180624679
9.1188515625 0.5523682629375465 -0.8602625120955425
9.12 0.5522973044640445 -0.8599205151808726
9.1211484375 0.5506519578362924 -0.8605603279816787
9.122296875 0.5493258062671433 -0.8611311878564922
9.1234453125 0.5492180840980116 -0.8614376698168495
9.12459375 0.5492381300312132 -0.8600173316084345
9.1257421875 0.548716997920693 -0.8599543169252848
9.126890625 0.5500896669774957 -0.8590149461569954
9.1280390625 0.5479793868183793 -0.8600806421903293
9.1291875 0.5493645350052959 -0.8614375518568148
9.1303359375 0.5495726478174767 -0.8610861835751261
9.131484375 0.5473309555410705 -0.8609908493983355
9.1326328125 0.5457494352736796 -0.8621943103000083
9.13378125 0.5453358806609445 -0.8606906655229754
9.1349296875 0.5463934973966639 -0.8598331644107298
9.136078125 0.5456808333566953 -0.8602421571652993
9.1372265625 0.5452510913769375 -0.8598198274617133
9.138375 0.5466061049497661 -0.8596732594645371
9.1395234375 0.5442400359514175 -0.8599310521789582
9.140671875 0.5445771365969343 -0.8622003174968225
9.1418203125 0.5434000080345356 -0.8617280245994019
9.14296875 0.5453122145812868 -0.8614300796403915
9.1441171875 0.5433065204042732 -0.8623843822558614
9.145265625 0.5429627553347653 -0.8630018997149618
9.1464140625 0.5431438782135599 -0.8632778325916171
9.1475625 0.5420553017281038 -0.8625053048995242
9.1487109375 0.5401467247089322 -0.8644103595062275
9.149859375 0.5399954138006439 -0.8628739824031767
9.1510078125 0.538561645916291 -0.8645410741369336
9.15215625 0.5382030602073647 -0.8659089488355602
9.1533046875 0.5393023159870332 -0.8632941121321276
9.154453125 0.5384988797914178 -0.8629665896056324
9.1556015625 0.5381051662138209 -0.8641377209939052
9.15675 0.5376394414408232 -0.8652366359906077
9.1578984375 0.5371341278297399 -0.865809660385015
9.159046875 0.536653190949065 -0.8651387602705791
9.1601953125 0.536383701898647 -0.8662457174331099
9.16134375 0.5363484393621075 -0.8658101628411159
9.1624921875 0.5353596399306908 -0.8650863010681302
9.163640625 0.5351059290674636 -0.864710384891846
9.1647890625 0.535540917521938 -0.8646067844085518
9.1659375 0.5349591057201368 -0.8670720597341326
9.1670859375 0.533792550560841 -0.8674353785370316
9.168234375 0.5332803255090373 -0.8672341616041097
9.1693828125 0.5322922274246954 -0.8671194629442915
9.17053125 0.5315002935360842 -0.8673820145932907
9.1716796875 0.5315246911624305 -0.8690240077934988
9.172828125 0.5314909060922728 -0.8685385662278627
9.1739765625 0.5306940492234657 -0.8691624007676315
9.175125 0.5311484599722445 -0.8688770007192914
9.1762734375 0.5306492532380868 -0.8680863068041608
9.177421875 0.5309115177497705 -0.868162301378433
9.1785703125 0.5305962603645841 -0.8702576907092343
9.17971875 0.5296556748499816 -0.8710797224154557
9.1808671875 0.5297617844021132 -0.87000575435269
9.182015625 0.5293587964483699 -0.8704444313852873
9.1831640625 0.527724882345683 -0.8704266870206685
9.1843125 0.5272978328691141 -0.8717910549726345
9.1854609375 0.5269562813002973 -0.8720995843786113
9.186609375 0.5275330604690588 -0.8725834599574721
9.1877578125 0.527633965977365 -0.8728372085770163
9.18890625 0.5262847015110552 -0.8714682368400155
9.1900546875 0.524869670754196 -0.8717398317463755
9.191203125 0.5250740136652434 -0.8726310422493997
9.1923515625 0.5255235391437934 -0.87556956281137
9.1935 0.5244288281152993 -0.8761552144230037
9.1946484375 0.5246717786677835 -0.8752999933952461
9.195796875 0.5244099313771146 -0.8750051096388056
9.1969453125 0.5223923717494294 -0.8753647656011724
9.19809375 0.5223241716136096 -0.8747258117063568
9.1992421875 0.5231088391612828 -0.8759667054452533
9.200390625 0.5232217264387857 -0.8740999601479125
9.2015390625 0.522217256586792 -0.8766906926737396
9.2026875 0.5218987776210431 -0.8774525999136564
9.2038359375 0.5213044553977151 -0.8770692372528257
9.204984375 0.5179513257378546 -0.877694472786579
9.2061328125 0.5208471728372956 -0.8757571742106187
9.20728125 0.5207870842099466 -0.8769376343787509
9.2084296875 0.5174014385432844 -0.8778476657865544
9.209578125 0.5183402680399032 -0.8777211735661631
9.2107265625 0.5181676722486396 -0.8773263812274648
9.211875 0.5176844572381815 -0.8786013024953797
9.2130234375 0.5178114692395724 -0.8771315630879232
9.214171875 0.5172299545659218 -0.8767149927733022
9.2153203125 0.515474779846154 -0.8777426690429911
9.21646875 0.51573292363907 -0.8781701762939594
9.2176171875 0.5138873250585326 -0.8768373286758957
9.218765625 0.5152184615488027 -0.877269699926074
9.2199140625 0.5153655839541746 -0.8791244101822526
9.2210625 0.5143717582334857 -0.8801169889885929
9.2222109375 0.513978641123596 -0.8808690192149833
9.223359375 0.5135711419733376 -0.878647411050103
9.2245078125 0.5148130348698683 -0.8792559434673609
9.22565625 0.5124256992260611 -0.8793297132109467
9.2268046875 0.5125875777685119 -0.8820541072908233
9.227953125 0.5121915071941542 -0.8813405807188958
9.2291015625 0.5129104635147054 -0.8796557952178211
9.23025 0.5105625343700387 -0.8814379256320977
9.2313984375 0.5104543430296465 -0.8820877249356238
9.232546875 0.5104762759935186 -0.8812508210770206
9.2336953125 0.5090105147939014 -0.8802635025268923
9.23484375 0.5077826259560452 -0.8815593964666711
9.2359921875 0.5080712885259259 -0.8808572362164324
9.237140625 0.5071451916745123 -0.8812589129760181
9.2382890625 0.5058862247048979 -0.8828723542486553
9.2394375 0.505858987859883 -0.8833067642571764
9.2405859375 0.5053168347911857 -0.8842060410319033
9.241734375 0.5055311743893469 -0.884615940747863
9.2428828125 0.5045712557910351 -0.8842492642714006
9.24403125 0.5031048988183198 -0.882767038273313
9.2451796875 0.5026698429679886 -0.8836643472236158
9.246328125 0.5020092833465877 -0.8829960406472654
9.2474765625 0.5020834066632196 -0.8834983863692103
9.248625 0.5016484415001007 -0.8831134694339904
9.2497734375 0.5004830569882122 -0.8851793945447016
9.250921875 0.5003241464381704 -0.8847223494981769
9.2520703125 0.5010969145654488 -0.8864509291579225
9.25321875 0.5004354837477829 -0.8872795647311555
9.2543671875 0.5011676920485058 -0.8861081740595563
9.255515625 0.4998166798004181 -0.8879054822003927
9.2566640625 0.4985260099216492 -0.8877300113883164
9.2578125 0.497557597278229 -0.8861426677794226
9.2589609375 0.4968144063172165 -0.887678384535391
9.260109375 0.4962782051540135 -0.8870030783648006
9.2612578125 0.4947239569284958 -0.8879889934541729
9.26240625 0.49590812210873997 -0.8893792804497694
9.2635546875 0.49515651787656323 -0.8889743830228071
9.264703125 0.4947214353986713 -0.8887127808644886
9.2658515625 0.49449345428060665 -0.8878810496095811
9.267 0.49514504145347543 -0.8877330054946553
9.2681484375 0.4927489065406442 -0.8876989702465854
9.269296875 0.49352157340236813 -0.8891590357620602
9.2704453125 0.4930388959448587 -0.8896108568357038
9.27159375 0.49217449682439823 -0.889593099347314
9.2727421875 0.49262243581405063 -0.8888400045620864
9.273890625 0.4911711575915723 -0.8901116700719434
9.2750390625 0.49265070990119453 -0.8893244675805667
9.2761875 0.48907057709754376 -0.8891877520976347
9.2773359375 0.4911823548425503 -0.8899917966128741
9.278484375 0.49013483185357865 -0.8878990460915521
9.2796328125 0.488172311811796 -0.8899285981171496
9.28078125 0.48746067423559725 -0.8903191757814394
9.2819296875 0.4880280232523695 -0.890135368257735
9.283078125 0.4866828484675103 -0.8896430056985636
9.2842265625 0.4851558865002493 -0.8913123646540491
9.285375 0.487193569980535 -0.8909394285368368
9.2865234375 0.4864175872553411 -0.8889635022240828
9.287671875 0.48946215370422913 -0.8920702534107576
9.2888203125 0.4863763192121736 -0.8913840244702026
9.28996875 0.4847374477573265 -0.8914532088112618
9.2911171875 0.48354472906935253 -0.893362892453002
9.292265625 0.4844125718490737 -0.8925669893840998
9.2934140625 0.4832993395110792 -0.8927177052158937
9.2945625 0.48333510022869863 -0.8908496035514428
9.2957109375 0.4841803246473102 -0.8930172515162565
9.296859375 0.48345860405066454 -0.8923106395383715
9.2980078125 0.48255627926005246 -0.8933604390067912
9.29915625 0.482135822005791 -0.8931585893645566
9.3003046875 0.4809855645594219 -0.8937690127979836
9.301453125 0.4813029641135119 -0.8948889313157915
9.3026015625 0.4816274116697008 -0.8941165202180198
9.30375 0.4790688021328539 -0.8926185366131116
9.3048984375 0.4794522218865207 -0.8940602858451461
9.306046875 0.4802398115442658 -0.893887076112833
9.3071953125 0.4804690007967727 -0.8943001650370481
9.30834375 0.48015487792010003 -0.8945408662647307
9.3094921875 0.4778588719101935 -0.8954541499369384
9.310640625 0.4791534038210827 -0.8958910155217293
9.3117890625 0.4789944007745744 -0.8960430903862211
9.3129375 0.4798370774581209 -0.8970171813185541
9.3140859375 0.4770091318121826 -0.8969230151375586
9.315234375 0.47704382919109184 -0.8964967690793837
9.3163828125 0.47577468697003433 -0.8963471698980503
9.31753125 0.47494561909293487 -0.8970408228351889
9.3186796875 0.4745569989600968 -0.8961666802798589
9.319828125 0.47409435103404873 -0.8965580510185598
9.3209765625 0.47332281315826974 -0.8975663673939982
9.322125 0.47273460264275474 -0.8966110562220007
9.3232734375 0.47186525729513296 -0.8974933865897929
9.324421875 0.47205248754994705 -0.897777871213844
9.3255703125 0.471580674982865 -0.9012078358362923
9.32671875 0.47025506759222224 -0.900713217461454
9.3278671875 0.4717431706658469 -0.9005859731013593
9.329015625 0.47002467712642415 -0.9010372156352529
9.3301640625 0.46852887204251126 -0.9015766172957664
9.3313125 0.46838422485334114 -0.9014326723190919
9.3324609375 0.46718233238221163 -0.9034789663738303
9.333609375 0.46832905591703455 -0.902409407224928
9.3347578125 0.4687758569006659 -0.9015138739625457
9.33590625 0.4659881744555152 -0.9031250339381525
9.3370546875 0.46603015677101806 -0.9031691545844203
9.338203125 0.46667946981407604 -0.9024329768371273
9.3393515625 0.4671042225557467 -0.9042685475982539
9.3405 0.46479088175220656 -0.9064556729938409
9.3416484375 0.4640654635577323 -0.9037698746254927
9.342796875 0.4639701115933027 -0.9039757012080751
9.3439453125 0.4619030115724833 -0.9030524075016793
9.34509375 0.46224271054917676 -0.9048262609915677
9.3462421875 0.4608947328023665 -0.904939899615451
9.347390625 0.45977998951661625 -0.9060231165198404
9.3485390625 0.46256192959323916 -0.9055440054689567
9.3496875 0.4618184174455088 -0.9062313155323041
9.3508359375 0.4607531832193872 -0.9072061536820142
9.351984375 0.46140534648557535 -0.9064993855944377
9.3531328125 0.4606051085318668 -0.9079053590579218
9.35428125 0.4582591783790591 -0.907913142918477
9.3554296875 0.46088427637165713 -0.9072181035255391
9.356578125 0.4595602946752024 -0.9065369950241785
9.3577265625 0.46021739089164326 -0.9084602337215979
9.358875 0.45723567951554633 -0.9090653227426757
9.3600234375 0.4563633024539561 -0.9089052211854347
9.361171875 0.45488545416405596 -0.9107889027573575
9.3623203125 0.4536288162443512 -0.911116298732811
9.36346875 0.45456725442328133 -0.9128381485913659
9.3646171875 0.45430568856400977 -0.9104856093914632
9.365765625 0.4528032097028981 -0.9118122434056037
9.3669140625 0.4527552498636256 -0.9113660734000408
9.3680625 0.4508658783775702 -0.912497160963399
9.3692109375 0.4498258375375239 -0.9125404437057207
9.370359375 0.45019462705724606 -0.9133178051178398
9.3715078125 0.4501113912285399 -0.9132809041001952
9.37265625 0.45046854764304933 -0.9128342109341891
9.3738046875 0.44724820150964373 -0.9129914666271264
9.374953125 0.44625866286520255 -0.9110353874073307
9.3761015625 0.447029624839801 -0.9113071339684895
9.37725 0.4468365387059434 -0.911945119048399
9.3783984375 0.4466093250254199 -0.9119267245553833
9.379546875 0.4461707324520443 -0.9108705886388817
9.3806953125 0.4444735457655162 -0.9108387032644258
9.38184375 0.4447914420843636 -0.9116846841550292
9.3829921875 0.4442229894357467 -0.9124375116763774
9.384140625 0.44507508796814044 -0.9115615840490094
9.3852890625 0.4440193934699448 -0.9123349575801702
9.3864375 0.44459624982561224 -0.9140907553262021
9.3875859375 0.44151405166607105 -0.9146667505658249
9.388734375 0.43891863775299855 -0.9135314309818849
9.3898828125 0.43928642048958466 -0.9137693813116067
9.39103125 0.4397718203318423 -0.9124971151179757
9.3921796875 0.43796638036171903 -0.9131681728421706
9.393328125 0.439203176735749 -0.9133189238261743
9.3944765625 0.43740702990577734 -0.9132378392454722
9.395625 0.4368814313398076 -0.9141310501803639
9.3967734375 0.43725830853229936 -0.9152892823574157
9.397921875 0.4360937421038864 -0.9146375499327957
9.3990703125 0.43660538171498553 -0.9140574445872245
9.40021875 0.4347110287848196 -0.915710330264506
9.4013671875 0.4353805265373356 -0.9159881613438977
9.402515625 0.43510250413696766 -0.914562150301152
9.4036640625 0.43194318715063645 -0.9153052362364503
9.4048125 0.4324924586145329 -0.9146718214254633
9.4059609375 0.432387523784755 -0.9155884918990294
9.407109375 0.4310095200856778 -0.9140201929868383
9.4082578125 0.4313094156668353 -0.9156532048295558
9.40940625 0.42982694494298856 -0.9160936036659375
9.4105546875 0.4284672487732999 -0.9169759599452338
9.411703125 0.4280097113185192 -0.9165515666063131
9.4128515625 0.4271993188810198 -0.9166249997035594
9.414 0.42859294168758694 -0.9154349204651853
9.4151484375 0.4254035341350426 -0.9153100458584988
9.416296875 0.4264363974635658 -0.9160634419138896
9.4174453125 0.42679061336522894 -0.9150907566507878
9.41859375 0.42460467088166054 -0.9161195347898012
9.4197421875 0.42515782848824163 -0.9152542435577167
9.420890625 0.4252818016623958 -0.9168728183099994
9.4220390625 0.4229934087258408 -0.9175300329676191
9.4231875 0.42391974222273604 -0.9175097687877416
9.4243359375 0.4220974994027591 -0.9170119890857278
9.425484375 0.42219056764852564 -0.916982118322065
9.4266328125 0.4204942753350608 -0.9185563068550191
9.42778125 0.422626211295271 -0.9168040540465916
9.4289296875 0.42211438956435154 -0.9159447327749222
9.430078125 0.41845126287686707 -0.9168741428450585
9.4312265625 0.41858186152608196 -0.9165845972163885
9.432375 0.4196865124780673 -0.916046075965421
9.4335234375 0.41877080092437524 -0.9164244971475906
9.434671875 0.4193664199097107 -0.9186928457116503
9.4358203125 0.4178224105868257 -0.9196476282629513
9.43696875 0.41729652217209534 -0.9188550570113023
9.4381171875 0.41689463005669336 -0.9186776119328446
9.439265625 0.4161879197485188 -0.9184014818831334
9.4404140625 0.41631393802081296 -0.9186615052430551
9.4415625 0.413778651472379 -0.9206760444288133
9.4427109375 0.414771178679287 -0.9209384791424822
9.443859375 0.4142704478934714 -0.9206680258646185
9.4450078125 0.41300642577677893 -0.920332549635844
9.44615625 0.4129611056209288 -0.9207595910391446
9.4473046875 0.41267713084792107 -0.9201143322954239
9.448453125 0.4126111061480464 -0.9202083833451521
9.4496015625 0.41082953897713487 -0.920580156821843
9.45075 0.411555822481097 -0.9209988890853926
9.4518984375 0.4111840821131085 -0.9200986492176264
9.453046875 0.41104056968885794 -0.9205776264250176
9.4541953125 0.40916957597877507 -0.9206940443096803
9.45534375 0.40894893716132347 -0.9206076132989613
9.4564921875 0.4079436919248433 -0.9211624229082497
9.457640625 0.4075683317692903 -0.9210890141406856
9.4587890625 0.4067042600233449 -0.9218903581197722
9.4599375 0.4059828052766385 -0.9224032676939312
9.4610859375 0.4059203314984992 -0.922174064457224
9.462234375 0.4049316904397249 -0.9214656080735688
9.4633828125 0.40438455218684427 -0.9217990797905308
9.46453125 0.40390832404859 -0.9222930874670476
9.4656796875 0.40423834091244404 -0.9213773123801665
9.466828125 0.40364842748719076 -0.921654559804146
9.4679765625 0.40234662935564625 -0.9218301219573282
9.469125 0.4028697428630613 -0.9222859218178308
9.4702734375 0.402491567463943 -0.9219767048746554
9.471421875 0.40099995529396115 -0.9213089717862826
9.4725703125 0.40065327802703055 -0.9208714420591335
9.47371875 0.4011288074669974 -0.9208664197668142
9.4748671875 0.3993618582759566 -0.9233528706401959
9.476015625 0.39816072653168544 -0.9238053417310218
9.4771640625 0.3997841525512368 -0.924106903050669
9.4783125 0.39853006102703786 -0.9253786949876314
9.4794609375 0.3983413474715277 -0.92422881517801
9.480609375 0.39841531581535455 -0.9233187354204397
9.4817578125 0.39892089836856176 -0.9212643944174362
9.48290625 0.39556343764421387 -0.922723091268949
9.4840546875 0.3969587591502388 -0.9206133523372796
9.485203125 0.3974335949047264 -0.9227017509124174
9.4863515625 0.39487162993316616 -0.9234373864695549
9.4875 0.3973895192604128 -0.9262204298203527
9.4886484375 0.39815881479308346 -0.9232064242300403
9.489796875 0.39345486806297464 -0.9235491008182618
9.4909453125 0.3933918019309347 -0.9237093240718686
9.49209375 0.3951242356916004 -0.9224619891702552
9.4932421875 0.39400883934295694 -0.9235197425697801
9.494390625 0.39309025283233023 -0.9251104183112115
9.4955390625 0.3930715732586572 -0.9259469867068694
9.4966875 0.39122905017550175 -0.9272594145765494
9.4978359375 0.39190343264543814 -0.9273187799926919
9.498984375 0.38987642204378137 -0.9258265727217081
9.5001328125 0.39312198320373803 -0.9258775288420672
9.50128125 0.39132699019998846 -0.9285912937739462
9.5024296875 0.38915019475442186 -0.9286625145118053
9.503578125 0.3885766953246681 -0.9269971276418575
9.5047265625 0.3887420209708723 -0.9268126302134598
9.505875 0.38788652574774035 -0.9276575137283256
9.5070234375 0.38801357233341754 -0.9309808110927236
9.508171875 0.3861512003722667 -0.930619838094923
9.5093203125 0.38564619600968786 -0.931118212622285
9.51046875 0.38601060435671986 -0.9310292905477291
9.5116171875 0.3845383431767747 -0.9291083031469916
9.512765625 0.38509126576227065 -0.9305705396907121
9.5139140625 0.3825554562064016 -0.9304433717333336
9.5150625 0.3834607934392267 -0.930424013192757
9.5162109375 0.38165033805006054 -0.930998906999787
9.517359375 0.3797680453094603 -0.9311088953281803
9.5185078125 0.38031595908398697 -0.9323419957706005
9.51965625 0.3811835442249627 -0.933090572671355
9.5208046875 0.38026905695379265 -0.9331775807924304
9.521953125 0.37827983446256486 -0.9320962302184322
9.5231015625 0.3786139631613339 -0.9315608491315609
9.52425 0.3781868425560363 -0.9327283463111715
9.5253984375 0.37716024216238 -0.9314066477217517
9.526546875 0.37800961495772417 -0.9325266347710828
9.5276953125 0.3755975575872478 -0.9332328857650161
9.52884375 0.3758092215980714 -0.9325063867560445
9.5299921875 0.37555847563067435 -0.9324528645618269
9.531140625 0.3726800234555585 -0.9321978363793642
9.5322890625 0.3715575478405215 -0.9343283599868615
9.5334375 0.37108178590548535 -0.9340376227360224
9.5345859375 0.37203474375542916 -0.9345753806851511
9.535734375 0.3717480981199702 -0.9363412242249376
9.5368828125 0.3713611407663293 -0.9364462492339745
9.53803125 0.3700099085669693 -0.9351682851816295
9.5391796875 0.3681418831081535 -0.9355805801177239
9.540328125 0.36872013516546637 -0.9354044393412189
9.5414765625 0.3674628944678279 -0.936245342656726
9.542625 0.36614027252060144 -0.9357961329064035
9.5437734375 0.3651940119196553 -0.9341513402711796
9.544921875 0.36521294802864956 -0.9362031930153802
9.5460703125 0.362137703717924 -0.9347847290662386
9.54721875 0.3633265495295843 -0.9341168211641468
9.5483671875 0.3638862704229723 -0.9348438552885148
9.549515625 0.3620953067011804 -0.93538294975267
9.5506640625 0.3621668315289423 -0.9360564158514806
9.5518125 0.3610112640831348 -0.9350274425099416
9.5529609375 0.36169532225117146 -0.9347679017284805
9.554109375 0.3595105063993632 -0.9357491008912471
9.5552578125 0.35885732403015225 -0.9362505114550166
9.55640625 0.35771552878650326 -0.9362958672648104
9.5575546875 0.35997283716065986 -0.9355953964991148
9.558703125 0.3585740846474248 -0.9351858065870973
9.5598515625 0.357702015266252 -0.9356528066584415
9.561 0.35591991943670354 -0.9338997648374274
9.5621484375 0.35492184267573784 -0.9358993989308046
9.563296875 0.3549126877104204 -0.9369572774122699
9.5644453125 0.3552404767720642 -0.9347477745946604
9.56559375 0.3531272669786885 -0.9378819955612661
9.5667421875 0.3503881242662512 -0.9384557959507394
9.567890625 0.3526226512733013 -0.936928469054009
9.5690390625 0.3520778685955429 -0.9376397844318984
9.5701875 0.35163461897374854 -0.9377882609828814
9.5713359375 0.35133994720812217 -0.9373098027494475
9.572484375 0.35152697321269777 -0.9362503490472553
9.5736328125 0.35144389204806586 -0.9374526557349868
9.57478125 0.34856726961971346 -0.934824231710345
9.5759296875 0.3487806185508018 -0.9373639522533863
9.577078125 0.34731088094149704 -0.937343267893175
9.5782265625 0.3459786145350269 -0.9362834805799447
9.579375 0.3482231682238237 -0.935889190025123
9.5805234375 0.3458563026829202 -0.9374479543907972
9.581671875 0.34518560165122214 -0.9371231906234704
9.5828203125 0.3436144673254425 -0.9378248922306142
9.58396875 0.3445689567977289 -0.9375226896916947
9.5851171875 0.34291204479453774 -0.9374214377766832
9.586265625 0.34229821354223 -0.9376476556087843
9.5874140625 0.34308989458577643 -0.9378323025042314
9.5885625 0.3416636059012452 -0.936140290520507
9.5897109375 0.3421030435426684 -0.9368649199483283
9.590859375 0.3424430314291962 -0.9360868552950619
9.5920078125 0.34124316147913436 -0.9360391188443937
9.59315625 0.33985462732022204 -0.9378603723536427
9.5943046875 0.34058083744900225 -0.9370758009256279
9.595453125 0.33941154506304316 -0.9386035711170795
9.5966015625 0.33939326990313834 -0.9388234545897673
9.59775 0.33873386232471836 -0.9381589679912474
9.5988984375 0.3377373172509763 -0.9383990035185659
9.600046875 0.33546677842133676 -0.9383510651975719
9.6011953125 0.3361059498265517 -0.9376009054409524
9.60234375 0.3355902497912533 -0.9364905466521684
9.6034921875 0.33594795439438657 -0.9373257825864937
9.604640625 0.33466599710862316 -0.9375089464140878
9.6057890625 0.3338500024734687 -0.93744773435805
9.6069375 0.3325515324000993 -0.9392539042475512
9.6080859375 0.3332102455979947 -0.9391062706109956
9.609234375 0.33153249062109047 -0.9385889930733835
9.6103828125 0.3324115013713978 -0.9394292128243259
9.61153125 0.32903893182417643 -0.9378336348597678
9.6126796875 0.3297614882623541 -0.9381144598001506
9.613828125 0.3285240962779419 -0.9388190171464185
9.6149765625 0.32764103725252064 -0.9405814665822743
9.616125 0.32595514615803994 -0.9379618688678093
9.6172734375 0.32550931259151855 -0.9376412146958504
9.618421875 0.3261456894392105 -0.9388403987285707
9.6195703125 0.3263926302657144 -0.9376317121697414
9.62071875 0.32348296936076476 -0.9394701343759135
9.6218671875 0.3221967458556113 -0.9375250094510785
9.623015625 0.3209371489576873 -0.9370268423521715
9.6241640625 0.32162798693232847 -0.9384529799707501
9.6253125 0.3218200260627155 -0.93775904190799
9.6264609375 0.32251992671724955 -0.9367480847324794
9.627609375 0.3202047600173694 -0.9377859724817679
9.6287578125 0.3191447557154204 -0.9369593430099552
9.62990625 0.3181120155681119 -0.9399922576640325
9.6310546875 0.3170978819406381 -0.9375774393184068
9.632203125 0.3184338887048886 -0.938113765397544
9.6333515625 0.31630462145337446 -0.9394474611685835
9.6345 0.3168164097548033 -0.9390719905895668
9.6356484375 0.3161645846008459 -0.9360485562922957
9.636796875 0.3144801207182001 -0.9378419098298381
9.6379453125 0.3148318899737116 -0.9376527185604118
9.63909375 0.312645618676097 -0.9391164340550096
9.6402421875 0.3124072080731034 -0.9380347186477563
9.641390625 0.3122879165220425 -0.9390717236271307
9.6425390625 0.3121442924734396 -0.9383866585532399
9.6436875 0.3115525399304344 -0.9389757393923484
9.6448359375 0.3102859790654308 -0.9372002317730517
9.645984375 0.3092765997489632 -0.9370318991013232
9.6471328125 0.30898577975460245 -0.9369507021378636
9.64828125 0.30709641469741633 -0.9390842315250112
9.6494296875 0.3068966813081685 -0.9384245310975274
9.650578125 0.3079392586620694 -0.9378917023483957
9.6517265625 0.3065327794466647 -0.9372377453846812
9.652875 0.3060114431164396 -0.9367987073438451
9.6540234375 0.30520576819587386 -0.9368969659665595
9.655171875 0.3046913188831203 -0.937060102058632
9.6563203125 0.30433056072325176 -0.9384026837117133
9.65746875 0.3041379269065948 -0.9369692408879728
9.6586171875 0.30401744090827054 -0.9361824485027083
9.659765625 0.30249874017092265 -0.9371219994420446
9.6609140625 0.3030467702344367 -0.9373717530235315
9.6620625 0.30319865871096296 -0.9369183507415877
9.6632109375 0.30155903431634834 -0.9364504249650717
9.664359375 0.30081795860290117 -0.9363022766604707
9.6655078125 0.3011367870521392 -0.9359899642417215
9.66665625 0.2994418006882887 -0.9357106770578554
9.6678046875 0.3000764617609121 -0.9367108743614672
9.668953125 0.2996738899454585 -0.9353998682673881
9.6701015625 0.2977603836068626 -0.9352967207865845
9.67125 0.2988650814489353 -0.9373184569400697
9.6723984375 0.2993835563946285 -0.9356473332535737
9.673546875 0.2952750494324834 -0.9333808997489438
9.6746953125 0.29683908343833554 -0.9359441092523867
9.67584375 0.297371570940061 -0.9344948539258808
9.6769921875 0.29738716820241634 -0.9340730487072357
9.678140625 0.2960262407702354 -0.935325422236669
9.6792890625 0.29693198877744514 -0.9374817618056138
9.6804375 0.29842821321012514 -0.9350986816183693
9.6815859375 0.2966754578934857 -0.9357683225640145
9.682734375 0.2968532456954833 -0.9356701467599102
9.6838828125 0.2977302559606796 -0.9365312156779192
9.68503125 0.29436418776706924 -0.9351693223333661
9.6861796875 0.29588308123765494 -0.9374261534437686
9.687328125 0.2938995656089478 -0.9373070346527367
9.6884765625 0.29554314514523766 -0.9369172726443625
9.689625 0.29311004257617257 -0.9379161216839825
9.6907734375 0.292563344379957 -0.9364791389176955
9.691921875 0.29161817259928235 -0.9360171691625462
9.6930703125 0.29100325199497834 -0.936490580845924
9.69421875 0.2911506278987992 -0.9357971958857397
9.6953671875 0.29096198060371453 -0.9380162097373175
9.696515625 0.2915022084876548 -0.9370270999807551
9.6976640625 0.2887252261319363 -0.9360271423570756
9.6988125 0.2869233589285973 -0.935893807496758
9.6999609375 0.2864674765112954 -0.9337419274848279
9.701109375 0.28859743239476654 -0.9358955073937071
9.7022578125 0.2864688911379018 -0.9383384631290603
9.70340625 0.28828813590836705 -0.9384210391204864
9.7045546875 0.28590298362084804 -0.93623384271518
9.705703125 0.28460908037432486 -0.9374505904051298
9.7068515625 0.2845795157955083 -0.9375958283557771
9.708 0.28237082836761596 -0.9383590872683589
9.7091484375 0.28207998317936867 -0.9395649657432679
9.710296875 0.2828081125031077 -0.939565317104467
9.7114453125 0.28099420935720776 -0.9390418656222499
9.71259375 0.2816330887386961 -0.9393388323515968
9.7137421875 0.2803298156994165 -0.9386435582437347
9.714890625 0.27621974061854127 -0.9376611490282796
9.7160390625 0.2769396123413086 -0.9393084642250169
9.7171875 0.2755957351875198 -0.9388551975050373
9.7183359375 0.276268714047593 -0.938044966705832
9.719484375 0.27338153736325765 -0.9385409842906325
9.7206328125 0.27403068536967 -0.9393764836751625
9.72178125 0.27218526812722055 -0.9377116401607772
9.7229296875 0.2724577471298568 -0.9390427689947554
9.724078125 0.2720598903446175 -0.9390296799636062
9.7252265625 0.27192710411002985 -0.9393229517503208
9.726375 0.27106093262118003 -0.9362127702591894
9.7275234375 0.27094873993045077 -0.9375346878937695
9.728671875 0.2718971671117373 -0.9392599079800333
9.7298203125 0.2707440820570892 -0.9374669093612548
9.73096875 0.27201702348367185 -0.9358811736591651
9.7321171875 0.2684292219897052 -0.9364509157703972
9.733265625 0.2687213701722254 -0.9374345317852453
9.7344140625 0.26869326340607 -0.9353715181681521
9.7355625 0.26723506225512084 -0.938400270551545
9.7367109375 0.26695120533106675 -0.9359181776108441
9.737859375 0.2673359309029584 -0.9365025076567021
9.7390078125 0.26585534408613376 -0.935774660812847
9.74015625 0.2651490711845592 -0.9343985433304406
9.7413046875 0.26449763047890296 -0.9326785754950897
9.742453125 0.2634589197448032 -0.9334001530638238
9.7436015625 0.2656608133718473 -0.9342650070618299
9.74475 0.2656767922490627 -0.9314896995611227
9.7458984375 0.26394964281393984 -0.9332800641138674
9.747046875 0.2645306976044449 -0.9327513250779255
9.7481953125 0.26557049321157356 -0.9324018464397961
9.74934375 0.2659951555654232 -0.9342352398886203
9.7504921875 0.26389830983272644 -0.9321034101360643
9.751640625 0.2653492925056248 -0.9299894594134606
9.7527890625 0.2673592939003162 -0.9309585444156396
9.7539375 0.2643039724323497 -0.9296069550949149
9.7550859375 0.26625780745924654 -0.9316503042581694
9.756234375 0.26491800385840947 -0.9287369734731084
9.7573828125 0.26798940920813386 -0.9312216520939782
9.75853125 0.2699298053240583 -0.9295988815153303
9.7596796875 0.2686387024450787 -0.9315418617079374
9.760828125 0.2668955704897821 -0.9315977485142762
9.7619765625 0.2667588171955353 -0.9310276296527944
9.763125 0.2677257317789419 -0.9325715640700547
9.7642734375 0.2662827387754171 -0.9324809667398937
9.765421875 0.26825765252037514 -0.9350467011972592
9.7665703125 0.2672822673980042 -0.9372603115236622
9.76771875 0.26635932181413635 -0.935496900781077
9.7688671875 0.26822383843871067 -0.9353289084613723
9.770015625 0.2676488136537428 -0.9365693721066373
9.7711640625 0.26767164134072785 -0.938057286396204
9.7723125 0.2686234641853259 -0.9394692179186717
9.7734609375 0.26637323131846724 -0.9387201341853039
9.774609375 0.26457290729294736 -0.9377936379313321
9.7757578125 0.2641927423007975 -0.9397816586920806
9.77690625 0.26380792699156785 -0.9397324923900376
9.7780546875 0.26284507423963943 -0.9400111026824808
9.779203125 0.26310405060987085 -0.9410133461946228
9.7803515625 0.26101782143583363 -0.9425670684280603
9.7815 0.2604472598565125 -0.9413358049585204
9.7826484375 0.25952294968573053 -0.9405220091920752
9.783796875 0.25962638777838287 -0.9409811522583789
9.7849453125 0.258608801349698 -0.94229396830806
9.78609375 0.25924227233857644 -0.9425355933046572
9.7872421875 0.25842476911565637 -0.9425108566067049
9.788390625 0.2586311980937295 -0.9434653985184989
9.7895390625 0.2576461390073568 -0.9452208926123141
9.7906875 0.2561763344483592 -0.9446080689995626
9.7918359375 0.2576653211360761 -0.9472147133743615
9.792984375 0.2572001038982673 -0.9466756373375704
9.7941328125 0.2554064958798806 -0.9483131925969228
9.79528125 0.25451501578690416 -0.9476555848066701
9.7964296875 0.2540004438294363 -0.9508227069296546
9.797578125 0.253298503349602 -0.9503042371271878
9.7987265625 0.25139542796900405 -0.950538750988872
9.799875 0.2495022977577187 -0.9509249416017309
9.8010234375 0.24774141167230046 -0.9515942396842596
9.802171875 0.24779581539847417 -0.9486385830355488
9.8033203125 0.24727240983605925 -0.9500601111377103
9.80446875 0.24530563230149183 -0.9509602902778557
9.8056171875 0.24618679232703933 -0.9514555477530349
9.806765625 0.24630890260064608 -0.9521206235617827
9.8079140625 0.24463545324734992 -0.9520835751933624
9.8090625 0.24383772921701685 -0.9534449888058008
9.8102109375 0.24233213249902819 -0.953543002814196
9.811359375 0.24408435932146522 -0.9524792447224631
9.8125078125 0.24243321394838013 -0.9517197162977596
9.81365625 0.24093885382399882 -0.953537701397453
9.8148046875 0.2397613101268492 -0.9521594336893426
9.815953125 0.2413100452280259 -0.9497594558452438
9.8171015625 0.2421980970459413 -0.9513011037425013
9.81825 0.23922702239888982 -0.952073938125088
9.8193984375 0.23914681724825648 -0.9534575636437155
9.820546875 0.23800065475024434 -0.9536413433565478
9.8216953125 0.23951292348359 -0.9556447613984986
9.82284375 0.2405243322576316 -0.9535205997290915
9.8239921875 0.23958695231170057 -0.953355169173929
9.825140625 0.23750750768465734 -0.9548841349576742
9.8262890625 0.2379491447528173 -0.9546357410857599
9.8274375 0.2379188049259418 -0.9544292517024411
9.8285859375 0.23587286707412125 -0.9554600467000335
9.829734375 0.23528732038056283 -0.955581915976948
9.8308828125 0.23449087554839465 -0.9578573879845473
9.83203125 0.23398736532619652 -0.9567153094390289
9.8331796875 0.23590889514760233 -0.9575989101256388
9.834328125 0.23358066373037734 -0.9580782746950565
9.8354765625 0.23256151679314307 -0.9552267784046883
9.836625 0.23308213908211367 -0.9573879127424814
9.8377734375 0.23049489498938924 -0.9550295607608945
9.838921875 0.23140577658972816 -0.9564117231046183
9.8400703125 0.22934122592067974 -0.9571476135004277
9.84121875 0.23008635397420568 -0.956892000079207
9.8423671875 0.2306546540942801 -0.9576204929479051
9.843515625 0.23018960993036502 -0.957820047489588
9.8446640625 0.2286802113467743 -0.9597997864625434
9.8458125 0.22945668946526643 -0.959909590870854
9.8469609375 0.22717517242219853 -0.9607109036621897
9.848109375 0.225685800470382 -0.9591055897300049
9.8492578125 0.22417493638374902 -0.9599484475603455
9.85040625 0.22254095519497996 -0.9605350735169087
9.8515546875 0.22268126807667216 -0.9589418938093756
9.852703125 0.22180379718929577 -0.9592359010328089
9.8538515625 0.21969348201644662 -0.9587477473823962
9.855 0.2195918483086985 -0.9585388901364673
9.8561484375 0.21864809635162008 -0.9592626509094991
9.857296875 0.21859624383602755 -0.9585164995643284
9.8584453125 0.21717489965825104 -0.9574410247315
9.85959375 0.21656261402299037 -0.957578141999405
9.8607421875 0.21292587071039648 -0.9561312724707205
9.861890625 0.21402382426529815 -0.9568085426948124
9.8630390625 0.21381681423734888 -0.9572772406725663
9.8641875 0.21282203104549952 -0.9558993724944608
9.8653359375 0.21126140095447205 -0.9575369572121415
9.866484375 0.2092013690350807 -0.9573007034102037
9.8676328125 0.20813239303267472 -0.9587420586413922
9.86878125 0.2117845473264206 -0.9586249709097128
9.8699296875 0.20860095619179508 -0.9579288888662524
9.871078125 0.20727964256002618 -0.9576332070158825
9.8722265625 0.20582986209204068 -0.957219252218314
9.873375 0.2065078616228232 -0.9566107779040055
9.8745234375 0.20449565594560148 -0.9546564874127288
9.875671875 0.20424965465462708 -0.9564310708632396
9.8768203125 0.20365509730894238 -0.9575177709720084
9.87796875 0.20236705887252515 -0.9581708609220679
9.8791171875 0.20197956749625112 -0.9584485461888239
9.880265625 0.2028123012010019 -0.9586507160912574
9.8814140625 0.19984382754861152 -0.9558654797674873
9.8825625 0.1984674378551512 -0.9566376847359962
9.8837109375 0.19822839643846057 -0.9551266531090807
9.884859375 0.19781704826964475 -0.9565964530353631
9.8860078125 0.19725573418016762 -0.9574327731875486
9.88715625 0.19751966382351094 -0.9588357067268952
9.8883046875 0.19696434297116927 -0.9579463320847723
9.889453125 0.19411621602633278 -0.9589963882385458
9.8906015625 0.1948944417948435 -0.9599441795175522
9.89175 0.19532740761093625 -0.9595259551730275
9.8928984375 0.19867697981598098 -0.9599552345135713
9.894046875 0.19503483276150002 -0.9594898100963728
9.8951953125 0.1944772665604323 -0.9590140785592629
9.89634375 0.1921267144738682 -0.9577461071255268
9.8974921875 0.19403782729715235 -0.9576051230049658
9.898640625 0.19491183433851333 -0.9594595893938078
9.8997890625 0.19559402353743416 -0.9605663894670122
9.9009375 0.1941785316312037 -0.9578860811430984
9.9020859375 0.19367995831867058 -0.958474195413443
9.903234375 0.19210144564358778 -0.9601914407877872
9.9043828125 0.19132590532227423 -0.9583223046246321
9.90553125 0.19362930544501455 -0.960485576585955
9.9066796875 0.1907984282156966 -0.9629081642950289
9.907828125 0.19238811670062295 -0.9620440486056581
9.9089765625 0.19310688906036821 -0.9635167915019017
9.910125 0.19357915295998684 -0.9652618691002263
9.9112734375 0.191284726937896 -0.9649550265928123
9.912421875 0.1912988659773952 -0.9670577119187388
9.9135703125 0.19090553199392513 -0.9659112725558456
9.91471875 0.18872709733909343 -0.9667608113667552
9.9158671875 0.1877147523234427 -0.9648756079944039
9.917015625 0.18729843108015887 -0.9674337086027915
9.9181640625 0.18457537318589146 -0.9693929753745947
9.9193125 0.18512216090452116 -0.9671895569016983
9.9204609375 0.1828462940561143 -0.9676697513633831
9.921609375 0.18171599521625237 -0.9660666629135547
9.9227578125 0.18160067861839668 -0.9651000777246075
9.92390625 0.18158594133025552 -0.9669929520638338
9.9250546875 0.17953154451691367 -0.9689781674640948
9.926203125 0.17529553914935425 -0.9701636661668309
9.9273515625 0.17497246720953474 -0.9693411537531095
9.9285 0.17332808720493698 -0.9693932320820584
9.9296484375 0.17129906139998807 -0.9692061466809812
9.930796875 0.16961228674329332 -0.9723644581898797
9.9319453125 0.1684326874709713 -0.9712152551439583
9.93309375 0.16980205887327138 -0.9687423200614197
9.9342421875 0.16683988781564107 -0.9676372374149562
9.935390625 0.16777209639381085 -0.9657388138770231
9.9365390625 0.16717070468852324 -0.9660453369548182
9.9376875 0.16386118617443524 -0.9652811290717096
9.9388359375 0.16383895240258284 -0.9640747757122998
9.939984375 0.1626967652827408 -0.9658069056650161
9.9411328125 0.16128231834887297 -0.9652505454141435
9.94228125 0.160141438438701 -0.9645914517238416
9.9434296875 0.15949239827820028 -0.9623871140995585
9.944578125 0.15940428289050368 -0.9635936841805269
9.9457265625 0.15805225850645044 -0.9615866266553921
9.946875 0.15585900898312832 -0.96001925255363
9.9480234375 0.155050121897925 -0.9588274926656699
9.949171875 0.15264805510203727 -0.9598810638564428
9.9503203125 0.15182317049763505 -0.9605694878325207
9.95146875 0.15168765376193705 -0.9588499529015442
9.9526171875 0.14790757705737967 -0.958868732355336
9.953765625 0.14984405381312094 -0.958118021606154
9.9549140625 0.15053346636180986 -0.9563066185438693
9.9560625 0.14784619634786378 -0.9547496688199355
9.9572109375 0.14714322983478378 -0.9546439872978574
9.958359375 0.1498636423339641 -0.9556224132333315
9.9595078125 0.14659511979138184 -0.9537657755028992
9.96065625 0.14724868941604297 -0.9512252292806064
9.9618046875 0.1443367191574172 -0.9516979342028391
9.962953125 0.14431157904979053 -0.9519388607548074
9.9641015625 0.14260229039801775 -0.9518089651621683
9.96525 0.14288301948643523 -0.9494115363805485
9.9663984375 0.1398615223041878 -0.9493362014423979
9.967546875 0.1399267822165432 -0.947710445561365
9.9686953125 0.13899584899106754 -0.9463376567955545
9.96984375 0.139093716310157 -0.9454824272285948
9.9709921875 0.13671830677458752 -0.9425697718930732
9.972140625 0.1370910518645464 -0.9418512316314763
9.9732890625 0.1385011660075971 -0.9405004914687493
9.9744375 0.14010401936926642 -0.9380751948009504
9.9755859375 0.13956807300563245 -0.9388480612398243
9.976734375 0.1419957615755133 -0.93785636768755
9.9778828125 0.14458264428029444 -0.9382860062489708
9.97903125 0.14332528019877488 -0.9366993420865208
9.9801796875 0.143942634860163 -0.9369281348934871
9.981328125 0.14451407129797655 -0.9362629986801834
9.9824765625 0.14596373679684538 -0.935797234568918
9.983625 0.14626428740507036 -0.9358956299100282
9.9847734375 0.14752748817774675 -0.9329705070391605
9.985921875 0.14776200479226664 -0.9334905119074081
9.9870703125 0.15082905673887648 -0.9337839925010084
9.98821875 0.14961686586779022 -0.9323549208932398
9.9893671875 0.15003618110257966 -0.9333867199852292
9.990515625 0.1492031934859268 -0.93308601605564
9.9916640625 0.15077064229190273 -0.9322167185835077
9.9928125 0.15225992685998302 -0.9324883379464796
9.9939609375 0.1545854748235097 -0.9332189009271076
9.995109375 0.15413636105059458 -0.934014900789039
9.9962578125 0.15351746975905223 -0.933956603291827
9.99740625 0.15361370197329838 -0.9361694845965204
9.9985546875 0.1559114948581392 -0.9358321155884705
9.999703125 0.15525463943029294 -0.9355763448134675
10.0008515625 0.15416165178253438 -0.9378397583640987
10.002 0.1542068431296143 -0.9377764964240343
10.0031484375 0.15297619280277086 -0.9369001036009835
10.004296875 0.15250795105556936 -0.9387652891329354
10.0054453125 0.15382365420470206 -0.9387016485741492
10.00659375 0.15328579887301685 -0.9373172205086846
10.0077421875 0.15501064417606897 -0.9381982022285582
10.008890625 0.1537783074677863 -0.9370409330315184
10.0100390625 0.153460619391884 -0.938233227955448
10.0111875 0.15437903274532155 -0.9379175087454648
10.0123359375 0.15518096834379258 -0.9402590712418268
10.013484375 0.1516482339053668 -0.9377732712822464
10.0146328125 0.15284861661923976 -0.9381600093514724
10.01578125 0.15070577129138346 -0.9378301585258167
10.0169296875 0.15040723228012165 -0.93876267879404
10.018078125 0.1502107808595567 -0.937095579685734
10.0192265625 0.15134381300797273 -0.9374709247805236
10.020375 0.15142158761602764 -0.9388551871214759
10.0215234375 0.1502464447216869 -0.9373910611126846
10.022671875 0.14972074821776038 -0.9374478006095915
10.0238203125 0.14964649750730818 -0.9355549338064435
10.02496875 0.15028971437222316 -0.9364985294838626
10.0261171875 0.15140207513227788 -0.9369184015106685
10.027265625 0.14986180114704362 -0.9368836823437693
10.0284140625 0.14940387288038903 -0.9382602230533611
10.0295625 0.1498492283330607 -0.9378258085123099
10.0307109375 0.15036610835606623 -0.9350663619519926
10.031859375 0.14950673630676165 -0.93782801137584
10.0330078125 0.14770381854936598 -0.9360765341206319
10.03415625 0.14976674637582493 -0.936715203085881
10.0353046875 0.14914987639515387 -0.9375439762452258
10.036453125 0.14913350607692938 -0.9374240634172276
10.0376015625 0.14855741085890284 -0.9375889480685181
10.03875 0.14834994328102408 -0.9391720093295094
10.0398984375 0.1493488165995408 -0.9385353621008792
10.041046875 0.1504703487081075 -0.9386716943501473
10.0421953125 0.14992814892088424 -0.9407203000602236
10.04334375 0.1492130805082159 -0.9430802932621271
10.0444921875 0.1501423211039663 -0.9435985737150487
10.045640625 0.14945557588996444 -0.943330803826103
10.0467890625 0.15255858189539256 -0.9429598903755875
10.0479375 0.15352107291799866 -0.9441278077990567
10.0490859375 0.15200260507087127 -0.9452687951266678
10.050234375 0.1535656778534284 -0.9458416951039177
10.0513828125 0.15168415697020954 -0.9471340127712976
10.05253125 0.15326509041440706 -0.9488191360043874
10.0536796875 0.15232714433126782 -0.9504288966015402
10.054828125 0.151968289932237 -0.950382748616443
10.0559765625 0.15046317055001557 -0.9536308123975217
10.057125 0.1493809954119511 -0.9562909517236764
10.0582734375 0.15076696425950864 -0.9563413205064978
10.059421875 0.15000818791638282 -0.9559777942245717
10.0605703125 0.14912456491288084 -0.9577252381869739
10.06171875 0.14984860149139662 -0.9590622559535368
10.0628671875 0.14981663187332372 -0.961142699349865
10.064015625 0.14806365161947588 -0.9606830505651105
10.0651640625 0.14995924984808456 -0.9602963845915522
10.0663125 0.15073417251198135 -0.9614929070974438
10.0674609375 0.1506553830355281 -0.9618752658588052
10.068609375 0.14898995658659298 -0.9633636690189947
10.0697578125 0.14958890285954846 -0.9632157319101935
10.07090625 0.15071155687993454 -0.9636630146129912
10.0720546875 0.14868585552635627 -0.9658228911203242
10.073203125 0.14847062005236822 -0.9650000301784369
10.0743515625 0.14704136560317665 -0.9658837872742403
10.0755 0.1462567395106203 -0.9664032744758623
10.0766484375 0.14722985892556445 -0.966436872210396
10.077796875 0.14790078989850186 -0.9710657177743542
10.0789453125 0.1483447727462618 -0.9719194048612974
10.08009375 0.14772566858598823 -0.9699122938359347
10.0812421875 0.14640310506486753 -0.9715878808326746
10.082390625 0.1446714973560298 -0.9713044851798229
10.0835390625 0.14652115310405595 -0.972074382902389
10.0846875 0.1433776774143713 -0.9728986235596322
10.0858359375 0.14270440281862373 -0.9733014162231524
10.086984375 0.14121559388579574 -0.9746997807696619
10.0881328125 0.1435337688536915 -0.9757818324312445
10.08928125 0.14047778392074084 -0.9776975797330102
10.0904296875 0.13956076633492775 -0.9760744578742798
10.091578125 0.14038112182477935 -0.9744909020821861
10.0927265625 0.13813814367702382 -0.9755204552867511
10.093875 0.1381379609857083 -0.9770047899593262
10.0950234375 0.13697856848745382 -0.9758398333969521
10.096171875 0.1354855738180506 -0.9779768643949993
10.0973203125 0.1357398487786503 -0.976136073785072
10.09846875 0.13331698382917434 -0.9796090957317161
10.0996171875 0.13310537229449992 -0.9786456677784863
10.100765625 0.1326454862063421 -0.9785219925871755
10.1019140625 0.1316194445882083 -0.9786210786077596
10.1030625 0.13176533133291557 -0.9792751096547003
10.1042109375 0.13182701308246259 -0.9786187979286833
10.105359375 0.13077864896547875 -0.9782308728684754
10.1065078125 0.12816060825280196 -0.9773996766332793
10.10765625 0.12636032240791317 -0.9760431568889487
10.1088046875 0.1259080549116668 -0.979272894294294
10.109953125 0.12537241536246757 -0.9805873026756794
10.1111015625 0.12367246517202402 -0.9805761937518032
10.11225 0.12305138717531028 -0.9797260484192668
10.1133984375 0.12095276148728518 -0.9786509760337724
10.114546875 0.12104185982826732 -0.9782723835773717
10.1156953125 0.12033218978574278 -0.9778837726117491
10.11684375 0.11875791606454666 -0.9787687998981955
10.1179921875 0.11927271647955673 -0.97857249039421
10.119140625 0.11502217992616814 -0.9778397238180936
10.1202890625 0.11568357291610887 -0.9781089999181644
10.1214375 0.11310966797795341 -0.9790344677772052
10.1225859375 0.11090424340043559 -0.97971622832271
10.123734375 0.11182766847980352 -0.9777202094552117
10.1248828125 0.11022778131525046 -0.9803134859054385
10.12603125 0.10965445207938684 -0.9787667354238945
10.1271796875 0.1088790485760987 -0.9793587458906152
10.128328125 0.10767186074198593 -0.9799859730045414
10.1294765625 0.10810545368114766 -0.978499802039368
10.130625 0.10853480667298365 -0.9801733195499363
10.1317734375 0.10757773867799353 -0.9793875886085105
10.132921875 0.10676343396580329 -0.9810226989921402
10.1340703125 0.10396743750485421 -0.9816881968169285
10.13521875 0.10600375866729872 -0.9837789566169849
10.1363671875 0.10488216176653842 -0.9813864557721053
10.137515625 0.10446895164699549 -0.9833390190434275
10.1386640625 0.10528762777844392 -0.9829156203761527
10.1398125 0.10322185541784545 -0.9845811243129005
10.1409609375 0.10231350693673913 -0.9856095562825015
10.142109375 0.10296602293318968 -0.9844092186075699
10.1432578125 0.10087414144936246 -0.9853338688367215
10.14440625 0.09845961339310971 -0.9862843150649578
10.1455546875 0.0980195420528886 -0.9863725120712854
10.146703125 0.09734099407768398 -0.987399310227096
10.1478515625 0.0968571618365705 -0.9874238816905612
10.149 0.09534622008912919 -0.986824013871035
10.1501484375 0.09573639387146432 -0.9873959404184434
10.151296875 0.09451508274498743 -0.9867009022883793
10.1524453125 0.09322361507506516 -0.9873975223015907
10.15359375 0.09321436871986444 -0.9890138344776775
10.1547421875 0.09212051077465261 -0.9889972812212063
10.155890625 0.09274679099697364 -0.9883445006861494
10.1570390625 0.09226619889162824 -0.9884220559809707
10.1581875 0.09036987025444232 -0.9878941276387572
10.1593359375 0.09081437485328703 -0.9878098689009763
10.160484375 0.08893485346003155 -0.9878871249925736
10.1616328125 0.0900343447205838 -0.9864392718789969
10.16278125 0.09074017285220709 -0.9884852304337575
10.1639296875 0.09000389778955903 -0.9876594486201595
10.165078125 0.09145639214151269 -0.9869981942838972
10.1662265625 0.09018594484730197 -0.9881739956633613
10.167375 0.08964594324143815 -0.9880280570133693
10.1685234375 0.086493330049696 -0.9870923830186427
10.169671875 0.08661394405401379 -0.9885586960306718
10.1708203125 0.08691964498797966 -0.9868315794986311
10.17196875 0.08570692135727917 -0.9883779111180115
10.1731171875 0.08744844345840361 -0.9889536564357657
10.174265625 0.08663768150099482 -0.9889585957915994
10.1754140625 0.0869846200246624 -0.9886057159024162
10.1765625 0.08543076223164156 -0.9874361761681014
10.1777109375 0.0856889572384869 -0.9885038111530933
10.178859375 0.08508849028852511 -0.9882633452453062
10.1800078125 0.0839051248026417 -0.9878102542103477
10.18115625 0.08240806851266322 -0.9870771099287927
10.1823046875 0.07986694545180315 -0.986848782668472
10.183453125 0.08089950747831226 -0.987145016629425
10.1846015625 0.08039974213902515 -0.9858265020939123
10.18575 0.08197226380663869 -0.9872120444038941
10.1868984375 0.0804324146032061 -0.9857769899120735
10.188046875 0.07825984037351816 -0.9855078916008455
10.1891953125 0.0794737638714049 -0.985501858746278
10.19034375 0.0789083549441777 -0.9836173033549731
10.1914921875 0.07854832326587372 -0.9842758732223931
10.192640625 0.0776794129341084 -0.9845800005129359
10.1937890625 0.07572964198148285 -0.9851270485050723
10.1949375 0.07701838387909773 -0.9845399328309697
10.1960859375 0.07744113167225958 -0.9852279073720159
10.197234375 0.07701117219446474 -0.9843636522534727
10.1983828125 0.07545309217634155 -0.9840664713878867
10.19953125 0.07419195374946293 -0.9846228733461131
10.2006796875 0.07327534057479597 -0.9854615516377605
10.201828125 0.0740755867794225 -0.9852728535880355
10.2029765625 0.07323866055005851 -0.9847958670960547
10.204125 0.07234639436898582 -0.9866484281839945
10.2052734375 0.07138117323272261 -0.9870434744616914
10.206421875 0.07112471221847932 -0.9886570798533023
10.2075703125 0.07031756195304985 -0.987623440148793
10.20871875 0.06830961968252906 -0.9874660191345012
10.2098671875 0.06819148829411052 -0.9880459286676923
10.211015625 0.0663386672886481 -0.9886382127978256
10.2121640625 0.06574583132975934 -0.9895609956561522
10.2133125 0.06576786251332264 -0.9897114176771795
10.2144609375 0.06369536365235698 -0.9900258550731704
10.215609375 0.06372306111656484 -0.9899648502919675
10.2167578125 0.06246521082343076 -0.9891457454099121
10.21790625 0.06144740000517776 -0.9910329578499573
10.2190546875 0.06167761336005328 -0.9903014518803732
10.220203125 0.06059382430967629 -0.9911633722877757
10.2213515625 0.06056834016915372 -0.9909151914207764
10.2225 0.06032758399190846 -0.9900243777404301
10.2236484375 0.057933479492114276 -0.9904250828072747
10.224796875 0.05786714823306105 -0.9885777290742994
10.2259453125 0.05733989885177136 -0.9902347112228764
10.22709375 0.05725908374699473 -0.9897090668070585
10.2282421875 0.057129722723318455 -0.9901162993770518
10.229390625 0.05639808567182168 -0.9899880900432829
10.2305390625 0.05668263876377132 -0.9912451900398167
10.2316875 0.057328664795779735 -0.9899949189219404
10.2328359375 0.056002855592749895 -0.9903544278198224
10.233984375 0.056265196348192104 -0.9897345297256273
10.2351328125 0.05481175062220778 -0.9903312235028655
10.23628125 0.05580629764182919 -0.9896900138625347
10.2374296875 0.05479785238567686 -0.9893872437392848
10.238578125 0.055114013215187926 -0.9894557603938035
10.2397265625 0.055106289923048474 -0.9891518362118044
10.240875 0.05303209539883896 -0.9897656979596946
10.2420234375 0.054115170697817766 -0.9904145615362413
10.243171875 0.05281565735461054 -0.9904920798021439
10.2443203125 0.0535843454544231 -0.9890224987738001
10.24546875 0.05311171094580944 -0.9906348641497993
10.2466171875 0.054204381033005775 -0.9919816565747261
10.247765625 0.05124027278047924 -0.9907420442703786
10.2489140625 0.0524044915515928 -0.9897662098020685
10.2500625 0.05193716646449628 -0.9895419979127091
10.2512109375 0.05123326720123211 -0.990251817400061
10.252359375 0.05069979340061484 -0.9915120436410001
10.2535078125 0.04984535787557487 -0.9916047655194962
10.25465625 0.04996973107185765 -0.9911213118834354
10.2558046875 0.0493253433681341 -0.9899483954727428
10.256953125 0.04962621762961117 -0.9906928226443596
10.2581015625 0.0491369322086265 -0.9910423139013046
10.25925 0.047001432683091454 -0.9908770253142429
10.2603984375 0.04723947469943618 -0.990706534307006
10.261546875 0.04687988027932549 -0.9892586397645591
10.2626953125 0.04595877243339894 -0.9890609087752439
10.26384375 0.044492827455436645 -0.9889768791587972
10.2649921875 0.04368513705932622 -0.9863964583350122
10.266140625 0.042720386421289114 -0.986968516580015
10.2672890625 0.043028194558938 -0.9878365108759076
10.2684375 0.04352894891552611 -0.9864421937206171
10.2695859375 0.04207107649306058 -0.9856117428988512
10.270734375 0.039179071393051934 -0.9858301131874793
10.2718828125 0.04100540967388905 -0.9859271369951137
10.27303125 0.04133391418149912 -0.9858143359683018
10.2741796875 0.04086788684645254 -0.9852267890609291
10.275328125 0.039888688990872334 -0.9857178440592845
10.2764765625 0.03857710574693335 -0.9859002454748955
10.277625 0.03671989409396692 -0.9859968173141329
10.2787734375 0.03767808569745856 -0.9853313781892008
10.279921875 0.03848801642197719 -0.9857695764419855
10.2810703125 0.03834511723409362 -0.9850988818270585
10.28221875 0.03896678480221788 -0.9847347184338847
10.2833671875 0.0360487555467795 -0.9880316275230654
10.284515625 0.03619885741186957 -0.9872969353154658
10.2856640625 0.035617460678866286 -0.9900633697501675
10.2868125 0.035484385415031905 -0.9911548832345058
10.2879609375 0.03385600443715686 -0.9895542803512383
10.289109375 0.03189502717375042 -0.9910489552012354
10.2902578125 0.03168193485023452 -0.9912071510505616
10.29140625 0.030576588640599922 -0.9916021101912497
10.2925546875 0.030458717157667903 -0.9926936526892766
10.293703125 0.030008188167305827 -0.9921771726584065
10.2948515625 0.029904707382575613 -0.9921148213565335
10.296 0.028889153486724273 -0.9929263775155787
10.2971484375 0.030137965174634407 -0.9923951667319459
10.298296875 0.028555463964437533 -0.9943710217432709
10.2994453125 0.02807053440275703 -0.9932397863593108
10.30059375 0.02719612547182776 -0.9936404346064716
10.3017421875 0.027125610993888605 -0.9946290220588209
10.302890625 0.026008212951122378 -0.9950234367286244
10.3040390625 0.02560245605604894 -0.9957829366045665
10.3051875 0.026482204353153405 -0.9961471734427585
10.3063359375 0.025187900964124266 -0.9961323798680342
10.307484375 0.02406424329415524 -0.9966350387604368
10.3086328125 0.023903631812536963 -0.997605372868547
10.30978125 0.02211475084405179 -0.9993705846449747
10.3109296875 0.02176104390094946 -0.9999795161640841
10.312078125 0.020864572994498065 -0.9990570420077454
10.3132265625 0.01916934156667016 -1.0005491831034754
10.314375 0.018905343070214242 -1.0003617885514924
10.3155234375 0.018469668804756756 -1.0005685063869105
10.316671875 0.01697871943440099 -1.0005394065288566
10.3178203125 0.015637721558472206 -1.0008547918186617
10.31896875 0.014665013380862901 -1.000019844885737
10.3201171875 0.014241438241258952 -1.0005191425654136
10.321265625 0.014539626781864934 -1.0003327738237406
10.3224140625 0.014327694433487415 -1.0008788959150636
10.3235625 0.013717167946513426 -1.0000559317621407
10.3247109375 0.012463154201252352 -1.000233159872376
10.325859375 0.012702505863619179 -0.9999384631937628
10.3270078125 0.012823608647828638 -0.9994066912330524
10.32815625 0.012407412130439749 -1.0006318589474965
10.3293046875 0.011620534693560447 -0.9998736294000282
10.330453125 0.009668037306117039 -1.0003480122535688
10.3316015625 0.00952502865615551 -1.0002538854324992
10.33275 0.009363899775367335 -0.9993010155200578
10.3338984375 0.010350251762283325 -0.998109951998978
10.335046875 0.009278785369741721 -0.9990521449887025
10.3361953125 0.007735876605237502 -0.9992927147644026
10.33734375 0.007907718201569325 -0.9996950134553615
10.3384921875 0.006957921384972726 -0.9989423856485067
10.339640625 0.007279653304158307 -0.9983263837412806
10.3407890625 0.006927776343771869 -0.997309296976493
10.3419375 0.006906110998215698 -0.9970800345915254
10.3430859375 0.0061430977395181 -0.9973170139073881
10.344234375 0.004616183984678335 -0.9970143200163256
10.3453828125 0.006702679061512978 -0.9958363931256489
10.34653125 0.005620715827509282 -0.995801171275552
10.3476796875 0.005987001037479012 -0.9962022279346852
10.348828125 0.0063095249262656306 -0.9970684221762263
10.3499765625 0.006835966518980899 -0.9957183578360284
10.351125 0.006419331599180109 -0.9964974284697456
10.3522734375 0.006118718863729111 -0.9975298592323245
10.353421875 0.0046258559047129 -0.9982375193063634
10.3545703125 0.003395714077977424 -0.9990342530087417
10.35571875 0.0034224567301674447 -0.99879432716465
10.3568671875 0.0022611206815165152 -0.9995401440864544
10.358015625 0.001097667517526546 -1.000312930169167
10.3591640625 0.0006934839542157983 -0.9993934869657521
10.3603125 -0.0009077011168431362 -0.9999187071880269
10.3614609375 -0.0019929369561504304 -0.9992303329408505
10.362609375 -0.0028185257174387565 -0.997658918675888
10.3637578125 -0.004355545466870753 -0.9982934238780969
10.36490625 -0.00573936917573703 -0.9984667315428628
10.3660546875 -0.006769739519001811 -0.9992936286674547
10.367203125 -0.007467054532212247 -0.9967626772475663
10.3683515625 -0.008234376529070525 -0.9966264369550044
10.3695 -0.009619662071200685 -0.9964768377588953
10.3706484375 -0.009354744503975596 -0.9961322845355183
10.371796875 -0.010909007638872134 -0.9977030274537226
10.3729453125 -0.012069747623119076 -0.9960496041108159
10.37409375 -0.011755199649376491 -0.996537343013036
10.3752421875 -0.012167753190705927 -0.9960210636154689
10.376390625 -0.013022973247674874 -0.9957220050427361
10.3775390625 -0.014037016437420918 -0.9954836955025164
10.3786875 -0.013982573621165756 -0.9947992150744106
10.3798359375 -0.01461876962888134 -0.9961192416429494
10.380984375 -0.015162128747710168 -0.995162859758209
10.3821328125 -0.014710233670221782 -0.9955450816791522
10.38328125 -0.01617695948976145 -0.9954568953612063
10.3844296875 -0.017372916353441015 -0.9956727082920006
10.385578125 -0.016184230364176377 -0.9960185772356324
10.3867265625 -0.01615327560163951 -0.9951259591765986
10.387875 -0.01729752691494768 -0.9957355040818945
10.3890234375 -0.017693199897722514 -0.9959332918231666
10.390171875 -0.01799291843845413 -0.9966061073969863
10.3913203125 -0.01758370287252075 -0.9969034445034073
10.39246875 -0.018045062473487944 -0.9976993048226737
10.3936171875 -0.017457016581325098 -0.9980102596793312
10.394765625 -0.019165359612077326 -0.9975949045627379
10.3959140625 -0.02013010941741243 -0.9982147833320725
10.3970625 -0.021401988506599565 -0.9990231669754847
10.3982109375 -0.0213003286796815 -0.9985879018726923
10.399359375 -0.023021407945823386 -0.999163805717228
10.4005078125 -0.023651274386929218 -0.9987438925720977
10.40165625 -0.023678499426259898 -0.9978422716563093
10.4028046875 -0.024814369878168048 -0.997492522211741
10.403953125 -0.025165935452827998 -0.9973566485685582
10.4051015625 -0.024877407387215153 -0.997559434120018
10.40625 -0.02487936378510386 -0.9972852838579735
10.4073984375 -0.0240765518661641 -0.9971552195152618
10.408546875 -0.024274384301827004 -0.9984878471345631
10.4096953125 -0.024467867808196875 -0.99873382374568
10.41084375 -0.02420038919079036 -0.999839844022848
10.4119921875 -0.02454402758097609 -0.9997714876448749
10.413140625 -0.025109643432141324 -1.0009837254736296
10.4142890625 -0.025795113056636426 -1.001113809708891
10.4154375 -0.026462861001471716 -1.0021190322180324
10.4165859375 -0.026703350545870308 -1.0042814147535668
10.417734375 -0.029175683778653067 -1.0033875864935278
10.4188828125 -0.03000332007422464 -1.0030882741217624
10.42003125 -0.03128550369371008 -1.0032449881601746
10.4211796875 -0.03163705190125407 -1.0034455226775516
10.422328125 -0.033711428513405986 -1.0038777489600919
10.4234765625 -0.03360611015098941 -1.0030842855015574
10.424625 -0.033685474744544225 -1.0031398317409366
10.4257734375 -0.03440338789056077 -1.0032353212701057
10.426921875 -0.03552481350859457 -1.0033687113622496
10.4280703125 -0.035621768181350516 -1.0038879318511542
10.42921875 -0.03730365360596902 -1.0037907537766722
10.4303671875 -0.038297388077054295 -1.005423268407549
10.431515625 -0.03968593566302281 -1.004139977925502
10.4326640625 -0.04009858316101167 -1.0032339093186737
10.4338125 -0.04184974610432296 -1.0035837228936515
10.4349609375 -0.042091595851335345 -1.0031150071439414
10.436109375 -0.04196374782062273 -1.0026282454598532
10.4372578125 -0.04332279179235851 -1.0023765153679964
10.43840625 -0.04296764359204941 -1.0025810043204624
10.4395546875 -0.042733535618630525 -1.004390542666842
10.440703125 -0.044822598868803076 -1.0052870431521979
10.4418515625 -0.046405049188785935 -1.0053010910466877
10.443 -0.04786111319463182 -1.0047374352701475
10.4441484375 -0.04928823336206156 -1.0035279115601292
10.445296875 -0.049969926980337975 -1.0041074133682169
10.4464453125 -0.051753868137807496 -1.004811872628456
10.44759375 -0.052349982339854356 -1.005189806418508
10.4487421875 -0.054594838569054394 -1.0051005015921564
10.449890625 -0.055755111181834904 -1.0041820476353918
10.4510390625 -0.05675669226004057 -1.0036853991107832
10.4521875 -0.05830838376332992 -1.0032607923657415
10.4533359375 -0.058932941016963836 -1.0019162677769338
10.454484375 -0.05968178849770711 -1.000359388581858
10.4556328125 -0.060254225469236894 -1.0004904001843538
10.45678125 -0.06056055893269269 -1.0007291906739648
10.4579296875 -0.059959078575544 -1.0009469579311274
10.459078125 -0.061004826397078826 -1.0009662401336483
10.4602265625 -0.062210038264768924 -1.0019376026265248
10.461375 -0.06331813702669328 -1.001531756516465
10.4625234375 -0.06452155625353184 -1.0008410737909819
10.463671875 -0.06469224488940056 -1.0003865723082652
10.4648203125 -0.06546697422465292 -1.000794620611996
10.46596875 -0.06557692774331017 -1.0006545441496995
10.4671171875 -0.06845828539780058 -1.0004788787766106
10.468265625 -0.06881382467877478 -0.9993136594354493
10.4694140625 -0.06929753829449276 -1.0003643635838642
10.4705625 -0.0710137967036463 -0.9994472880922458
10.4717109375 -0.07227681981461112 -0.9983916265527726
10.472859375 -0.07353326937508883 -0.9974846404268471
10.4740078125 -0.07466329237990463 -0.9946047091120953
10.47515625 -0.07485343661182753 -0.9942676622534509
10.4763046875 -0.07367130049512635 -0.9940333245810836
10.477453125 -0.07504445392180042 -0.9935800331491935
10.4786015625 -0.07768390776610379 -0.9942695958960341
10.47975 -0.0791105758434631 -0.9937242263420235
10.4808984375 -0.08015803377711542 -0.9922762418237617
10.482046875 -0.08206576602693183 -0.9895588574992574
10.4831953125 -0.08174275788728236 -0.9877664501960961
10.48434375 -0.08229863056372433 -0.9872777176120034
10.4854921875 -0.08261662302272468 -0.9867580686579076
10.486640625 -0.08327206518187186 -0.9861600546110487
10.4877890625 -0.08472924095150053 -0.9855567147654857
10.4889375 -0.08557536438897403 -0.9851193926243529
10.4900859375 -0.08690899732621415 -0.9822840875574326
10.491234375 -0.08793577021267207 -0.9803394156539242
10.4923828125 -0.08739703897884103 -0.9779967279459106
10.49353125 -0.08805337585318748 -0.9754260743902727
10.4946796875 -0.08810163955161324 -0.9723182220250244
10.495828125 -0.08724429219506794 -0.9688497721321907
10.4969765625 -0.08628592375537741 -0.9677837098061919
10.498125 -0.08448393781022084 -0.9655657170179391
10.4992734375 -0.08201901494563335 -0.9636195395141682
10.500421875 -0.08000021146214967 -0.9624943419440197
10.5015703125 -0.07771656537891006 -0.9627703779829462
10.50271875 -0.07630824393311933 -0.962117227845104
10.5038671875 -0.07464761515093261 -0.9616436536253721
10.505015625 -0.07282205697809145 -0.9614977782005832
10.5061640625 -0.07057127332569191 -0.9622916192266615
10.5073125 -0.06909483571392934 -0.9621113486380504
10.5084609375 -0.06830155072662311 -0.9613101704942102
10.509609375 -0.06714820423185958 -0.9620633115817772
10.5107578125 -0.06532542518110376 -0.9625979792258719
10.51190625 -0.06340022905517279 -0.9633524913553642
10.5130546875 -0.06243402024718265 -0.9632711873359006
10.514203125 -0.06189421326696001 -0.9635909843736948
10.5153515625 -0.06067406681562042 -0.9647682609513202
10.5165 -0.05899832572722827 -0.9662134145408421
10.5176484375 -0.05764084943278511 -0.966673059098133
10.518796875 -0.055371417857495886 -0.9672362973930768
10.5199453125 -0.05610901382462549 -0.9692309962989311
10.52109375 -0.05557574506780241 -0.9700966179348391
10.5222421875 -0.055580113733836006 -0.9708944171926185
10.523390625 -0.05354515359487186 -0.9725169574135217
10.5245390625 -0.052790558124271525 -0.9743253720638918
10.5256875 -0.05253716471450781 -0.9763425309974658
10.5268359375 -0.05354189479927533 -0.9781503502843857
10.527984375 -0.05479107638949998 -0.9793809926836851
10.5291328125 -0.055161266632075545 -0.9802807185580932
10.53028125 -0.05507681064128575 -0.9798717860065954
10.5314296875 -0.054489367700966546 -0.9815784715558021
10.532578125 -0.05329779363724976 -0.9840708255030408
10.5337265625 -0.05422616622387372 -0.9866819384195535
10.534875 -0.05548801356716067 -0.9888582202597842
10.5360234375 -0.058544641117184076 -0.9900618723401888
10.537171875 -0.061319619258848934 -0.9903278177211867
10.5383203125 -0.06310418827213121 -0.9898315722510121
10.53946875 -0.0644175144912637 -0.9889778565015364
10.5406171875 -0.06440718150900526 -0.9888565482604872
10.541765625 -0.06446465599642484 -0.9882870413106792
10.5429140625 -0.06421874906752029 -0.9886973858283596
10.5440625 -0.06445926723181052 -0.9894847197033962
10.5452109375 -0.06456518230948263 -0.9897453098547506
10.546359375 -0.0651702847732024 -0.9903470842328901
10.5475078125 -0.06551202131344892 -0.9912536765826233
10.54865625 -0.06555422569471536 -0.991890031717313
10.5498046875 -0.06615756555172464 -0.9927792354867839
10.550953125 -0.06640401263835466 -0.9945600317436805
10.5521015625 -0.06624331913979542 -0.9959047434011747
10.55325 -0.06735631283105063 -0.9968996866555653
10.5543984375 -0.0691820359515543 -0.9995887048286016
10.555546875 -0.07109978330627992 -0.9994999497648851
10.5566953125 -0.07347043278108153 -1.0003100233673314
10.55784375 -0.07544761523148685 -0.9995410835315757
10.5589921875 -0.07657406387723026 -0.9994890076807889
10.560140625 -0.07723366325112957 -0.9991222689157709
10.5612890625 -0.07793111813562373 -0.9998807364908406
10.5624375 -0.07798079376658681 -1.0012341867349286
10.5635859375 -0.0795734528506824 -1.0016320264383327
10.564734375 -0.08173504846075463 -1.0028125145067688
10.5658828125 -0.08483508849816648 -1.0025310335121966
10.56703125 -0.08736798121540332 -1.0016941254126026
10.5681796875 -0.08981812703514135 -1.000630924751084
10.569328125 -0.09108233141182609 -0.9995015903924842
10.5704765625 -0.09194581573327434 -0.9984911857691947
10.571625 -0.0913029233020862 -0.9974814898677933
10.5727734375 -0.09163524082894633 -0.9963883290483446
10.573921875 -0.09145077571460011 -0.9939494601668495
10.5750703125 -0.09114951934881249 -0.9932305113282485
10.57621875 -0.09169705220777703 -0.9949038149645081
10.5773671875 -0.09007630325609786 -0.9954378901665727
10.578515625 -0.08862599316062585 -0.9951116400638126
10.5796640625 -0.08861650168739851 -0.9959276725879094
10.5808125 -0.08764782191131709 -0.9970966489784301
10.5819609375 -0.08862042532921277 -0.9981155215690082
10.583109375 -0.08921955513855831 -0.998481008343628
10.5842578125 -0.09044541545715841 -0.9993105672308186
10.58540625 -0.0920561565714471 -0.9999205325801078
10.5865546875 -0.09345855638588674 -1.0007839973140307
10.587703125 -0.09617873018834641 -1.0004138932925912
10.5888515625 -0.09682477486663447 -1.0002120796893834
10.59 -0.09860155616262867 -0.9997913898995647
10.5911484375 -0.09967104917367794 -1.000535863140417
10.592296875 -0.10119376393112628 -1.000414997488858
10.5934453125 -0.10217479454574742 -0.999877439043366
10.59459375 -0.10467423386824012 -0.9988628701209947
10.5957421875 -0.10486832578724369 -0.997879584006532
10.596890625 -0.1053113498335732 -0.9967465288415769
10.5980390625 -0.10492418607270024 -0.9971594323891793
10.5991875 -0.10689156142312484 -0.9965635698152002
10.6003359375 -0.1077150897700484 -0.9960069275386914
10.601484375 -0.10793930142539883 -0.9948840237554342
10.6026328125 -0.10909396666148542 -0.9937528984300684
10.60378125 -0.10935118696764992 -0.9928520678215211
10.6049296875 -0.10915541509161125 -0.9922214528112835
10.606078125 -0.1099261729112128 -0.9922002124569522
10.6072265625 -0.11035010008508306 -0.9914756789280563
10.608375 -0.11111685980355515 -0.9903728338881703
10.6095234375 -0.11066444470730921 -0.990741093613797
10.610671875 -0.11008082860942782 -0.9901681466272401
10.6118203125 -0.1112187541151607 -0.9898467091965917
10.61296875 -0.11071165002897976 -0.9893246547916075
10.6141171875 -0.1119670674701403 -0.9902883791052851
10.615265625 -0.11295968451015344 -0.9891431759641116
10.6164140625 -0.11175883510666228 -0.9879422636019153
10.6175625 -0.11210434564758581 -0.9881639770683355
10.6187109375 -0.11299904325940448 -0.9887379750147312
10.619859375 -0.112208663510522 -0.9872592127014197
10.6210078125 -0.11301750530509935 -0.9879523342852472
10.62215625 -0.11324195447810384 -0.9888978412809248
10.6233046875 -0.11383712067482518 -0.9893530727821549
10.624453125 -0.1144604701421697 -0.9884787580465222
10.6256015625 -0.11525998456091217 -0.9880637152928635
10.62675 -0.11506750182383216 -0.987520154284671
10.6278984375 -0.11448110484169027 -0.9868779480983909
10.629046875 -0.11413528936226577 -0.9864066607513846
10.6301953125 -0.11473512471826847 -0.9862560054687552
10.63134375 -0.1143268742668398 -0.9871595725368111
10.6324921875 -0.11431363653402937 -0.9870050138808264
10.633640625 -0.11446328302301725 -0.9878415691693812
10.6347890625 -0.11446443365517589 -0.9878981918703988
10.6359375 -0.11445769552835747 -0.9881662695757883
10.6370859375 -0.11535908708103886 -0.9883901663025312
10.638234375 -0.11670597704593845 -0.9882347433871106
10.6393828125 -0.11677690633301008 -0.9888379435378111
10.64053125 -0.11739806201979974 -0.9882674489026732
10.6416796875 -0.11765253887060878 -0.987828483210258
10.642828125 -0.11730157760170937 -0.9873068737147983
10.6439765625 -0.11765545100148819 -0.9878943765062538
10.645125 -0.11783459456528311 -0.9886685182922166
10.6462734375 -0.11792077556674357 -0.9884822448477337
10.647421875 -0.11853684004947918 -0.9885263083630156
10.6485703125 -0.11905538615771956 -0.9887170766034243
10.64971875 -0.11994775949438452 -0.9890054065822296
10.6508671875 -0.12105538733819646 -0.9888631020800609
10.652015625 -0.121271578488365 -0.9878186100859384
10.6531640625 -0.12163854174250383 -0.9872304384000992
10.6543125 -0.12184066188071457 -0.9879422526984041
10.6554609375 -0.12195760054241843 -0.9873838534790995
10.656609375 -0.12228290711684546 -0.9864833686405241
10.6577578125 -0.12173345253825217 -0.9861281726489806
10.65890625 -0.12187867780069013 -0.9860470699389889
10.6600546875 -0.12166411133919469 -0.9857021244740398
10.661203125 -0.12121410526092488 -0.9854970363095534
10.6623515625 -0.12055520118098129 -0.9850636963979912
10.6635 -0.12101044625212337 -0.9857547920340709
10.6646484375 -0.12059904271938482 -0.9859097897873998
10.665796875 -0.11960255188163797 -0.986247423282839
10.6669453125 -0.11918737760023597 -0.9871189384647423
10.66809375 -0.11905886144129549 -0.9878566035112945
10.6692421875 -0.1189248357826797 -0.989404976106356
10.670390625 -0.1192493246517401 -0.9900691590815618
10.6715390625 -0.12071311300617221 -0.9914875882931198
10.6726875 -0.12245584548908481 -0.9923677905045704
10.6738359375 -0.12350528927995386 -0.9920092278118031
10.674984375 -0.12447445380389499 -0.9918593437770484
10.6761328125 -0.12382635458329583 -0.9913032401167136
10.67728125 -0.1232656940197895 -0.9913603184155881
10.6784296875 -0.12341301330622555 -0.9927274881586485
10.679578125 -0.12367991427468594 -0.9943599495879052
10.6807265625 -0.12427276474840895 -0.9952685575291548
10.681875 -0.12580371081492114 -0.9962806520321784
10.6830234375 -0.12682450454836894 -0.996618739360845
10.684171875 -0.12824702133034693 -0.995758284726604
10.6853203125 -0.12924879735831618 -0.9956648018517597
10.68646875 -0.1297990658862498 -0.9955118145258646
10.6876171875 -0.12973963776156497 -0.9959886102216062
10.688765625 -0.12955175673123576 -0.9952779454509807
10.6899140625 -0.12988981205252054 -0.9956692590824214
10.6910625 -0.13006740715337212 -0.9965555626721428
10.6922109375 -0.12965668326925733 -0.9969998245032757
10.693359375 -0.13060489351361154 -0.9989485727666063
10.6945078125 -0.13202294801494516 -1.000236808578852
10.69565625 -0.1328997660909394 -1.001550062764553
10.6968046875 -0.1348398455357292 -1.0013512667191464
10.697953125 -0.1367981570310571 -1.000312537098665
10.6991015625 -0.1369315733686387 -1.0002509402518711
10.70025 -0.13725970278284694 -0.9995156232633994
10.7013984375 -0.13819083993402695 -1.0001177234994916
10.702546875 -0.13837821010406598 -1.0002045381331612
10.7036953125 -0.1390348346487177 -1.0011443941383806
10.70484375 -0.13954068575653014 -1.0008726427657457
10.7059921875 -0.14071730451285877 -1.0017508589916952
10.707140625 -0.1416924288487464 -1.0007241857866642
10.7082890625 -0.14344513382471852 -1.001069573684983
10.7094375 -0.1441996678267381 -1.000875588264067
10.7105859375 -0.14548588560915732 -1.0007801567955794
10.711734375 -0.1463146628437633 -0.9996369734987577
10.7128828125 -0.14550796736763827 -0.99956499059753
10.71403125 -0.14568217423689356 -0.9992072084370692
10.7151796875 -0.14604580416106455 -1.0002605995514728
10.716328125 -0.1457290741751583 -1.000596932908971
10.7174765625 -0.1458245133533855 -1.001190287623427
10.718625 -0.1470791056370913 -1.001972027472394
10.7197734375 -0.14875345744784715 -1.0014547184768499
10.720921875 -0.14985714421228497 -1.0017731840540103
10.7220703125 -0.1500284713388113 -1.0024950796777716
10.72321875 -0.1509906929907643 -1.002774879313697
10.7243671875 -0.15231352589920127 -1.0028156675684667
10.725515625 -0.15398218556305596 -1.0029070624395229
10.7266640625 -0.15555690515934098 -1.0030183232079102
10.7278125 -0.15633604676649482 -1.0035769275351805
10.7289609375 -0.15750206694058802 -1.0029286408296985
10.730109375 -0.15916174464271998 -1.001897737279763
10.7312578125 -0.1593897681451445 -1.0013616399635812
10.73240625 -0.16006246563651222 -1.0001881072993668
10.7335546875 -0.1603439810772591 -0.9985255171885928
10.734703125 -0.1612617143047497 -0.9977775986500631
10.7358515625 -0.16056993263810532 -0.9978408363308089
10.737 -0.16118066244362655 -0.9973842018845078
10.7381484375 -0.16196070735792353 -0.9974639437974642
10.739296875 -0.16213018499272186 -0.9969407116150693
10.7404453125 -0.16283863619407374 -0.9961735206930301
10.74159375 -0.16240125440764433 -0.9964891022896196
10.7427421875 -0.16242704990964726 -0.9967363701314327
10.743890625 -0.16349769933255767 -0.9964569980501771
10.7450390625 -0.16389234406019987 -0.9963207302778893
10.7461875 -0.16474880169980236 -0.9965378954717874
10.7473359375 -0.164591149836948 -0.9965852995698923
10.748484375 -0.1643061486320812 -0.9956569380464131
10.7496328125 -0.16471092311542201 -0.9956656820666371
10.75078125 -0.1653704203626009 -0.9964440171771904
10.7519296875 -0.1658505919772873 -0.9963415036676366
10.753078125 -0.1663130054102509 -0.997139366874855
10.7542265625 -0.16712059819886108 -0.9970129320035589
10.755375 -0.16736332379095664 -0.9969550673118937
10.7565234375 -0.1679402305269348 -0.9975910705812467
10.757671875 -0.169537477484986 -0.9978802421060253
10.7588203125 -0.17013736979663208 -0.9983989509123761
10.75996875 -0.170858517110406 -0.9983506712021539
10.7611171875 -0.1715833344465487 -0.9983518776256952
10.762265625 -0.172009369081107 -0.9988012081133354
10.7634140625 -0.17286875699509677 -0.999859600262629
10.7645625 -0.1739980819309716 -0.9998693731493635
10.7657109375 -0.17579213456563864 -0.9995088787698109
10.766859375 -0.1760052845808007 -0.9993824162877871
10.7680078125 -0.17763512938154788 -0.997880325118612
10.76915625 -0.17723824690997333 -0.9974792065140483
10.7703046875 -0.17647032191969095 -0.9985921488355527
10.771453125 -0.1770496947479887 -0.9977352750150509
10.7726015625 -0.17776404307306007 -0.998145321884649
10.77375 -0.1785046737188972 -0.9989435285695261
10.7748984375 -0.17897505828224747 -0.9989327424517418
10.776046875 -0.17978679727155444 -0.9989750835334288
10.7771953125 -0.18009183456115174 -0.9999119902900159
10.77834375 -0.1799531004761462 -0.9994885494252495
10.7794921875 -0.18199661880445203 -0.9992157331765286
10.780640625 -0.1824465849696319 -0.9997382951230047
10.7817890625 -0.18312728018333227 -0.9989283285222126
10.7829375 -0.18346949947601812 -1.0006004888676658
10.7840859375 -0.18417906618608593 -1.0013267187545476
10.785234375 -0.18501887479210025 -1.001754592033531
10.7863828125 -0.18737739348157806 -1.0026212468149265
10.78753125 -0.18896971325541218 -1.0017477406916229
10.7886796875 -0.1905615255532001 -1.0013441912288212
10.789828125 -0.1907690657677788 -1.0006117865837394
10.7909765625 -0.1922375088966733 -0.9998261428628301
10.792125 -0.19265403497852712 -0.9983347242206521
10.7932734375 -0.19292426534268217 -0.9979913329877692
10.794421875 -0.19256023597789354 -0.9973444703689043
10.7955703125 -0.19433636023389558 -0.9982038074342989
10.79671875 -0.19440407595960404 -0.9979794893762821
10.7978671875 -0.19617558010317898 -0.997517286975525
10.799015625 -0.19682839716863565 -0.9965989483480335
10.8001640625 -0.19775942793556306 -0.9953468142376782
10.8013125 -0.19794984247135441 -0.9960024644900296
10.8024609375 -0.19824686593806132 -0.9958946226266909
10.803609375 -0.19950894294394422 -0.9963715698294191
10.8047578125 -0.20143092298248008 -0.9962587367382091
10.80590625 -0.2025649718088849 -0.9954712161825552
10.8070546875 -0.20425438846195362 -0.9944331171836647
10.808203125 -0.20497268538408175 -0.9937928179961362
10.8093515625 -0.2069289667178097 -0.9924977596780087
10.8105 -0.2086826491755862 -0.9915408437242663
10.8116484375 -0.20793940232027128 -0.9891439443821461
10.812796875 -0.20794012659930505 -0.9875761042115455
10.8139453125 -0.20764628098292998 -0.9856538510221001
10.81509375 -0.2071368020866496 -0.9849613250958111
10.8162421875 -0.20597193640071262 -0.9858534480623771
10.817390625 -0.20765543733981048 -0.9848341866163393
10.8185390625 -0.20815589795064132 -0.9844619938808845
10.8196875 -0.20882936008044758 -0.9829469449829424
10.8208359375 -0.20871415430762819 -0.9798956200778415
10.821984375 -0.20832029610493474 -0.9790008885142298
10.8231328125 -0.2067246279907835 -0.977554967784628
10.82428125 -0.20554856097679666 -0.9774810162424798
10.8254296875 -0.20462672958706957 -0.9763759488746259
10.826578125 -0.20291355125351265 -0.9764388360034149
10.8277265625 -0.20220038678359487 -0.9768416739985109
10.828875 -0.20222537709146757 -0.9772567984146424
10.8300234375 -0.20074229128236867 -0.9773541911915535
10.831171875 -0.20057201738606112 -0.9773160542022554
10.8323203125 -0.1998260804629211 -0.9775442572078299
10.83346875 -0.19928726904169666 -0.9786600504957093
10.8346171875 -0.1990220974154586 -0.9796309829938283
10.835765625 -0.19898537890376353 -0.980256724802002
10.8369140625 -0.1988923059071123 -0.9803205231340237
10.8380625 -0.19977414712380195 -0.9802484543673577
10.8392109375 -0.2005415353671643 -0.9815037086178072
10.840359375 -0.20158742830342485 -0.9807922540857011
10.8415078125 -0.20129571968501042 -0.9805043707286659
10.84265625 -0.20096749008464246 -0.9813748218389491
10.8438046875 -0.20077457332373672 -0.9812504834077712
10.844953125 -0.20045834830601392 -0.9810299720381073
10.8461015625 -0.20066881691632513 -0.9827013218071415
10.84725 -0.20164169165941442 -0.9829829019803509
10.8483984375 -0.20148402226464612 -0.9841985885148173
10.849546875 -0.20128383608001527 -0.9852593544613624
10.8506953125 -0.20180871300570363 -0.9854896233345984
10.85184375 -0.20224614842934713 -0.9857766699891843
10.8529921875 -0.20340440654191816 -0.9867099854360516
10.854140625 -0.20313441730290774 -0.9872025380298178
10.8552890625 -0.20431751932785971 -0.9870918215442509
10.8564375 -0.20390566167493276 -0.9872444079230855
10.8575859375 -0.20417259960569875 -0.9884492791327304
10.858734375 -0.2047944557918681 -0.9884163097938639
10.8598828125 -0.2060466030920286 -0.9888435196285967
10.86103125 -0.2071380168754158 -0.9894965903441655
10.8621796875 -0.20799010502311255 -0.9890933114527908
10.863328125 -0.207880755525655 -0.9888851580602055
10.8644765625 -0.20732392888801274 -0.9888085483057086
10.865625 -0.20732347259414305 -0.989220736356619
10.8667734375 -0.20760436511135216 -0.9900218737611163
10.867921875 -0.2073155296099867 -0.9905956544654388
10.8690703125 -0.20780922951993255 -0.9917583314658348
10.87021875 -0.20831021774193048 -0.9930206622793447
10.8713671875 -0.20860359820524446 -0.9941006807519771
10.872515625 -0.2092503345384236 -0.995648536776758
10.8736640625 -0.21071946220169574 -0.9963736779444504
10.8748125 -0.21289338575231886 -0.9975574192952447
10.8759609375 -0.21508880509562933 -0.998171227195539
10.877109375 -0.21690572136396408 -0.9981179463289711
10.8782578125 -0.21841066049313904 -0.9979750028060479
10.87940625 -0.21914045327587572 -0.9967620180638306
10.8805546875 -0.2200050757254054 -0.9954513233658502
10.881703125 -0.22128568212383867 -0.9948759392563913
10.8828515625 -0.22104096678528826 -0.9943722150848174
10.884 -0.22123334208149184 -0.9939865362091019
10.8851484375 -0.22182806775120933 -0.9939175974569004
10.886296875 -0.2223867783141465 -0.9941982409642085
10.8874453125 -0.22129155176779364 -0.9941084740765664
10.88859375 -0.22261756628865062 -0.9950777199956835
10.8897421875 -0.22306276515546522 -0.995063917368276
10.890890625 -0.22355870483305298 -0.9964717955013602
10.8920390625 -0.22483471695103752 -0.9967860773504831
10.8931875 -0.2259551454390607 -0.9980318524723788
10.8943359375 -0.22823068812066433 -0.9987025336490051
10.895484375 -0.22825960216208857 -0.9987895380802148
10.8966328125 -0.23077414991164547 -0.9987811014098479
10.89778125 -0.23044488542598132 -0.998061738638113
10.8989296875 -0.23157556616282823 -0.9985571652332588
10.900078125 -0.23467358551076906 -0.9991479985777857
10.9012265625 -0.23559006056865403 -0.9986939174554449
10.902375 -0.23676371910643446 -0.9972667358140487
10.9035234375 -0.238702460324394 -0.995248029328581
10.904671875 -0.23883066494936286 -0.9958882533908423
10.9058203125 -0.23807946951442951 -0.9946694563496203
10.90696875 -0.23806330121156583 -0.994031489063789
10.9081171875 -0.23942431562506025 -0.9941622849334264
10.909265625 -0.23924356431554897 -0.9927568255694437
10.9104140625 -0.24105170915037638 -0.9925537032702638
10.9115625 -0.24085052693643008 -0.9924862320240917
10.9127109375 -0.24242540005859978 -0.9925582351483158
10.913859375 -0.24272467604037526 -0.992542492969476
10.9150078125 -0.24216017344941926 -0.993951558189518
10.91615625 -0.24195178472668283 -0.9944317483446723
10.9173046875 -0.24373834585526322 -0.9929431487223714
10.918453125 -0.24484809876394698 -0.9925092424868316
10.9196015625 -0.24461698490269174 -0.9923321315598026
10.92075 -0.2455016774299511 -0.9931201122504513
10.9218984375 -0.2477211395542367 -0.9920319802817266
10.923046875 -0.24711755097866672 -0.9921642683485863
10.9241953125 -0.24798277476193187 -0.9918154655042661
10.92534375 -0.24694160800442883 -0.9917887496326783
10.9264921875 -0.24787084098464537 -0.9920005885143768
10.927640625 -0.24911274682847936 -0.9926220861459263
10.9287890625 -0.24911998323961396 -0.9919736103692884
10.9299375 -0.25073137866840395 -0.9928049939390358
10.9310859375 -0.25158376631379903 -0.9926126124823467
10.932234375 -0.25137952457979973 -0.9909992823906778
10.9333828125 -0.25319898572432065 -0.9916296422391252
10.93453125 -0.2528491150864034 -0.9912612213963844
10.9356796875 -0.25336014187039163 -0.990225406949755
10.936828125 -0.2525420442727111 -0.9910332513507488
10.9379765625 -0.25397058405371903 -0.9919141299323652
10.939125 -0.25392877179008067 -0.9920029185875681
10.9402734375 -0.2552411041831689 -0.9930191878611672
10.941421875 -0.25788804117581493 -0.994040725891917
10.9425703125 -0.2591432901315857 -0.994453175633256
10.94371875 -0.2613682800427956 -0.9938124807475125
10.9448671875 -0.26247673151667117 -0.9925465323878313
10.946015625 -0.2650556670363445 -0.991601873931653
10.9471640625 -0.2661332465642139 -0.9902781099280406
10.9483125 -0.2667621819992314 -0.9889117250558966
10.9494609375 -0.2665515852135266 -0.9882185537845859
10.950609375 -0.26735506907485806 -0.9869523177871327
10.9517578125 -0.26663573385718653 -0.9860235217723627
10.95290625 -0.26776350113840963 -0.9846930627242404
10.9540546875 -0.2680312335392742 -0.9841367311873515
10.955203125 -0.26706985940623734 -0.9835738291018343
10.9563515625 -0.2675942350982523 -0.9837912995213426
10.9575 -0.26717922529851695 -0.984087905487243
10.9586484375 -0.2671903448438339 -0.9839824668741309
10.959796875 -0.2680530040195868 -0.9846879052944766
10.9609453125 -0.26921748231679804 -0.9835070719481271
10.96209375 -0.2695942647963687 -0.9837090817514997
10.9632421875 -0.27057411782723684 -0.9837651512981185
10.964390625 -0.2713906959362874 -0.9832406405707563
10.9655390625 -0.27207151016454606 -0.9819525241943685
10.9666875 -0.27167731970971376 -0.9812387944033965
10.9678359375 -0.273478690960796 -0.9804037618293668
10.968984375 -0.27233222071637364 -0.9790588207576965
10.9701328125 -0.2739511281640058 -0.9788247963664868
10.97128125 -0.2735797632931763 -0.9788868415425183
10.9724296875 -0.27293927099060167 -0.9781585203569977
10.973578125 -0.2715027407025162 -0.9770114154837267
10.9747265625 -0.27149731285233925 -0.9786553514849101
10.975875 -0.2722997287204091 -0.978859380376787
10.9770234375 -0.2725816065541753 -0.9792009865545392
10.978171875 -0.27276008104109095 -0.9795633783390713
10.9793203125 -0.2733041743779523 -0.979346323471084
10.98046875 -0.27414787068770513 -0.9804555195854067
10.9816171875 -0.276017150870817 -0.9784999936366978
10.982765625 -0.2764319536132461 -0.9781426345081331
10.9839140625 -0.27685730339608744 -0.9776874683515173
10.9850625 -0.27579280274767654 -0.9757131855656377
10.9862109375 -0.2760016107794513 -0.9757817882911628
10.987359375 -0.2748162697130041 -0.9765003684154852
10.9885078125 -0.27561436404304246 -0.975753243813908
10.98965625 -0.27465417129185116 -0.9770428955802347
10.9908046875 -0.2765000640568125 -0.9780739705556005
10.991953125 -0.2771064116336782 -0.9776533391624337
10.9931015625 -0.27781277619552824 -0.9761021607392093
10.99425 -0.2785395020336838 -0.9774885373775202
10.9953984375 -0.278129030242371 -0.9763010423571026
10.996546875 -0.2784179853695339 -0.976290448940875
10.9976953125 -0.2782476180277766 -0.9757103363506006
10.99884375 -0.27857741760794436 -0.9763535727053767
10.9999921875 -0.27858195307571165 -0.975538435730405
11.001140625 -0.2783943192355532 -0.976268206597267
11.0022890625 -0.2788050754142849 -0.9768475002256312
11.0034375 -0.27880200080062384 -0.9767096474992685
11.0045859375 -0.2791481406199386 -0.9774134968493939
11.005734375 -0.2793161302008888 -0.9792259951860462
11.0068828125 -0.280267522526347 -0.979111908343524
11.00803125 -0.28154548863031326 -0.9782900197157641
11.0091796875 -0.28154564594581427 -0.9787095608937946
11.010328125 -0.2827405747905758 -0.9800433376140939
11.0114765625 -0.2829013776301007 -0.9802299716803676
11.012625 -0.2835163259650919 -0.9803393428271499
11.0137734375 -0.2852681950670247 -0.9813108810929326
11.014921875 -0.2859542251751711 -0.980637020265039
11.0160703125 -0.28750600852117325 -0.9815022860132544
11.01721875 -0.2897306483308093 -0.9805023065670693
11.0183671875 -0.28974233656143017 -0.9782977262381859
11.019515625 -0.2891748256949608 -0.9786008698925162
11.0206640625 -0.28915986602597665 -0.9776768247300004
11.0218125 -0.2904351751340948 -0.9787476463585584
11.0229609375 -0.2912410284601783 -0.978718177344515
11.024109375 -0.2934813791847181 -0.9788092862006417
11.0252578125 -0.29326228607878707 -0.9776435548854263
11.02640625 -0.29289202272015624 -0.9774004694465385
11.0275546875 -0.293115427056968 -0.9766537539507085
11.028703125 -0.2936892790886105 -0.9765934835802724
11.0298515625 -0.29327968874214466 -0.976245949424636
11.031 -0.29261183013313535 -0.977197343122039
11.0321484375 -0.2940358479374833 -0.9765015828352954
11.033296875 -0.29404258306549763 -0.978391157753719
11.0344453125 -0.29625855070692597 -0.9790477393804169
11.03559375 -0.29686260840107154 -0.9802195743727907
11.0367421875 -0.29829003621274414 -0.9799290449981007
11.037890625 -0.2983259004539106 -0.9792938707920298
11.0390390625 -0.300023316616606 -0.9787069838446321
11.0401875 -0.30152116047478794 -0.9784153383739006
11.0413359375 -0.30216848204753227 -0.9784603093554972
11.042484375 -0.3030233285533014 -0.9777664815293092
11.0436328125 -0.3034709183294364 -0.9768622840858604
11.04478125 -0.30500428577837385 -0.9767599177727048
11.0459296875 -0.3058068470260046 -0.9763682269256353
11.047078125 -0.30594238284847086 -0.9760796426902432
11.0482265625 -0.3066290062455536 -0.9774070196492841
11.049375 -0.30680342559439 -0.9749389773869561
11.0505234375 -0.3079062334455592 -0.9741660235143568
11.051671875 -0.3101017788047677 -0.9739718305042842
11.0528203125 -0.3098759105895077 -0.9754848962997024
11.05396875 -0.3105203533544616 -0.9747292675203603
11.0551171875 -0.31267235625960416 -0.9739926568912761
11.056265625 -0.314002498483956 -0.9731359878048335
11.0574140625 -0.3128167962169019 -0.9713618049289903
11.0585625 -0.3130668914488273 -0.9690715948488097
11.0597109375 -0.31159882145837836 -0.9695761870356125
11.060859375 -0.31068764646130254 -0.9701063702788745
11.0620078125 -0.30980050849440033 -0.9703347540654133
11.06315625 -0.31276689938242686 -0.9715151353104825
11.0643046875 -0.3129509297473583 -0.9704765920229147
11.065453125 -0.31462100210579574 -0.9725566327252813
11.0666015625 -0.3140858139775362 -0.9712473529888318
11.06775 -0.31478750179710746 -0.9706172057549967
11.0688984375 -0.3167880433389634 -0.9713817180780101
11.070046875 -0.31626419665903455 -0.9700064454629037
11.0711953125 -0.31752194435020087 -0.9701941893410713
11.07234375 -0.3191028621852229 -0.9701401402418804
11.0734921875 -0.3210929538582825 -0.9688041576073563
11.074640625 -0.32149261460619194 -0.9660320536382596
11.0757890625 -0.3212467119422529 -0.9657269585425206
11.0769375 -0.3216659606309242 -0.9648880350903488
11.0780859375 -0.31931452769516555 -0.9652474195850034
11.079234375 -0.32016680689871807 -0.9642394822268416
11.0803828125 -0.3187858516556349 -0.9639266388488094
11.08153125 -0.3193346077330004 -0.9639433226945934
11.0826796875 -0.31725842396645665 -0.9648290974398634
11.083828125 -0.31748810576940417 -0.9656515966917564
11.0849765625 -0.31740744052296543 -0.9670882471382012
11.086125 -0.3170912310310373 -0.9684580715770272
11.0872734375 -0.316588073579714 -0.9694111580249887
11.088421875 -0.32088821356170033 -0.9689664271685894
11.0895703125 -0.3210083717124964 -0.9706471600071238
11.09071875 -0.322733669785958 -0.9706248919909435
11.0918671875 -0.32232512850590983 -0.9708846569150972
11.093015625 -0.3234066753185211 -0.971055581422518
11.0941640625 -0.3248440522931536 -0.9710105896052116
11.0953125 -0.3264516127686853 -0.970921763311184
11.0964609375 -0.3294194389109572 -0.9699995427937216
11.097609375 -0.3292470041210339 -0.9672966644897467
11.0987578125 -0.32855068774146107 -0.9673561635831556
11.09990625 -0.32987508394314125 -0.965934159704628
11.1010546875 -0.3290441250236447 -0.9657204349577475
11.102203125 -0.3283463025362613 -0.9657937610371692
11.1033515625 -0.329114493786713 -0.9656347312775563
11.1045 -0.3294221370386874 -0.9668997525676106
11.1056484375 -0.3288744483169487 -0.9669157214383777
11.106796875 -0.32965784958493743 -0.9676046013014515
11.1079453125 -0.33079883542621846 -0.9683096707796081
11.10909375 -0.33218116815018295 -0.9680065071440551
11.1102421875 -0.3333063371143957 -0.9680848409558256
11.111390625 -0.3338551451180882 -0.9680166649384008
11.1125390625 -0.3344915670800712 -0.9689343483833945
11.1136875 -0.33507025288680864 -0.9696662314768132
11.1148359375 -0.3374142568887082 -0.9685082695655428
11.115984375 -0.33851638597960587 -0.968466787197803
11.1171328125 -0.33887207025486155 -0.9681196165703242
11.11828125 -0.34247945601413177 -0.9685476383595644
11.1194296875 -0.34431836508407165 -0.9657425623090629
11.120578125 -0.345106143775307 -0.9652808214399495
11.1217265625 -0.3454970057368686 -0.9627196395019842
11.122875 -0.3457338464539749 -0.9621566390658274
11.1240234375 -0.34452886544715633 -0.9617841740843269
11.125171875 -0.34547565481245485 -0.9640142835223384
11.1263203125 -0.3472670332929263 -0.9631920087684667
11.12746875 -0.3469167839219357 -0.9623590202881397
11.1286171875 -0.34853266685625095 -0.9623604455381202
11.129765625 -0.3506789333444318 -0.9615020407284174
11.1309140625 -0.3496567891699197 -0.9601702882465132
11.1320625 -0.34951132489818326 -0.9604823857135185
11.1332109375 -0.35118999301531173 -0.960026097502169
11.134359375 -0.3524739452008572 -0.9593045384369341
11.1355078125 -0.3538710763336457 -0.9588934782591005
11.13665625 -0.3553750116002413 -0.9594612678452311
11.1378046875 -0.3572761008469947 -0.9567063600885473
11.138953125 -0.35814020084501264 -0.9535459016608991
11.1401015625 -0.35889472996290994 -0.9536022447429945
11.14125 -0.3594316593447243 -0.9529811438666993
11.1423984375 -0.3593644661725409 -0.9489968243357051
11.143546875 -0.35815321259488975 -0.9486842791241236
11.1446953125 -0.35701772530300324 -0.9484850800024838
11.14584375 -0.355822340524134 -0.9480303742460217
11.1469921875 -0.35657671579294825 -0.950373377839373
11.148140625 -0.35806078946864983 -0.9490024962614414
11.1492890625 -0.3583142728002229 -0.9482236924922396
11.1504375 -0.3598234873338513 -0.9458907395676617
11.1515859375 -0.3586529922170688 -0.9455225466742715
11.152734375 -0.3587571696718269 -0.9445450238284399
11.1538828125 -0.3594880957287334 -0.9438273313145391
11.15503125 -0.35674027782468587 -0.9434796616966528
11.1561796875 -0.35777263025577655 -0.94258321178902
11.157328125 -0.35654428746028377 -0.9410232688921112
11.1584765625 -0.3559533776414623 -0.9429441666163807
11.159625 -0.3567202433317199 -0.9406858598446872
11.1607734375 -0.3556987291626461 -0.9406454744858657
11.161921875 -0.35558080107823264 -0.9430686494017024
11.1630703125 -0.3558648353893744 -0.9412305792489417
11.16421875 -0.3546883038114196 -0.9385516449271138
11.1653671875 -0.3524510385523707 -0.9395638068967025
11.166515625 -0.3525884923753151 -0.9396106806091823
11.1676640625 -0.3556706034981585 -0.9400791086814144
11.1688125 -0.35313230991530065 -0.93989397345433
11.1699609375 -0.3536273061538979 -0.94173973581311
11.171109375 -0.3538728898132769 -0.9421271303175289
11.1722578125 -0.35416737379773766 -0.9388636187447442
11.17340625 -0.3526811140551802 -0.9420251643373192
11.1745546875 -0.35313501195622676 -0.9396726192356043
11.175703125 -0.3551819494208913 -0.9420895364393373
11.1768515625 -0.35465587697541334 -0.9408609570029699
11.178 -0.3541973655573061 -0.9404896283815066
11.1791484375 -0.3555581735637622 -0.9412368500714251
11.180296875 -0.35686983203110656 -0.9412623720186948
11.1814453125 -0.35423687727152586 -0.9413114883624367
11.18259375 -0.35493786359415036 -0.9422260656959064
11.1837421875 -0.3562037422546329 -0.9409094991971318
11.184890625 -0.35642608463772774 -0.9429370920235106
11.1860390625 -0.35858897275066237 -0.9432921618189315
11.1871875 -0.35881456868161565 -0.9446692939606347
11.1883359375 -0.35808927859310763 -0.9424636320768509
11.189484375 -0.35806907389746356 -0.9439610518232575
11.1906328125 -0.3599166961134441 -0.9440820319624319
11.19178125 -0.36059453814893677 -0.9455369666501721
11.1929296875 -0.35995471463465034 -0.9454364669984503
11.194078125 -0.3626461935335725 -0.9448640307251094
11.1952265625 -0.3624572014105977 -0.9457842772481042
11.196375 -0.3623330571493894 -0.9445148915585128
11.1975234375 -0.3638009401273595 -0.9450032615636881
11.198671875 -0.3649256348561266 -0.9449439243040005
11.1998203125 -0.36481099785982374 -0.944043256391425
11.20096875 -0.36636672884668875 -0.9447515058297256
11.2021171875 -0.3661863806730517 -0.9439430634775428
11.203265625 -0.36833859376316813 -0.9440711242041709
11.2044140625 -0.3683950247443395 -0.9428150088271618
11.2055625 -0.36960147192695103 -0.9432235447957771
11.2067109375 -0.36948231372231305 -0.9432832338656227
11.207859375 -0.3698545669033774 -0.9419103504192682
11.2090078125 -0.3710828212683869 -0.9417020903371088
11.21015625 -0.3714934825890104 -0.9402568113599796
11.2113046875 -0.37152540541216317 -0.9411068068903199
11.212453125 -0.37278290763875827 -0.9385010562586323
11.2136015625 -0.3720432103027599 -0.9388218014173767
11.21475 -0.37254383082248044 -0.9387391126026142
11.2158984375 -0.3713429783892369 -0.9388112544766386
11.217046875 -0.3722646856433719 -0.9381174371587553
11.2181953125 -0.3711838877400139 -0.940207755691714
11.21934375 -0.37162934940732406 -0.9419691551015071
11.2204921875 -0.3743559264724806 -0.9415151590575397
11.221640625 -0.3758251202053755 -0.9431760069890909
11.2227890625 -0.37695521116225256 -0.9415328927318688
11.2239375 -0.3782623830819668 -0.9410632360218588
11.2250859375 -0.3761377184449158 -0.9414041241016189
11.226234375 -0.3792510790333528 -0.9410821401503783
11.2273828125 -0.3804052523093868 -0.9413249958365523
11.22853125 -0.3791795277977926 -0.9387502134241872
11.2296796875 -0.37952993172090943 -0.9394669322021956
11.230828125 -0.3804449602622024 -0.9375056082503314
11.2319765625 -0.380632211783016 -0.9384492959309788
11.233125 -0.3827002336808271 -0.9395702878362161
11.2342734375 -0.3826859945710182 -0.9400696618690748
11.235421875 -0.3834693017409843 -0.9384076771484021
11.2365703125 -0.3848956278614472 -0.9394618894632419
11.23771875 -0.38618792404993485 -0.9383509139616933
11.2388671875 -0.3860218621421826 -0.9390316532385846
11.240015625 -0.383506627763603 -0.9360652290111897
11.2411640625 -0.38358815733960167 -0.9370933285348858
11.2423125 -0.38482042664028526 -0.9368037802917387
11.2434609375 -0.3858223818282843 -0.9375563840232739
11.244609375 -0.38609540275039456 -0.9368081278850425
11.2457578125 -0.3848720955801141 -0.9329419820457541
11.24690625 -0.38739787782682356 -0.9354791188660257
11.2480546875 -0.38742150417849963 -0.9359246847346535
11.249203125 -0.3881616392284262 -0.9384531138297347
11.2503515625 -0.3905617316501462 -0.9351519041996191
11.2515 -0.3912060857591488 -0.9348713252140564
11.2526484375 -0.3921530609528615 -0.9322430261128907
11.253796875 -0.3930287615940668 -0.9314102798605001
11.2549453125 -0.39290478125182665 -0.9321275526326804
11.25609375 -0.3924491711275142 -0.9336085782800233
11.2572421875 -0.3941186074067773 -0.9309792973684377
11.258390625 -0.39696805968793897 -0.9286634665654845
11.2595390625 -0.39456984789753785 -0.9291930031021243
11.2606875 -0.39549089791910347 -0.9287322023077059
11.2618359375 -0.3955759467107427 -0.9279835473676312
11.262984375 -0.39692257431481737 -0.9272992405496641
11.2641328125 -0.39894068188146814 -0.9256487906056619
11.26528125 -0.3991356007304651 -0.9255760496366044
11.2664296875 -0.39977113821733407 -0.9225269598316717
11.267578125 -0.3979221320733392 -0.9226697121172092
11.2687265625 -0.39894322154022516 -0.920966589293764
11.269875 -0.39966084331342355 -0.9173045997509722
11.2710234375 -0.3998974522076943 -0.915825320201875
11.272171875 -0.39832598051192303 -0.9138868952980004
11.2733203125 -0.3979968397100606 -0.9118853366350907
11.27446875 -0.3973122020247925 -0.9128463652589559
11.2756171875 -0.3990193842630141 -0.9112855757848676
11.276765625 -0.3986927216104152 -0.9089631857659877
11.2779140625 -0.39891911876989444 -0.9071435241161777
11.2790625 -0.3977482096720645 -0.9064906474648671
11.2802109375 -0.3961726931710198 -0.9053820783111578
11.281359375 -0.3950884693666018 -0.9051557209071286
11.2825078125 -0.394286471991495 -0.9054715131694823
11.28365625 -0.39526170571508423 -0.9034807217261942
11.2848046875 -0.39605333563012735 -0.9000834365568654
11.285953125 -0.39264980007189515 -0.8985061155667037
11.2871015625 -0.39033322344326205 -0.8985182653561038
11.28825 -0.3885196612789184 -0.8982122252127962
11.2893984375 -0.38592796345679664 -0.8997137998616725
11.290546875 -0.3867036357859619 -0.8993402929946437
11.2916953125 -0.38492806424127035 -0.8982819565828557
11.29284375 -0.38436145794230453 -0.8982459549373243
11.2939921875 -0.38128618060102515 -0.8994792536681024
11.295140625 -0.38034811752106024 -0.8998069573692616
11.2962890625 -0.37911435418213757 -0.8969849611429778
11.2974375 -0.37670046435066384 -0.9015799392071827
11.2985859375 -0.3817654209817598 -0.9048271017329416
11.299734375 -0.37929966702587825 -0.9036312275984116
11.3008828125 -0.3797145423129752 -0.901779789609998
11.30203125 -0.37758242779522966 -0.9038759730962675
11.3031796875 -0.37502736813118775 -0.9011743404608108
11.304328125 -0.37350190800412386 -0.9022166328855799
11.3054765625 -0.3729730586600577 -0.9065150389963181
11.306625 -0.37170077423409875 -0.9069783161501487
11.3077734375 -0.3697174365363072 -0.9098663362447102
11.308921875 -0.36818749113320937 -0.9110604169427396
11.3100703125 -0.37167152671806447 -0.9126622490499168
11.31121875 -0.3709741254410719 -0.9170284732786457
11.3123671875 -0.37201367546240693 -0.9185557579864985
11.313515625 -0.37599900859253044 -0.9199996201291903
11.3146640625 -0.37419005399323413 -0.9186904484223691
11.3158125 -0.3728717506917518 -0.9209275153887685
11.3169609375 -0.3761222157548959 -0.9198231199003548
11.318109375 -0.3781164268946833 -0.9209770744816153
11.3192578125 -0.3731002180942473 -0.9249393228058049
11.32040625 -0.37274345842270695 -0.9249236254482258
11.3215546875 -0.3761439379488334 -0.9288113569269134
11.322703125 -0.37591081970240603 -0.927618878415154
11.3238515625 -0.3773486519673081 -0.9268576631951553
11.325 -0.3771912018776702 -0.9296591092279992
11.3261484375 -0.3770040432198895 -0.9311159799380565
11.327296875 -0.3781040225434441 -0.9344352391143702
11.3284453125 -0.3799211470588677 -0.9306852246505883
11.32959375 -0.3802128154921762 -0.9318091004040483
11.3307421875 -0.37916472343456425 -0.9354531476304788
11.331890625 -0.37932239469053 -0.9383581722979955
11.3330390625 -0.3808016895244663 -0.9397847032529477
11.3341875 -0.38396957885786365 -0.9398136760732758
11.3353359375 -0.38395127910973664 -0.9406856210231674
11.336484375 -0.3866605855660109 -0.939366847868293
11.3376328125 -0.38657638697728025 -0.9431504924593562
11.33878125 -0.38663321129411843 -0.9429909698500704
11.3399296875 -0.38839797246372354 -0.9454622634248915
11.341078125 -0.3914976506953146 -0.9458426670984688
11.3422265625 -0.39212648347538764 -0.944861808772135
11.343375 -0.3964065678203077 -0.9462857358296153
11.3445234375 -0.39648958145596064 -0.9461799340270343
11.345671875 -0.3991324881187817 -0.9450517524057919
11.3468203125 -0.39871358554994596 -0.9444355750350941
11.34796875 -0.4014364349537939 -0.9442011188936819
11.3491171875 -0.4024059078693079 -0.9441204995196507
11.350265625 -0.39897999187252253 -0.9453272036325064
11.3514140625 -0.4048024836841374 -0.9446635645132366
11.3525625 -0.40615025241339336 -0.9429031056865971
11.3537109375 -0.4072362148921984 -0.9443371698451001
11.354859375 -0.4088499535349879 -0.9411486037744705
11.3560078125 -0.40552575836343996 -0.9413031193850654
11.35715625 -0.4056811342888186 -0.9432590243892863
11.3583046875 -0.4013661735983897 -0.944249943656731
11.359453125 -0.40548758432963616 -0.9448887977965775
11.3606015625 -0.40678962880707065 -0.9471743313662883
11.36175 -0.41077858284821145 -0.9474930948999849
11.3628984375 -0.41462586845735927 -0.9454972215041503
11.364046875 -0.4133892009832971 -0.9446800191049292
11.3651953125 -0.41266540014818354 -0.9453630070029173
11.36634375 -0.411645599925173 -0.9464234765749884
11.3674921875 -0.4103971838495964 -0.9466745785885429
11.368640625 -0.4129200561063231 -0.9549620747116071
11.3697890625 -0.41699823777136935 -0.9535591312249047
11.3709375 -0.42317136649958886 -0.9552834453396378
11.3720859375 -0.42220455880508173 -0.9557681044289162
11.373234375 -0.42541810499515703 -0.9550881285398293
11.3743828125 -0.4236704156044099 -0.958310315089889
11.37553125 -0.43239074647275494 -0.9593233505192089
11.3766796875 -0.4296659185545644 -0.9589955951556648
11.377828125 -0.4415728723035543 -0.9543690864847608
11.3789765625 -0.4402838506850191 -0.9554139395395129
11.380125 -0.44629775413987743 -0.9532581971230745
11.3812734375 -0.4503463401691167 -0.9548999939687662
11.382421875 -0.45172552785340847 -0.9492630923374716
11.3835703125 -0.451322189266217 -0.9411167510175549
11.38471875 -0.45465148925613075 -0.9444264754821672
11.3858671875 -0.4541378111074817 -0.9367508696380272
11.387015625 -0.44975549461916464 -0.9380710249165973
11.3881640625 -0.4540859517669014 -0.9382017413152749
11.3893125 -0.4578350928620428 -0.9352028993887295
11.3904609375 -0.4504885095429232 -0.9345014996383827
11.391609375 -0.45385746979854047 -0.9360757701472399
11.3927578125 -0.4472393693194889 -0.9334923873443254
11.39390625 -0.4580559247930159 -0.9310956922368816
11.3950546875 -0.4544484084314133 -0.9307919490044771
11.396203125 -0.45536285056495146 -0.9315662458191039
11.3973515625 -0.45483541517759346 -0.9289954439382611
11.3985 -0.45573690767472513 -0.9266758324513861
11.3996484375 -0.4550950402998928 -0.9239553562118961
11.400796875 -0.45622348091850906 -0.9185125390146598
11.4019453125 -0.453486615052528 -0.9181612357704384
11.40309375 -0.45267246660014687 -0.9185515372211411
11.4042421875 -0.4459515328812687 -0.9227903156086256
11.405390625 -0.45022267268196403 -0.9236031576097862
11.4065390625 -0.4509969955943623 -0.9195457160137527
11.4076875 -0.4506722285507012 -0.9210233978420983
11.4088359375 -0.45013983711004657 -0.9229726608437576
11.409984375 -0.4532046016483224 -0.9216668555002776
11.4111328125 -0.45305366455951485 -0.9226376600842711
11.41228125 -0.45565832891319935 -0.9158770191949763
11.4134296875 -0.45327187091541166 -0.9153336745084997
11.414578125 -0.4532462423625603 -0.9167011572558172
11.4157265625 -0.4515958371489319 -0.9166885550905748
11.416875 -0.4531540182622166 -0.918739878245586
11.4180234375 -0.4551637901978829 -0.9155769707564706
11.419171875 -0.45231780121134024 -0.9162041174087608
11.4203203125 -0.45316697561379937 -0.9165625913411579
11.42146875 -0.4543424583160114 -0.9150502501414362
11.4226171875 -0.4559300647523924 -0.9148374745258506
11.423765625 -0.45314410861161025 -0.9131247405350669
11.4249140625 -0.45193018851676303 -0.9144096328334957
11.4260625 -0.451216609071478 -0.913051867927539
11.4272109375 -0.4543442031698547 -0.9113674251039046
11.428359375 -0.45669056159982063 -0.9137930763343233
11.4295078125 -0.45384459290908563 -0.9106460066772389
11.43065625 -0.4565116536084648 -0.9085179011562399
11.4318046875 -0.4579974911248035 -0.9081085341124651
11.432953125 -0.45689191361237513 -0.9065174067322072
11.4341015625 -0.45548494994939315 -0.9045487699280377
11.43525 -0.45358202085361154 -0.9051633034476525
11.4363984375 -0.45048616782786716 -0.9047034762688465
11.437546875 -0.45005804646597447 -0.9042816538054395
11.4386953125 -0.45125399601241245 -0.9086785089729522
11.43984375 -0.4477097462227403 -0.9117869759152437
11.4409921875 -0.44813955108138503 -0.9102512247947427
11.442140625 -0.4486733550441574 -0.9116873571196067
11.4432890625 -0.4475810701720837 -0.9164914149004231
11.4444375 -0.4483824573191475 -0.9197548753997905
11.4455859375 -0.4519181273469319 -0.9234018969332995
11.446734375 -0.4551339297338999 -0.9236954570136875
11.4478828125 -0.4623779175349616 -0.924526200625009
11.44903125 -0.4674599988036445 -0.9275657725329961
11.4501796875 -0.47427544033238883 -0.927746696923646
11.451328125 -0.47865042312328876 -0.9209113732493273
11.4524765625 -0.4807522308404249 -0.9154112123533882
11.453625 -0.4832271876392388 -0.9108908142650631
11.4547734375 -0.4805227917080678 -0.9056873617565276
11.455921875 -0.4793954231774637 -0.9028468064364144
11.4570703125 -0.4786382890302763 -0.9009001484446748
11.45821875 -0.47536312782612805 -0.8985534059987823
11.4593671875 -0.4757815308073131 -0.8965715066307525
11.460515625 -0.4712092115646849 -0.8934469099340154
11.4616640625 -0.47160088095476727 -0.8968941954839218
11.4628125 -0.4690712522013114 -0.8990850489639697
11.4639609375 -0.4665752256345764 -0.9014180235676211
11.465109375 -0.46469222728754844 -0.9025668063392349
11.4662578125 -0.46736540216852124 -0.9019966004238003
11.46740625 -0.4670324075538782 -0.9058470997287699
11.4685546875 -0.46896090670698576 -0.9047668890262872
11.469703125 -0.47106996588641314 -0.9065715658772061
11.4708515625 -0.4696382213895094 -0.906911277449799
11.472 -0.47141875068525557 -0.9052244683235011
11.4731484375 -0.46943802692086617 -0.9085955284877217
11.474296875 -0.47304381837982623 -0.909674534126912
11.4754453125 -0.4732629657943854 -0.9109446280008655
11.47659375 -0.4744828213496022 -0.9103552516810188
11.4777421875 -0.47742765915033525 -0.911605834193937
11.478890625 -0.4759583851458268 -0.9109969672435563
11.4800390625 -0.4745881401612673 -0.9098509686088811
11.4811875 -0.4799577728113962 -0.9084486579712352
11.4823359375 -0.48062521990079965 -0.9090663021971944
11.483484375 -0.4772258313396844 -0.9039657078594239
11.4846328125 -0.4760186073531242 -0.9081615254249644
11.48578125 -0.47485246267570724 -0.9081509730966677
11.4869296875 -0.4748350827441993 -0.9109453143720774
11.488078125 -0.47390820713680265 -0.9143117289589151
11.4892265625 -0.47403867339108513 -0.9136633227389999
11.490375 -0.47651507720889746 -0.9159284690273212
11.4915234375 -0.4815258631431999 -0.9196734332050457
11.492671875 -0.4829428673546941 -0.9178279220815082
11.4938203125 -0.4873542110118274 -0.9182330247493486
11.49496875 -0.48865445160190296 -0.9173825373489303
11.4961171875 -0.49087852789883 -0.9162180730651392
11.497265625 -0.4937817028240316 -0.9144626127699573
11.4984140625 -0.49325536740211295 -0.9084421815463207
11.4995625 -0.4906301089487547 -0.9093847473706439
11.5007109375 -0.4900243321962512 -0.9053047295047477
11.501859375 -0.49084820083706104 -0.9010140126565215
11.5030078125 -0.48955075825045735 -0.9031380543063943
11.50415625 -0.4929670573173106 -0.903665635056773
11.5053046875 -0.49187859977080456 -0.9039256369642272
11.506453125 -0.49396665801765655 -0.9001035857212254
11.5076015625 -0.49392356287376715 -0.8983580214423271
11.50875 -0.4947826963798435 -0.8987112221969135
11.5098984375 -0.49208736976256745 -0.9000546542341532
11.511046875 -0.4935519492458343 -0.8967880922279174
11.5121953125 -0.4937647000730407 -0.8931697917773781
11.51334375 -0.49450770778716324 -0.8943746020240549
11.5144921875 -0.4957493612668974 -0.8921295418788637
11.515640625 -0.4917721500658608 -0.8919732237822066
11.5167890625 -0.4908891518144404 -0.8930986347998269
11.5179375 -0.4914326188619824 -0.8950755879804178
11.5190859375 -0.4925269318088088 -0.8950287646612058
11.520234375 -0.49403938083004734 -0.894913047386825
11.5213828125 -0.49341535761988803 -0.895692894908349
11.52253125 -0.49157423726657345 -0.8983470414512149
11.5236796875 -0.4930865033369254 -0.8967115918857363
11.524828125 -0.4937437622266799 -0.8954510606392811
11.5259765625 -0.4981606692836398 -0.8951947605680579
11.527125 -0.4996610675275509 -0.8961933560848983
11.5282734375 -0.4974875709837312 -0.894722491398968
11.529421875 -0.4992507857596073 -0.8941365070433387
11.5305703125 -0.4963366674079867 -0.8927836995347673
11.53171875 -0.4987639462848859 -0.889726910255705
11.5328671875 -0.4978988295670924 -0.8890380038401566
11.534015625 -0.4989097498033012 -0.8935363491636568
11.5351640625 -0.5017822917236214 -0.8945350935577561
11.5363125 -0.5000998092129172 -0.8905865819086791
11.5374609375 -0.5037673748408142 -0.8908620425244251
11.538609375 -0.5006183786276862 -0.890174994579302
11.5397578125 -0.5033214572610176 -0.8917177714103302
11.54090625 -0.5023300608407848 -0.893772890357317
11.5420546875 -0.5046590906566355 -0.8906453967935135
11.543203125 -0.5058117953661514 -0.889941656552012
11.5443515625 -0.5049307230693242 -0.8899902102499462
11.5455 -0.5044892017527927 -0.89122083885379
11.5466484375 -0.5025703358849538 -0.8931537436925419
11.547796875 -0.509273462601135 -0.8922743434720108
11.5489453125 -0.5090458761374275 -0.8928323878472331
11.55009375 -0.5126218203838273 -0.8943431700733062
11.5512421875 -0.5122595652721378 -0.8891391049294979
11.552390625 -0.5126874943184526 -0.8890412420796445
11.5535390625 -0.5121367587557264 -0.8883258313661073
11.5546875 -0.5143302051753987 -0.8863969822028687
11.5558359375 -0.511638103125204 -0.887740826823788
11.556984375 -0.5122369778088952 -0.888111601897622
11.5581328125 -0.51426024376049 -0.8892646708235014
11.55928125 -0.5166849058989613 -0.8888922690872285
11.5604296875 -0.517420605277002 -0.88680152730624
11.561578125 -0.5164601970724169 -0.8883176817038133
11.5627265625 -0.5177504242668699 -0.886403169801425
11.563875 -0.5163222025377674 -0.8827424550234719
11.5650234375 -0.5172740735323819 -0.8833089269273227
11.566171875 -0.5168124299179037 -0.8805435141853728
11.5673203125 -0.5150496670185603 -0.8818625017472363
11.56846875 -0.5151804895186418 -0.8831485909077575
11.5696171875 -0.5174060943658172 -0.8829279146967639
11.570765625 -0.5181999452700674 -0.8849676544510681
11.5719140625 -0.5161599601021546 -0.884229653956546
11.5730625 -0.5196148359082778 -0.8834304802224142
11.5742109375 -0.5202488324699917 -0.8813832451165053
11.575359375 -0.5214146634175224 -0.8822517797522291
11.5765078125 -0.5211555974363291 -0.8818319561150982
11.57765625 -0.522979667713912 -0.8779980802549815
11.5788046875 -0.5235485309991189 -0.8722929347484178
11.579953125 -0.5202581795262583 -0.8699076641013823
11.5811015625 -0.5216448028024214 -0.8692004606909312
11.58225 -0.5177708043860123 -0.8696589530371687
11.5833984375 -0.5172517073293605 -0.8710506033397061
11.584546875 -0.518843745504981 -0.8680904969013385
11.5856953125 -0.5175248833210782 -0.8688733312906829
11.58684375 -0.5177190570998715 -0.8704828672827211
11.5879921875 -0.5155775778216709 -0.8704188507977686
11.589140625 -0.516798523115068 -0.8713380804756697
11.5902890625 -0.5166275163689074 -0.8710549955471698
11.5914375 -0.5143430786929635 -0.8712967170940497
11.5925859375 -0.5196841962882608 -0.871389578485873
11.593734375 -0.5184723742651287 -0.8720179261957096
11.5948828125 -0.5189969975900901 -0.8708569905095305
11.59603125 -0.5191924593841764 -0.8682938699064802
11.5971796875 -0.5168294337605397 -0.8657660441114752
11.598328125 -0.5143827705306323 -0.8665213007542072
11.5994765625 -0.5147034150215837 -0.8663033507412082
11.600625 -0.5160742633454994 -0.8731271572173578
11.6017734375 -0.5130969246782711 -0.8739555480059971
11.602921875 -0.5160486232560023 -0.8733645250250051
11.6040703125 -0.5119952453989923 -0.8759631641445489
11.60521875 -0.5145538022113514 -0.8770809083841759
11.6063671875 -0.5167769885593223 -0.8808836733627616
11.607515625 -0.5227531296524776 -0.8811703110538813
11.6086640625 -0.5223476087580042 -0.8808344485671458
11.6098125 -0.5246050643800386 -0.8812148062525778
11.6109609375 -0.5297512995480619 -0.8809649084295585
11.612109375 -0.5356183877562695 -0.8823389500603801
11.6132578125 -0.5353206494901843 -0.8792107386829451
11.61440625 -0.5352957160161127 -0.876083801166114
11.6155546875 -0.535886011852765 -0.8742768310769502
11.616703125 -0.5350167149180384 -0.87375562152052
11.6178515625 -0.5329641277379973 -0.8735603993801744
11.619 -0.5339438495093867 -0.8747171501150963
11.6201484375 -0.5365378790174351 -0.8773456927014679
11.621296875 -0.5341835036691451 -0.8804980386619692
11.6224453125 -0.5372034838277093 -0.8786151861948887
11.62359375 -0.5404276880940948 -0.8811741294584607
11.6247421875 -0.5408376372257794 -0.8820255613277034
11.625890625 -0.5407887836609164 -0.8822268570436138
11.6270390625 -0.5449937170000299 -0.8800376377728972
11.6281875 -0.5475001591674645 -0.877228265548859
11.6293359375 -0.5511630189024169 -0.8800971318254471
11.630484375 -0.5555903193573015 -0.874075933020242
11.6316328125 -0.5529639057582435 -0.8738037456951395
11.63278125 -0.5546652007420303 -0.8692102926903773
11.6339296875 -0.5557204461620733 -0.8680243574919532
11.635078125 -0.5549986093594986 -0.8655172019464796
11.6362265625 -0.5565962457346195 -0.8631749316850108
11.637375 -0.5542454154447185 -0.861856560159771
11.6385234375 -0.5554102736974426 -0.862076322242198
11.639671875 -0.5526542026514107 -0.862683492877543
11.6408203125 -0.5493588030493596 -0.8627356628855176
11.64196875 -0.5504266484792131 -0.8633814759078233
11.6431171875 -0.5514562786944464 -0.867208222539861
11.644265625 -0.5512191732553912 -0.8674293114325914
11.6454140625 -0.5515969877700122 -0.8703415196319554
11.6465625 -0.5513668151269855 -0.8677840060883859
11.6477109375 -0.5535357638102609 -0.8709762469263467
11.648859375 -0.5549967808829344 -0.8664537251316247
11.6500078125 -0.5569800002202829 -0.8637800596858023
11.65115625 -0.554069704331434 -0.8600986527713048
11.6523046875 -0.5607768699664892 -0.8568114138824172
11.653453125 -0.5572812308495245 -0.8547170936866499
11.6546015625 -0.5559653803747687 -0.8509103341865886
11.65575 -0.5578334721071396 -0.8519563841220501
11.6568984375 -0.5543948463516973 -0.8488523965311056
11.658046875 -0.5546724313424622 -0.8486122195164925
11.6591953125 -0.5549825655215006 -0.8482539793834967
11.66034375 -0.5556218907204502 -0.8495243287317235
11.6614921875 -0.5549357455574979 -0.8479233612463986
11.662640625 -0.5546922698657306 -0.8452473519571543
11.6637890625 -0.5557076670217342 -0.8447658138582376
11.6649375 -0.5565620860655953 -0.8461956090901137
11.6660859375 -0.555229427716611 -0.8435861230592443
11.667234375 -0.5580800926465219 -0.8434996006338671
11.6683828125 -0.5555390763258015 -0.8427851014487403
11.66953125 -0.5562007692189948 -0.8421701307139146
11.6706796875 -0.5535968609413141 -0.8436058295846912
11.671828125 -0.5522730435283134 -0.8426734729037093
11.6729765625 -0.5532847881802507 -0.8426383296753928
11.674125 -0.5513357479385679 -0.8398932716184311
11.6752734375 -0.5573827227619963 -0.8423641980644777
11.676421875 -0.5573145213121065 -0.842494427921499
11.6775703125 -0.5589552698125256 -0.8397802194197558
11.67871875 -0.5579216791713175 -0.8388174153418474
11.6798671875 -0.555899875710633 -0.8339926800818703
11.681015625 -0.5531740900828815 -0.8323872815769378
11.6821640625 -0.5527639840469017 -0.8332106291866634
11.6833125 -0.5520992576641262 -0.8370832661285299
11.6844609375 -0.5521282519845645 -0.8350276073858842
11.685609375 -0.5519064532382234 -0.8368134514473943
11.6867578125 -0.5503518970219127 -0.8322369195127204
11.68790625 -0.5513322466425071 -0.8373220629660074
11.6890546875 -0.5506259464963006 -0.8344007668192038
11.690203125 -0.550377394050712 -0.8362356300565389
11.6913515625 -0.5538442281248535 -0.8394518912952318
11.6925 -0.5522918257907526 -0.8408390375638981
11.6936484375 -0.5577430588007406 -0.8425983517265107
11.694796875 -0.5557021036357717 -0.84134647463683
11.6959453125 -0.5574949940169212 -0.8420705315747462
11.69709375 -0.5594502834785683 -0.844585741036031
11.6982421875 -0.5588865463339159 -0.841155144508077
11.699390625 -0.5618953613952595 -0.8408801646019818
11.7005390625 -0.5598930081951986 -0.8434161737101658
11.7016875 -0.5633579160286541 -0.8439806554886866
11.7028359375 -0.5620884310265974 -0.8453991890766641
11.703984375 -0.5657875483718062 -0.8430270296965503
11.7051328125 -0.5644911475102816 -0.8454129342557357
11.70628125 -0.5694344615829466 -0.8449988857136066
11.7074296875 -0.568275093600882 -0.8460276500409368
11.708578125 -0.567435593859454 -0.8444464895120287
11.7097265625 -0.5656573976883958 -0.8427599263332349
11.710875 -0.5672875982175195 -0.8416315813763828
11.7120234375 -0.5671721791582323 -0.8440815320624314
11.713171875 -0.5689279537499743 -0.843579003491747
11.7143203125 -0.5698659356351943 -0.8458304288351155
11.71546875 -0.5729643331471135 -0.8447458532030538
11.7166171875 -0.5720701543008231 -0.8420775519506798
11.717765625 -0.5734201137739784 -0.8427545585915523
11.7189140625 -0.5699736885443225 -0.843383150419813
11.7200625 -0.5724849515797095 -0.8432277776249582
11.7212109375 -0.5689616094355462 -0.8435942468307309
11.722359375 -0.5684685142079651 -0.8443498007085658
11.7235078125 -0.5669374478436257 -0.8458032977422567
11.72465625 -0.5687513923365466 -0.8467395020798584
11.7258046875 -0.5697258385177858 -0.8455200694401048
11.726953125 -0.5723596095303088 -0.8453702809237593
11.7281015625 -0.5713975939584228 -0.840615646148513
11.72925 -0.568206757567501 -0.8434292691630921
11.7303984375 -0.5706682591445111 -0.842077541343529
11.731546875 -0.5731317572396565 -0.8414314568333955
11.7326953125 -0.5734509234754 -0.8433006728622878
11.73384375 -0.5777574548801387 -0.843936962124155
11.7349921875 -0.5753104812003055 -0.8430722913449347
11.736140625 -0.5815548951764137 -0.8406509604451711
11.7372890625 -0.5851158803852663 -0.837540522268045
11.7384375 -0.5840816796260597 -0.8351357251694609
11.7395859375 -0.5821508895208557 -0.83266244120456
11.740734375 -0.5795464131170658 -0.8323405900380721
11.7418828125 -0.5799023098698428 -0.8323283813556652
11.74303125 -0.5807965492576046 -0.8302571441262652
11.7441796875 -0.579458395010237 -0.8311492363059636
11.745328125 -0.5838707200630309 -0.8305550570559366
11.7464765625 -0.5852936060316818 -0.8322059092563334
11.747625 -0.5902518797669077 -0.8298805334235029
11.7487734375 -0.5904036283010079 -0.8300809017875546
11.749921875 -0.5909304466180079 -0.8263331425435377
11.7510703125 -0.5904954847024679 -0.8227974801108668
11.75221875 -0.5906364648516853 -0.8253813421366569
11.7533671875 -0.590169544434779 -0.826786328346947
11.754515625 -0.5891344574840593 -0.8235094220130559
11.7556640625 -0.5912101165536483 -0.8257445816101787
11.7568125 -0.5918258880958843 -0.8244481565718211
11.7579609375 -0.5947898310603668 -0.8228551108540714
11.759109375 -0.592798063974105 -0.821939682093306
11.7602578125 -0.5962762748314435 -0.8246086894038733
11.76140625 -0.5958898141640634 -0.8244969555805608
11.7625546875 -0.5932946958774067 -0.8221706173910895
11.763703125 -0.596563065011133 -0.822690101014194
11.7648515625 -0.5985000938321143 -0.8201729984420785
11.766 -0.5994270430143253 -0.8191413530579164
11.7671484375 -0.6025435238815451 -0.819889673123307
11.768296875 -0.6010823079648046 -0.8149237399678305
11.7694453125 -0.5983316443967456 -0.8141847471142212
11.77059375 -0.5962562869592773 -0.814851935970496
11.7717421875 -0.5970724335598223 -0.815310549305519
11.772890625 -0.5960148705306686 -0.814474246688625
11.7740390625 -0.5951266971881706 -0.813911239395724
11.7751875 -0.5971420516984757 -0.811536174477627
11.7763359375 -0.5982850551201986 -0.8119510105655181
11.777484375 -0.6012748062735294 -0.810576965732434
11.7786328125 -0.5977775022841729 -0.8138873330931296
11.77978125 -0.600873927615138 -0.8174289848932038
11.7809296875 -0.5964992429939566 -0.8125154161246904
11.782078125 -0.5968747516518126 -0.81080053622624
11.7832265625 -0.5987490597276292 -0.8112040441168021
11.784375 -0.5971138814959038 -0.8126532425014692
11.7855234375 -0.5960634798507105 -0.811106998241316
11.786671875 -0.5978163156073393 -0.8127590322694828
11.7878203125 -0.6000463016711308 -0.8094087495401878
11.78896875 -0.6016699499102618 -0.8138305206814989
11.7901171875 -0.6002702864295637 -0.8116907340883763
11.791265625 -0.6037724852365398 -0.8092479707426028
11.7924140625 -0.6005426275284205 -0.808754576084231
11.7935625 -0.6038574279046494 -0.8099137261963166
11.7947109375 -0.6004036322205223 -0.8072005053605492
11.795859375 -0.604072008104237 -0.807718957925144
11.7970078125 -0.6005410305885034 -0.8078150442693866
11.79815625 -0.6016893555632052 -0.8115619831170306
11.7993046875 -0.6025256104876671 -0.8046743573466943
11.800453125 -0.6056569282758983 -0.8023710440363666
11.8016015625 -0.6058910427759753 -0.808167977807295
11.80275 -0.6046772576668302 -0.8060918094773677
11.8038984375 -0.6029894533552138 -0.8017857745930437
11.805046875 -0.604117171985941 -0.7999604489140857
11.8061953125 -0.6043013664964163 -0.8013317712459841
11.80734375 -0.6026285175148536 -0.8024435331527944
11.8084921875 -0.6031198913224673 -0.8015964787495068
11.809640625 -0.6049589520039371 -0.8006807676949461
11.8107890625 -0.6052992801240252 -0.8012082041892776
11.8119375 -0.6055386717503909 -0.8008403755904874
11.8130859375 -0.6056083930119817 -0.7990155655944842
11.814234375 -0.6089130286068908 -0.801082955796965
11.8153828125 -0.6080621070009368 -0.7989215126137011
11.81653125 -0.6063758323953359 -0.8000806618006928
11.8176796875 -0.6069263084013294 -0.7983481661083139
11.818828125 -0.6044581448499813 -0.7955752756736468
11.8199765625 -0.6046446463698311 -0.7971696941696049
11.821125 -0.6085313724611773 -0.7961423507867411
11.8222734375 -0.606552987034148 -0.7958012555543003
11.823421875 -0.6093356788453566 -0.7940500538287103
11.8245703125 -0.6117780083835479 -0.7966169665643923
11.82571875 -0.6104142863385444 -0.7964552051602501
11.8268671875 -0.6123906379815367 -0.7974455561072916
11.828015625 -0.6153082014063269 -0.7938435659932713
11.8291640625 -0.6134211990423176 -0.7939898563385636
11.8303125 -0.6144011923096298 -0.7918977458618919
11.8314609375 -0.6135588988951022 -0.7957959189304599
11.832609375 -0.6135401846679587 -0.7915961329173327
11.8337578125 -0.6101141649782782 -0.7914861642975729
11.83490625 -0.6069007002841211 -0.7856135537610108
11.8360546875 -0.6122672595578873 -0.7881330219297353
11.837203125 -0.6115162069847351 -0.790243979983683
11.8383515625 -0.6134653452486034 -0.790323781676519
11.8395 -0.6083362182861469 -0.7829823138541365
11.8406484375 -0.6081126410778555 -0.7833062411992904
11.841796875 -0.6117526585429478 -0.7876786676581403
11.8429453125 -0.6125608757128138 -0.7868196696975629
11.84409375 -0.6110496624906789 -0.787636376266766
11.8452421875 -0.6136050271036428 -0.7883774288505556
11.846390625 -0.6118652401971238 -0.7874304468706833
11.8475390625 -0.6093579375368212 -0.7865861826346738
11.8486875 -0.6100077519469157 -0.7872138634572154
11.8498359375 -0.60934076002838 -0.7892133659993144
11.850984375 -0.6082736203155876 -0.7888223289454099
11.8521328125 -0.6121471589494004 -0.7900376740702242
11.85328125 -0.6108972408167429 -0.7865245456637473
11.8544296875 -0.6094866620534911 -0.7886716622118484
11.855578125 -0.6135030509798869 -0.7878434028925818
11.8567265625 -0.615081431728689 -0.7890713303252375
11.857875 -0.6135967400278797 -0.789375812259119
11.8590234375 -0.6117685864883184 -0.789948436724849
11.860171875 -0.6132773866131517 -0.789575598058728
11.8613203125 -0.6156603922350569 -0.78974825997209
11.86246875 -0.6187317158152921 -0.7885204586136219
11.8636171875 -0.6208691826310748 -0.7930829879103957
11.864765625 -0.6196477079033831 -0.7870173693509226
11.8659140625 -0.618801961869928 -0.7875461453551419
11.8670625 -0.6232115103325618 -0.7879100492582995
11.8682109375 -0.6210704622988209 -0.7886060865518302
11.869359375 -0.6224351425234743 -0.7894907481515642
11.8705078125 -0.624967705107171 -0.786611426778842
11.87165625 -0.6277882812938047 -0.7884907021627612
11.8728046875 -0.6295892916730783 -0.7869424790352657
11.873953125 -0.6268115474145007 -0.7838620306580051
11.8751015625 -0.6307367315801222 -0.7846906619928135
11.87625 -0.6321710757522583 -0.781768753476824
11.8773984375 -0.6303214193508023 -0.7793617635989288
11.878546875 -0.630655878328815 -0.7785600945078575
11.8796953125 -0.6306840070218525 -0.7775789546470375
11.88084375 -0.6310753222318221 -0.7747082205916813
11.8819921875 -0.6311455676551028 -0.7721746509442808
11.883140625 -0.628138699854786 -0.7727427797401876
11.8842890625 -0.6250797660341844 -0.7738276325233719
11.8854375 -0.624540048816649 -0.7735998939517045
11.8865859375 -0.6247232533393308 -0.7712469422715915
11.887734375 -0.6231342282922172 -0.7715055075564373
11.8888828125 -0.6228325793960524 -0.7709349234801203
11.89003125 -0.6238894807760105 -0.7727366780387667
11.8911796875 -0.622399319822169 -0.7740060182419453
11.892328125 -0.6232539831332337 -0.773768265302704
11.8934765625 -0.6244817089314898 -0.770899494035725
11.894625 -0.6226587861926196 -0.7720532832514808
11.8957734375 -0.6237426615690218 -0.772580639733977
11.896921875 -0.624750790945052 -0.772059961312082
11.8980703125 -0.6208582929242152 -0.7726216615816837
11.89921875 -0.6205247918098022 -0.7716619820702229
11.9003671875 -0.6195110795161296 -0.7700186708356054
11.901515625 -0.619556187171682 -0.7742998756225055
11.9026640625 -0.6205351507969017 -0.7744704430264694
11.9038125 -0.6232366376333719 -0.775343204095859
11.9049609375 -0.6236529274046692 -0.7780331126749882
11.906109375 -0.6272415465445393 -0.7746580868467299
11.9072578125 -0.6294816080228839 -0.7789844648464804
11.90840625 -0.630162215300386 -0.776232293046106
11.9095546875 -0.6313616748352402 -0.7722552635852016
11.910703125 -0.6327689141122741 -0.7685517027027455
11.9118515625 -0.6321448334773005 -0.7670326450505055
11.913 -0.6348682798107181 -0.767676663661096
11.9141484375 -0.6344380207220703 -0.7683587245051641
11.915296875 -0.6353567275213781 -0.7663685876625528
11.9164453125 -0.6349603789785001 -0.7663955446965995
11.91759375 -0.6352978531368861 -0.764634059719999
11.9187421875 -0.6369371079765622 -0.7612059889982095
11.919890625 -0.6332504925131489 -0.7595258673518339
11.9210390625 -0.6331375354643076 -0.7604721651379902
11.9221875 -0.6339802473691278 -0.7591947646499818
11.9233359375 -0.6333817570704086 -0.7580629971523503
11.924484375 -0.6319793511914076 -0.7548920310006396
11.9256328125 -0.6298622501946143 -0.7582958318641686
11.92678125 -0.6345220155077989 -0.7597622703821668
11.9279296875 -0.6353332099592826 -0.7586208645477797
11.929078125 -0.6350974558733125 -0.756867265989565
11.9302265625 -0.6399614324087879 -0.757532552516788
11.931375 -0.6382162219916235 -0.7575801277354085
11.9325234375 -0.638717285683783 -0.7568784458012955
11.933671875 -0.6384344710657494 -0.7567460763343816
11.9348203125 -0.6373271202204498 -0.7542769984277564
11.93596875 -0.6380841456268287 -0.7547522279201113
11.9371171875 -0.6369516087386493 -0.7553990996254079
11.938265625 -0.6353280664052517 -0.754239643775166
11.9394140625 -0.6370847288476583 -0.7545488720507703
11.9405625 -0.6353624340394712 -0.7548041685044956
11.9417109375 -0.6357805852416548 -0.7512757033956203
11.942859375 -0.6364346783114676 -0.7547079394234069
11.9440078125 -0.6348189904291159 -0.7560639577081376
11.94515625 -0.6354136167643509 -0.7557064686671278
11.9463046875 -0.6365140287682622 -0.756515345730466
11.947453125 -0.6362840383561841 -0.7545962760541038
11.9486015625 -0.6382340641178496 -0.756758289887556
11.94975 -0.6391696804494333 -0.7561538108392886
11.9508984375 -0.639214391206528 -0.758351967693901
11.952046875 -0.6413177796720905 -0.75627973906809
11.9531953125 -0.6432199814880087 -0.7520736504256359
11.95434375 -0.6438279989354706 -0.7516816305745093
11.9554921875 -0.6437572284197283 -0.748533324717993
11.956640625 -0.6427791957907106 -0.7479123683255248
11.9577890625 -0.6415905382188953 -0.7485023918489684
11.9589375 -0.6419111103748883 -0.7482439101094078
11.9600859375 -0.6391255720105117 -0.7452073385700139
11.961234375 -0.6377006963088757 -0.7426685484159444
11.9623828125 -0.636851580741735 -0.7461344824602801
11.96353125 -0.6358976904581551 -0.7479755384718495
11.9646796875 -0.6364375502030828 -0.7478194140695641
11.965828125 -0.6356276300754028 -0.7473800482179045
11.9669765625 -0.6363409081829808 -0.7501480185770542
11.968125 -0.6360091543876615 -0.7486931564762415
11.9692734375 -0.6352787875073093 -0.7497482842152986
11.970421875 -0.6348231123067205 -0.7488521596938369
11.9715703125 -0.6333236119696324 -0.7481058709191374
11.97271875 -0.6344595376698076 -0.7488003122745207
11.9738671875 -0.6317315868448332 -0.7500115794546605
11.975015625 -0.6340521011052955 -0.7528037784331891
11.9761640625 -0.6345558450193854 -0.7514091555530895
11.9773125 -0.6341753066072766 -0.7527947026882384
11.9784609375 -0.6349440143286824 -0.7543553019815564
11.979609375 -0.634642139339507 -0.7538542841696438
11.9807578125 -0.6366660688380632 -0.7538939362847522
11.98190625 -0.6375537694459111 -0.7548725349545747
11.9830546875 -0.6385911654490793 -0.7528425353412849
11.984203125 -0.639689360780038 -0.7533894071467376
11.9853515625 -0.6384575564809389 -0.7559645313767623
11.9865 -0.6396945364163691 -0.7549025108510713
11.9876484375 -0.6391580161401464 -0.7541864362570292
11.988796875 -0.6398874620245838 -0.7535965669263764
11.9899453125 -0.6407769009734106 -0.7550386839496894
11.99109375 -0.6427223664144031 -0.7543057543145834
11.9922421875 -0.6434415829775894 -0.7562758145674308
11.993390625 -0.6437227015745571 -0.7574887853007746
11.9945390625 -0.644048682273332 -0.753327530816055
11.9956875 -0.6456397970551443 -0.7556604512539231
11.9968359375 -0.646456780106357 -0.7570782975892524
11.997984375 -0.6467228858079892 -0.7559335018309377
11.9991328125 -0.6491715243079506 -0.7523836271041657
12.00028125 -0.64882096355017 -0.7527620712374611
12.0014296875 -0.6507230424717939 -0.7539156908517024
12.002578125 -0.6496171455684225 -0.754290016790382
12.0037265625 -0.6499637639794141 -0.753521011498336
12.004875 -0.651104209548834 -0.7523505712677263
12.0060234375 -0.6515495360568568 -0.7540820019231966
12.007171875 -0.6512682230267973 -0.7537727990493329
12.0083203125 -0.6519893808052111 -0.7566089267887428
12.00946875 -0.6552788945576595 -0.7536839593091635
12.0106171875 -0.6575627510109955 -0.7542360915959625
12.011765625 -0.6585859694214082 -0.7533152877213352
12.0129140625 -0.661761554025469 -0.7514009640630832
12.0140625 -0.6606873557462266 -0.7498999318664517
12.0152109375 -0.6647318336728008 -0.7474066811427045
12.016359375 -0.6657365478101327 -0.7466406245373263
12.0175078125 -0.6647706082435234 -0.7452714430870545
12.01865625 -0.6636499876705868 -0.7458040371690146
12.0198046875 -0.6643551491872278 -0.7424782256152687
12.020953125 -0.6619770535091057 -0.7421125197918861
12.0221015625 -0.660507985963245 -0.7439631482317909
12.02325 -0.6616848399528255 -0.742588773736663
12.0243984375 -0.6624331122363781 -0.7438554632714658
12.025546875 -0.6626104807964374 -0.745392793009815
12.0266953125 -0.6644768861788494 -0.7430379672794708
12.02784375 -0.6661916910431429 -0.7409821463451726
12.0289921875 -0.6670445346166582 -0.7423555164954033
12.030140625 -0.6663142386643222 -0.7405299343700253
12.0312890625 -0.667656151334036 -0.7418737290243373
12.0324375 -0.6676240614257922 -0.7401120359181537
12.0335859375 -0.6666402496272468 -0.7413468842410524
12.034734375 -0.6683659831864248 -0.7390811671686507
12.0358828125 -0.6690048365218062 -0.7391787358013551
12.03703125 -0.6721794331555766 -0.7379371865093529
12.0381796875 -0.6721508859543197 -0.7386359628095034
12.039328125 -0.672944909808018 -0.7348284272783152
12.0404765625 -0.6719080312062078 -0.7361153712531887
12.041625 -0.6723796263660046 -0.7337410926997978
12.0427734375 -0.673581197504626 -0.7345278401321722
12.043921875 -0.6705750729678586 -0.7331016207630533
12.0450703125 -0.6699861411828627 -0.7332158594726198
12.04621875 -0.6712444912678912 -0.7320498380896779
12.0473671875 -0.6715549791414607 -0.7316247366696443
12.048515625 -0.671799487508427 -0.7324188297867811
12.0496640625 -0.6709416052840977 -0.7293330797917358
12.0508125 -0.6716922792533743 -0.7299395763873257
12.0519609375 -0.6708660662098377 -0.7299658196079041
12.053109375 -0.6707964104890131 -0.7310810228004814
12.0542578125 -0.6725851824957525 -0.7305076999088798
12.05540625 -0.6736151477267625 -0.7301802444066905
12.0565546875 -0.6765487687660591 -0.7290222821847984
12.057703125 -0.6762877566716151 -0.7283124180160455
12.0588515625 -0.6744268366303265 -0.7273292239904605
12.06 -0.674936564875293 -0.7262309417168029
12.0611484375 -0.6762884439053009 -0.7249609410443999
12.062296875 -0.6747460346121913 -0.7248851581250257
12.0634453125 -0.6745563475245315 -0.7240259468905363
12.06459375 -0.6754925277812618 -0.72330633389979
12.0657421875 -0.6742058474743648 -0.7237941212030874
12.066890625 -0.6727875276401627 -0.7231485942058511
12.0680390625 -0.6740943761939941 -0.723714052459298
12.0691875 -0.6753057901641104 -0.7219231686350702
12.0703359375 -0.6742415163003954 -0.724450345944485
12.071484375 -0.674784450245433 -0.7214973494839941
12.0726328125 -0.6758813603294701 -0.7220754424662419
12.07378125 -0.6752607262983212 -0.7218362420229192
12.0749296875 -0.6751723693258325 -0.7209855750411897
12.076078125 -0.6753231948234044 -0.7203426599964584
12.0772265625 -0.6756836233721322 -0.7203988389753522
12.078375 -0.6755526420632125 -0.7203968884108951
12.0795234375 -0.6756862830844281 -0.7189273057812393
12.080671875 -0.6758118888982053 -0.7192344432561752
12.0818203125 -0.6752893180651911 -0.7186940005882145
12.08296875 -0.674526151681832 -0.7194978776503063
12.0841171875 -0.6745977691290652 -0.7201987584355987
12.085265625 -0.675628743454378 -0.7212350086272243
12.0864140625 -0.6760443787594081 -0.7196088791968822
12.0875625 -0.6765830935833865 -0.7220415270742766
12.0887109375 -0.6773086416449832 -0.7214561514006078
12.089859375 -0.6789724448528187 -0.7207876101062679
12.0910078125 -0.6790401918409397 -0.7176405590153749
12.09215625 -0.6810276678041831 -0.7192592804830019
12.0933046875 -0.6809553069011353 -0.7172043091564173
12.094453125 -0.6817788126782077 -0.7167194350246436
12.0956015625 -0.6818328187168671 -0.7180134453149069
12.09675 -0.6821468678024328 -0.7168336882971673
12.0978984375 -0.6806486337968796 -0.7146872875972727
12.099046875 -0.6799189956932357 -0.7164528142860728
12.1001953125 -0.6794175621455136 -0.7170150369678181
12.10134375 -0.6803704406422866 -0.7168278384314782
12.1024921875 -0.6795553552336678 -0.7164538129765139
12.103640625 -0.6794454868422786 -0.7175416566377514
12.1047890625 -0.6793796143629599 -0.7179831496777187
12.1059375 -0.6794775442863 -0.7171944076347667
12.1070859375 -0.6810520800348283 -0.7198123218470149
12.108234375 -0.6818082100273803 -0.7200200969423636
12.1093828125 -0.6826333431337563 -0.7206811543523021
12.11053125 -0.683034557868849 -0.7200445831928783
12.1116796875 -0.6847937376382445 -0.7184552647190897
12.112828125 -0.6840119622952805 -0.7192535226160187
12.1139765625 -0.6836506348395083 -0.7203882240830668
12.115125 -0.6842438825982231 -0.7211057413387768
12.1162734375 -0.6876803010595942 -0.7232658672051133
12.117421875 -0.6877294315317241 -0.7219319755572907
12.1185703125 -0.6910584994660347 -0.7217791384512525
12.11971875 -0.6929378671971523 -0.7214751107030605
12.1208671875 -0.6950229622976565 -0.7192103209934494
12.122015625 -0.6954699235812227 -0.7179248127387161
12.1231640625 -0.6968102029355829 -0.7172132114856826
12.1243125 -0.6961526483408481 -0.7166440526365618
12.1254609375 -0.6961020029994056 -0.7163051440011141
12.126609375 -0.6957866925378129 -0.7158253602598874
12.1277578125 -0.6993437648399448 -0.7149560631360161
12.12890625 -0.6989935811461969 -0.7116063052020364
12.1300546875 -0.7010004686202534 -0.7126331030297574
12.131203125 -0.700502566480933 -0.7122775255284988
12.1323515625 -0.7011025763545604 -0.7091955514904946
12.1335 -0.7013281132343345 -0.7063499327245674
12.1346484375 -0.7010571918440933 -0.7050241486788117
12.135796875 -0.6989559884483005 -0.7031257798887087
12.1369453125 -0.6987768448477207 -0.7035502103041544
12.13809375 -0.6973374497109164 -0.703939959868872
12.1392421875 -0.6964160842316826 -0.7029705826360979
12.140390625 -0.6949557395202207 -0.7024586130050803
12.1415390625 -0.6955543157227428 -0.7029119594816364
12.1426875 -0.6938394686392884 -0.7008269051367433
12.1438359375 -0.6928318336367278 -0.7006082263529425
12.144984375 -0.6901704728758525 -0.7026746703217126
12.1461328125 -0.6886698368941611 -0.7069570502487839
12.14728125 -0.6892276324602415 -0.7078139718290117
12.1484296875 -0.6910734627330266 -0.7130540640957048
12.149578125 -0.6920689614877672 -0.7141149624939576
12.1507265625 -0.6955791144330491 -0.7156701357844147
12.151875 -0.6992325063050389 -0.7149711644782053
12.1530234375 -0.7029074906653333 -0.7145571836563376
12.154171875 -0.703887859975568 -0.71327978055998
12.1553203125 -0.7081561574347998 -0.7116443521283339
12.15646875 -0.7092137140976563 -0.7113426431158464
12.1576171875 -0.7129035643553712 -0.7060843869803625
12.158765625 -0.7120558028386357 -0.7033513671041933
12.1599140625 -0.7106137866821131 -0.7025345604137192
12.1610625 -0.7085450371798048 -0.6983241026751266
12.1622109375 -0.7088748945932256 -0.7008150273548573
12.163359375 -0.7074014939258937 -0.7028206455518197
12.1645078125 -0.7088236016149064 -0.7002875601960064
12.16565625 -0.7090401631984364 -0.7005181573787033
12.1668046875 -0.7117759247772777 -0.7013680985441143
12.167953125 -0.7139368863614524 -0.6998343358857443
12.1691015625 -0.7153023515715127 -0.6979620578069394
12.17025 -0.7158809063813907 -0.6948392578116142
12.1713984375 -0.7137246304819833 -0.6941447600789149
12.172546875 -0.7146288480005502 -0.6941558488198302
12.1736953125 -0.7156216331384024 -0.688759110062047
12.17484375 -0.7150338500410585 -0.6891467988987947
12.1759921875 -0.7152308759029951 -0.6870400325322166
12.177140625 -0.7118234239198118 -0.6864410931528709
12.1782890625 -0.7124117803440813 -0.6846000926896401
12.1794375 -0.7092630420306503 -0.6839380473406098
12.1805859375 -0.7085495827842085 -0.683908232666928
12.181734375 -0.7073972777694568 -0.6828331632518256
12.1828828125 -0.7065262122776457 -0.6833504685100563
12.18403125 -0.7055270756192621 -0.6846515058642462
12.1851796875 -0.7059329283416735 -0.6849157986597741
12.186328125 -0.7070251207919457 -0.6860190952644062
12.1874765625 -0.7079730513623127 -0.686341406837002
12.188625 -0.708616582822378 -0.6835478802133284
12.1897734375 -0.7068658934238459 -0.682366385865619
12.190921875 -0.7054120977370791 -0.6812853618604605
12.1920703125 -0.703510379059032 -0.6816305270020249
12.19321875 -0.7021727560725008 -0.681832404019916
12.1943671875 -0.7005606390744279 -0.6823102475200666
12.195515625 -0.7003708154038122 -0.6842806496153039
12.1966640625 -0.7003690237728963 -0.6848988814562944
12.1978125 -0.6996111860179318 -0.6867638617753486
12.1989609375 -0.7010433448643512 -0.6869910891913289
12.200109375 -0.7004154927983797 -0.687843326070762
12.2012578125 -0.7017921437670169 -0.6891063349764681
12.20240625 -0.7025378044358089 -0.6898724957649265
12.2035546875 -0.7027791754852124 -0.6910106602391195
12.204703125 -0.7043540232999058 -0.6907577848622359
12.2058515625 -0.706128685843434 -0.689866824461402
12.207 -0.7063229757400853 -0.6898445456573883
12.2081484375 -0.7058669170852143 -0.6892794608545212
12.209296875 -0.7071133097086229 -0.6897988170175511
12.2104453125 -0.7095956151366086 -0.6893686275072515
12.21159375 -0.7092767108450365 -0.6865830387920323
12.2127421875 -0.7084630651488549 -0.6866319930447602
12.213890625 -0.7053775580145472 -0.6865409261443721
12.2150390625 -0.7034849518218096 -0.687220792051319
12.2161875 -0.7049539206379503 -0.6877772005389657
12.2173359375 -0.7052088089429003 -0.6898360998614208
12.218484375 -0.7058840143084344 -0.6881094807380744
12.2196328125 -0.7061177678100974 -0.689976420837902
12.22078125 -0.7060309340610724 -0.6892482147628647
12.2219296875 -0.707294157765785 -0.6896150735763453
12.223078125 -0.7080627898871535 -0.6916173776124943
12.2242265625 -0.7056923515174605 -0.6909457206348135
12.225375 -0.7062334290394239 -0.6908584323544014
12.2265234375 -0.7046574754559581 -0.6905354895930231
12.227671875 -0.7061938313352435 -0.6924786881182705
12.2288203125 -0.7071880035702185 -0.6950312390683351
12.22996875 -0.7112120100753461 -0.6957667860271413
12.2311171875 -0.71119018319661 -0.6963481859398377
12.232265625 -0.7122566063610446 -0.6950513695095037
12.2334140625 -0.7124373134521745 -0.692143062180928
12.2345625 -0.7104281495937603 -0.6911648293222905
12.2357109375 -0.7124045015486948 -0.6931017896841647
12.236859375 -0.7108155613706084 -0.6932163783329541
12.2380078125 -0.7124354806938373 -0.694853593350661
12.23915625 -0.7127961045289384 -0.6951880715816511
12.2403046875 -0.7126456956247351 -0.694758750531786
12.241453125 -0.71176622346094 -0.6928636562012814
12.2426015625 -0.7098564132827886 -0.6939298934169704
12.24375 -0.7077134220227141 -0.6959315127922435
12.2448984375 -0.7089049687457635 -0.6968096739271181
12.246046875 -0.7084089115165123 -0.7003001078848221
12.2471953125 -0.7088247199569151 -0.7004071428264768
12.24834375 -0.7114747989184367 -0.7034826331693923
12.2494921875 -0.7104792064216355 -0.705861169693063
12.250640625 -0.7111749215126908 -0.709597716307899
12.2517890625 -0.714417604888924 -0.7128709030193674
12.2529375 -0.7200053673390732 -0.7131658084381911
12.2540859375 -0.7218812614412876 -0.7137681369948002
12.255234375 -0.726554825424852 -0.7148466341180202
12.2563828125 -0.7293682096371471 -0.7135807174462906
12.25753125 -0.7309851293900005 -0.7113338148841456
12.2586796875 -0.7322081210552844 -0.7106420435646721
12.259828125 -0.7316767060531912 -0.708421252121195
12.2609765625 -0.7332140067106437 -0.7091264954835033
12.262125 -0.7337630149131157 -0.7112879141936206
12.2632734375 -0.7370314641742302 -0.711681780343114
12.264421875 -0.7405316165230389 -0.7134476517432904
12.2655703125 -0.7459509986546491 -0.7126966105393572
12.26671875 -0.7513462936962787 -0.7111418607563383
12.2678671875 -0.7537611043047296 -0.7060340187070746
12.269015625 -0.7539171336174416 -0.7017141475223139
12.2701640625 -0.7558814762046149 -0.6989985669003609
12.2713125 -0.7532847686448747 -0.6941497682017479
12.2724609375 -0.7508702529831199 -0.6929300347175082
12.273609375 -0.7505055547255717 -0.6915922456462713
12.2747578125 -0.7469637893610126 -0.6912472181533593
12.27590625 -0.7445012122784758 -0.6919553174249338
12.2770546875 -0.7443062814884955 -0.6951220975986431
12.278203125 -0.7430092695626211 -0.6971644977869291
12.2793515625 -0.7451390887089593 -0.6991055973594547
12.2805 -0.7465635687931522 -0.7016880304693395
12.2816484375 -0.7498943234962808 -0.703262654539199
12.282796875 -0.7525324817773678 -0.7017238369491879
12.2839453125 -0.7532303422328999 -0.7032033939181834
12.28509375 -0.7544393582709107 -0.7028857692413111
12.2862421875 -0.7558471459250582 -0.7018912055593566
12.287390625 -0.7573694207965771 -0.7045178912966426
12.2885390625 -0.7596870502092745 -0.7064557448530245
12.2896875 -0.7628289535968783 -0.7070202740201627
12.2908359375 -0.7666322775874191 -0.7079800924111221
12.291984375 -0.7715560819588563 -0.7073581989261849
12.2931328125 -0.7752975645844414 -0.7052704576869819
12.29428125 -0.7816852709629364 -0.7008170218063425
12.2954296875 -0.7842237905080891 -0.696144716937442
12.296578125 -0.7834981829071297 -0.6925014277439548
12.2977265625 -0.7838431461785782 -0.688552156237905
12.298875 -0.7826238115924589 -0.686806366010331
12.3000234375 -0.7818732449687545 -0.6864020019601453
12.301171875 -0.7825057554688156 -0.6848969460768566
12.3023203125 -0.7850883950291077 -0.6827472693958565
12.30346875 -0.7860140396221165 -0.6807288951544261
12.3046171875 -0.7852652295542336 -0.6774503402415039
12.305765625 -0.7854924315321686 -0.6759870378752196
12.3069140625 -0.7839958055079439 -0.6760647513541246
12.3080625 -0.7852183865081613 -0.6739707323159047
12.3092109375 -0.7850491999752315 -0.6719657192769376
12.310359375 -0.7864148049007275 -0.67099370644855
12.3115078125 -0.7852454078343752 -0.6683128652106857
12.31265625 -0.7858010133474311 -0.6677455254724507
12.3138046875 -0.7828211741626192 -0.6665833067955632
12.314953125 -0.7826335787899361 -0.6673755978166773
12.3161015625 -0.7855570550922079 -0.6662514416427032
12.31725 -0.7862413068812935 -0.6642236105785977
12.3183984375 -0.7869230165851533 -0.662123159323088
12.319546875 -0.7861488018669751 -0.6611229094447499
12.3206953125 -0.7829993544303238 -0.6597638801899527
12.32184375 -0.7816288463269856 -0.6608239127018083
12.3229921875 -0.7823267145660644 -0.6614701906842484
12.324140625 -0.7843307127868819 -0.6620899478128646
12.3252890625 -0.7845071448145593 -0.6622784113406073
12.3264375 -0.7859619057731073 -0.6616800925357784
12.3275859375 -0.7857713850451353 -0.6593084192318677
12.328734375 -0.7860552964397043 -0.65678017392719
12.3298828125 -0.7869929071846412 -0.6581730337078673
12.33103125 -0.7874040899104813 -0.6572710538129048
12.3321796875 -0.7868085320472894 -0.6539042142721938
12.333328125 -0.7858199743805309 -0.6558896749343976
12.3344765625 -0.7858617464669327 -0.6541026683049734
12.335625 -0.7868717607656655 -0.6535294542576241
12.3367734375 -0.7875127166528575 -0.6550712722045297
12.337921875 -0.7866237458009737 -0.6508319009645679
12.3390703125 -0.7860683917072719 -0.6487109123476781
12.34021875 -0.7847863137470421 -0.648352971968986
12.3413671875 -0.7847076071966456 -0.6511585357259595
12.342515625 -0.7837250827490978 -0.6516338309504306
12.3436640625 -0.7863196898670908 -0.6516778191638453
12.3448125 -0.7866073592840721 -0.6510494956483053
12.3459609375 -0.7903939325031402 -0.6497798973959098
12.347109375 -0.7898026431821312 -0.6490527658571935
12.3482578125 -0.7902169365228411 -0.6475090931156919
12.34940625 -0.787834607242593 -0.6459772306318151
12.3505546875 -0.7896427408428452 -0.6432443271922633
12.351703125 -0.7883477149763647 -0.6447225968589833
12.3528515625 -0.7891202574772072 -0.6440477102679659
12.354 -0.7905979398395224 -0.6431156062727474
12.3551484375 -0.7902940934744176 -0.642729658899886
12.356296875 -0.7898229664568928 -0.6430115464173475
12.3574453125 -0.7890947846076304 -0.6414534789443369
12.35859375 -0.7907878257146019 -0.6402049766477276
12.3597421875 -0.7906206982626393 -0.6408797858298262
12.360890625 -0.7901699167010088 -0.6398615790429727
12.3620390625 -0.7912593241142147 -0.6378359112356142
12.3631875 -0.7899914064780738 -0.6390084393458828
12.3643359375 -0.7911671506649827 -0.6365824669344147
12.365484375 -0.7915075132806724 -0.6361739325600542
12.3666328125 -0.7910176253743566 -0.6359664310556947
12.36778125 -0.7920768741455716 -0.6339124127414196
12.3689296875 -0.7915577510344425 -0.6303654083731658
12.370078125 -0.7900471064522134 -0.6293795111918699
12.3712265625 -0.7867836732549475 -0.628044761785657
12.372375 -0.7860719943444615 -0.628549693819564
12.3735234375 -0.7844333093936371 -0.6271399696357954
12.374671875 -0.7830024054878821 -0.6284639179332052
12.3758203125 -0.7817333064409273 -0.6277472562599141
12.37696875 -0.7810123045783375 -0.6264656095421477
12.3781171875 -0.7787280259205077 -0.629516676911153
12.379265625 -0.7775926778625446 -0.6294984439577648
12.3804140625 -0.7765154115860355 -0.6302260119516958
12.3815625 -0.7764503932787792 -0.6303141409290602
12.3827109375 -0.776045915832591 -0.6319980843548743
12.383859375 -0.7747968680024816 -0.6341749092480564
12.3850078125 -0.7740614517155721 -0.6350642693438979
12.38615625 -0.7763982594048444 -0.63812071511362
12.3873046875 -0.7772110846502793 -0.638430316013558
12.388453125 -0.778237897455234 -0.6386661252638504
12.3896015625 -0.7795157125211845 -0.6397023858341856
12.39075 -0.7792722869070018 -0.6400073738897267
12.3918984375 -0.7791584419369779 -0.6394099429442535
12.393046875 -0.7797937454890623 -0.6397078824223081
12.3941953125 -0.7793259871282547 -0.6395959067152689
12.39534375 -0.7798654712926334 -0.6405239113855372
12.3964921875 -0.7820246172082013 -0.6427208741149465
12.397640625 -0.7834219051724216 -0.6447327441347682
12.3987890625 -0.7862229568083818 -0.6439102769455036
12.3999375 -0.7864699068122074 -0.6431392661669876
12.4010859375 -0.7866915721317367 -0.6425513109381733
12.402234375 -0.78784913008298 -0.6419171266693374
12.4033828125 -0.7874259417993207 -0.6408590184420869
12.40453125 -0.7875253839991546 -0.644305614750844
12.4056796875 -0.7880388894438676 -0.6451226417771205
12.406828125 -0.7894522938375106 -0.6462295958097027
12.4079765625 -0.7920706994875545 -0.6476496292962806
12.409125 -0.7944329858808912 -0.6465641669188751
12.4102734375 -0.7978834816495876 -0.6459543262284582
12.411421875 -0.797747734982053 -0.6439282083101162
12.4125703125 -0.7976617442012006 -0.6433831621133854
12.41371875 -0.7971073926294272 -0.6413038242394401
12.4148671875 -0.7947005726221884 -0.6430863000820254
12.416015625 -0.7966096480816691 -0.6459095745235708
12.4171640625 -0.7968127670070947 -0.6476439675185189
12.4183125 -0.7998647392809426 -0.6493390216501941
12.4194609375 -0.8016014633589548 -0.6503910489284291
12.420609375 -0.8038041568812161 -0.6494405326152868
12.4217578125 -0.8054453369706903 -0.64820091541
12.42290625 -0.8079172967901733 -0.6484537638213674
12.4240546875 -0.8090551458687425 -0.6474771064943621
12.425203125 -0.8094342066889528 -0.6454112389797904
12.4263515625 -0.8123421403861234 -0.6440260146170711
12.4275 -0.8118560688991862 -0.6446835673855158
12.4286484375 -0.8117219525396352 -0.6416184830696685
12.429796875 -0.8131954923797624 -0.6430464133688819
12.4309453125 -0.8135616399399768 -0.6448392038189463
12.43209375 -0.8138241476891079 -0.645741162631709
12.4332421875 -0.8163523192393289 -0.6459205509390203
12.434390625 -0.8191547687632069 -0.6476485416928291
12.4355390625 -0.8224556411075552 -0.647742756800784
12.4366875 -0.825508339505957 -0.6448272074721413
12.4378359375 -0.8281991340392125 -0.6454187338722945
12.438984375 -0.8302516825324677 -0.6430778806341128
12.4401328125 -0.8309255721184439 -0.6435804130975238
12.44128125 -0.8338144156513589 -0.6395392432401789
12.4424296875 -0.8353990278958251 -0.6383809493345347
12.443578125 -0.8369220793322596 -0.6367452059017619
12.4447265625 -0.8404833353371931 -0.6330075820204125
12.445875 -0.8433263114032619 -0.6289498280065549
12.4470234375 -0.841479255858812 -0.6254510692268351
12.448171875 -0.8432160079120862 -0.622323335349114
12.4493203125 -0.8411330257230671 -0.6196525254513916
12.45046875 -0.8380258579317321 -0.6177750276923342
12.4516171875 -0.8372960638112067 -0.61749749021866
12.452765625 -0.8389982405133958 -0.6159409114388301
12.4539140625 -0.8403008788381948 -0.6140866446900817
12.4550625 -0.8406648917676194 -0.6120201747891754
12.4562109375 -0.8396017704512742 -0.608687668820887
12.457359375 -0.8356507778150479 -0.6077604010427898
12.4585078125 -0.8338307887109335 -0.6062284713586211
12.45965625 -0.833415080032871 -0.6052452761248516
12.4608046875 -0.8342985390609813 -0.6075813890789963
12.461953125 -0.8322230341418217 -0.6083633567075919
12.4631015625 -0.8300369208438356 -0.6069107654254299
12.46425 -0.829256785518398 -0.606714758241468
12.4653984375 -0.8313622141126663 -0.6084114826760152
12.466546875 -0.8314311311743857 -0.6074635218746008
12.4676953125 -0.8318870012718508 -0.6070867830853777
12.46884375 -0.8315999993937235 -0.6088942506670636
12.4699921875 -0.8312554737921409 -0.6107672114095013
12.471140625 -0.8308569746415189 -0.6060939284280364
12.4722890625 -0.8329479271412065 -0.6099796197488278
12.4734375 -0.834474129414432 -0.60996990006143
12.4745859375 -0.8374982220808093 -0.607363121406856
12.475734375 -0.8361709428555146 -0.6099317956901839
12.4768828125 -0.8372860255920309 -0.6079604820139681
12.47803125 -0.8394619312742262 -0.604976973399278
12.4791796875 -0.8407200703366073 -0.6053251968184802
12.480328125 -0.8442896816053511 -0.6032189754147735
12.4814765625 -0.8460737888584045 -0.6006812682023537
12.482625 -0.845680242085977 -0.5965440607280733
12.4837734375 -0.8447892925614258 -0.5947738731445341
12.484921875 -0.8430727520553365 -0.5913326294617111
12.4860703125 -0.8409865932411573 -0.5883981614703025
12.48721875 -0.8381930846914738 -0.5889040613104328
12.4883671875 -0.837537867960174 -0.5887659919331197
12.489515625 -0.8355510581729038 -0.5883847632678957
12.4906640625 -0.8343551464248046 -0.5907776877023613
12.4918125 -0.8345728365709149 -0.5886971858814777
12.4929609375 -0.8325412613751696 -0.5871950500186895
12.494109375 -0.8308450545175324 -0.5878541682933902
12.4952578125 -0.8273085026763819 -0.5911535655467692
12.49640625 -0.8252675617423549 -0.5930153200203467
12.4975546875 -0.8283762457523143 -0.5979549741345211
12.498703125 -0.8320062729216069 -0.6003401367134099
12.4998515625 -0.8380565711563484 -0.5986988103572073
12.501 -0.8410688668566677 -0.592774702967301
12.5021484375 -0.8402662677965362 -0.587977404710491
12.503296875 -0.8388640476675224 -0.5881074479553487
12.5044453125 -0.8354331098092348 -0.5879674099258888
12.50559375 -0.8330564780301375 -0.5888724795302156
12.5067421875 -0.832296797685692 -0.5902096138020421
12.507890625 -0.8336739205993888 -0.5933233923066499
12.5090390625 -0.8354648321874789 -0.5942694905306679
12.5101875 -0.8382985141038759 -0.5954850531862748
12.5113359375 -0.8368903647579146 -0.5957195950352859
12.512484375 -0.8383782715787038 -0.5944925829421392
12.5136328125 -0.8408790809335168 -0.5924127248589643
12.51478125 -0.8428544832171203 -0.5930795592677904
12.5159296875 -0.8426711784540949 -0.5913015677285827
12.517078125 -0.842304959892381 -0.592624064219686
12.5182265625 -0.8423236945503367 -0.5920834785705184
12.519375 -0.8439667923274868 -0.590056496984194
12.5205234375 -0.8468656468333811 -0.588781197724135
12.521671875 -0.847712797132651 -0.5882405234289461
12.5228203125 -0.8463713222616359 -0.5862644571428144
12.52396875 -0.8484495750036893 -0.5828328021993514
12.5251171875 -0.8493367603000157 -0.58110864361709
12.526265625 -0.8485551865206962 -0.5822630966839675
12.5274140625 -0.8497828354540353 -0.5812969477761925
12.5285625 -0.8497016847789638 -0.5795437352513655
12.5297109375 -0.8494876748997786 -0.5773448221735626
12.530859375 -0.8508521680304547 -0.5734301587939703
12.5320078125 -0.8478693268538204 -0.5732571813818778
12.53315625 -0.8475817637925405 -0.5743201855852542
12.5343046875 -0.8453876933138984 -0.5739549611878467
12.535453125 -0.8474345736988596 -0.5741833862356478
12.5366015625 -0.8466265478507975 -0.5733585813533658
12.53775 -0.8440944368205434 -0.5694104205326745
12.5388984375 -0.845387008140724 -0.5688158313423157
12.540046875 -0.844533678152679 -0.5706305132142355
12.5411953125 -0.8428989280133914 -0.5724095133468903
12.54234375 -0.8427955210686945 -0.5681965004479778
12.5434921875 -0.8454616872122698 -0.5733080841240551
12.544640625 -0.8453936733497827 -0.5755055952342736
12.5457890625 -0.8458506140621045 -0.5720966465029496
12.5469375 -0.8475833891284726 -0.5711768261782405
12.5480859375 -0.8528085791903426 -0.567402310903051
12.549234375 -0.8497038115565438 -0.5681886093266737
12.5503828125 -0.8479079401400513 -0.5667353130006396
12.55153125 -0.849860399121414 -0.5641741014001912
12.5526796875 -0.8477083022833437 -0.5625515004878782
12.553828125 -0.8470888679686817 -0.5585838303449046
12.5549765625 -0.844017537079522 -0.5621121654161209
12.556125 -0.8432269786471813 -0.562559435406944
12.5572734375 -0.8409992658023685 -0.5608064207752386
12.558421875 -0.8425730683253405 -0.563367522700474
12.5595703125 -0.8427466593775688 -0.5642677530957814
12.56071875 -0.8433471601633045 -0.5626384664412849
12.5618671875 -0.8418226936662747 -0.5637941335637903
12.563015625 -0.8409769068447688 -0.5636972319562092
12.5641640625 -0.8412110499945828 -0.5641823788794129
12.5653125 -0.8407114179004214 -0.5648601272113964
12.5664609375 -0.8410582821679772 -0.5690249071658547
12.567609375 -0.8437069846456007 -0.5687240318114666
12.5687578125 -0.8431811631511256 -0.5679565219692349
12.56990625 -0.8447350728589565 -0.5699644305389993
12.5710546875 -0.8432439282305255 -0.5701340678284401
12.572203125 -0.8472823871941398 -0.5708865583954068
12.5733515625 -0.8490190658134096 -0.5715735912773975
12.5745 -0.8489981610822291 -0.5734035015722043
12.5756484375 -0.8518773509750832 -0.5715317106115634
12.576796875 -0.8520897736262976 -0.5704863515652429
12.5779453125 -0.8517182300910919 -0.5725335299297581
12.57909375 -0.8564391206498769 -0.5729906495443132
12.5802421875 -0.8568079511009079 -0.5715211075826905
12.581390625 -0.8601199901110652 -0.5697158079827338
12.5825390625 -0.8593862437094338 -0.5714629824122429
12.5836875 -0.8622342031912609 -0.5709950533729388
12.5848359375 -0.8615855802306245 -0.5677765525071978
12.585984375 -0.8617979256369164 -0.5706190484140872
12.5871328125 -0.8655448936477771 -0.5686150509267907
12.58828125 -0.8671233863609302 -0.566887681282539
12.5894296875 -0.8682723972863206 -0.5665308841808038
12.590578125 -0.8688366802114655 -0.5664519339628387
12.5917265625 -0.8733473575639609 -0.5629126044833094
12.592875 -0.870725265424174 -0.5640292852828229
12.5940234375 -0.8753830535286058 -0.562371818067144
12.595171875 -0.875609364023243 -0.5584135026787012
12.5963203125 -0.8801378498143553 -0.5595710605408768
12.59746875 -0.8833227700731026 -0.5577765631624066
12.5986171875 -0.8825816250058849 -0.554343447328538
12.599765625 -0.8788034174049679 -0.5505018186670287
12.6009140625 -0.8805760465638246 -0.5513628848204588
12.6020625 -0.87851401416127 -0.547315679790374
12.6032109375 -0.877484754413583 -0.5452293754588631
12.604359375 -0.8755708101570912 -0.5417141416911835
12.6055078125 -0.8725342441035557 -0.5489613478929997
12.60665625 -0.8735624607624599 -0.5420621143772679
12.6078046875 -0.8750122451698177 -0.5475074987763191
12.608953125 -0.8698860375228377 -0.5472450855158535
12.6101015625 -0.8720285425496888 -0.5512257872080533
12.61125 -0.8728038237171272 -0.5441874977158624
12.6123984375 -0.8705033306736278 -0.545587308202827
12.613546875 -0.8711169536853662 -0.5424937474734528
12.6146953125 -0.8756344513238918 -0.5494964492063666
12.61584375 -0.8786060535145198 -0.5501364217011052
12.6169921875 -0.8824775489392519 -0.5517106966626111
12.618140625 -0.8825658145693731 -0.5432322518546867
12.6192890625 -0.8876743028393079 -0.5479378670433843
12.6204375 -0.8915045191367845 -0.5420602616066785
12.6215859375 -0.8883223777776897 -0.539666826589693
12.622734375 -0.8873133925303393 -0.5403625580754184
12.6238828125 -0.8875185386612575 -0.534605896917713
12.62503125 -0.887873030707156 -0.5343691830792268
12.6261796875 -0.886937973184988 -0.5347434745055165
12.627328125 -0.88232160578807 -0.5332073231336547
12.6284765625 -0.8863323069623291 -0.5347549612935831
12.629625 -0.8894623577983589 -0.529581001146963
12.6307734375 -0.8885332889795852 -0.533102702152525
12.631921875 -0.89338753433271 -0.5347663483481409
12.6330703125 -0.8910833152443689 -0.5268561742002026
12.63421875 -0.8923251434513642 -0.5296719424399529
12.6353671875 -0.892486428957304 -0.5298248747146903
12.636515625 -0.8943581759692003 -0.5229280136289592
12.6376640625 -0.8941002599353185 -0.52081964841094
12.6388125 -0.8936309049284399 -0.5209072435860457
12.6399609375 -0.8941888166821845 -0.5173697679510966
12.641109375 -0.8912178459931077 -0.5153445182828968
12.6422578125 -0.8903586841025793 -0.5133627268222658
12.64340625 -0.8924416095632873 -0.5126744645019357
12.6445546875 -0.892763228595989 -0.5103765577038087
12.645703125 -0.8906614707394331 -0.5124870813004108
12.6468515625 -0.8895521923452396 -0.5115691003375342
12.648 -0.8911194484356214 -0.5042280671107342
12.6491484375 -0.8884166446064485 -0.5097159234393523
12.650296875 -0.8884988744029394 -0.5054708372591609
12.6514453125 -0.8889903313725518 -0.5010465181393369
12.65259375 -0.8896963812653033 -0.49741505498470384
12.6537421875 -0.8909918263013255 -0.5018284902760338
12.654890625 -0.8869734927546897 -0.5022424168643796
12.6560390625 -0.8809786188621871 -0.5007100265263336
12.6571875 -0.8879848230034828 -0.4986786144340618
12.6583359375 -0.8800650229405466 -0.49428131312934087
12.659484375 -0.880596425873327 -0.4943342411993694
12.6606328125 -0.8875419281341491 -0.4951943001694956
12.66178125 -0.8835094713698182 -0.4917920976702651
12.6629296875 -0.8809288960757589 -0.48970427721986065
12.664078125 -0.8770558349066915 -0.49011875683017136
12.6652265625 -0.8775477340045211 -0.48997369720392914
12.666375 -0.8707203477738481 -0.49016649703828674
12.6675234375 -0.8701017020080967 -0.4891745876164046
12.668671875 -0.8758783473041949 -0.4991345473642762
12.6698203125 -0.8690526664594216 -0.4886447370745548
12.67096875 -0.8701366291813266 -0.4912929311378707
12.6721171875 -0.8655852885978474 -0.4942712444235779
12.673265625 -0.8692983585640646 -0.4892059474248638
12.6744140625 -0.8751772412046077 -0.48975087517584204
12.6755625 -0.8615062659592865 -0.49622844400835464
12.6767109375 -0.8681004245302636 -0.48948279181690846
12.677859375 -0.863894919640804 -0.4864390341650064
12.6790078125 -0.8663329534613539 -0.4841169266774448
12.68015625 -0.870040027657097 -0.4919791053280837
12.6813046875 -0.8635234147275974 -0.49071123422056995
12.682453125 -0.8685279968962469 -0.48551879248883084
12.6836015625 -0.8630238645128732 -0.484144324552112
12.68475 -0.8654604157964543 -0.4887454738402702
12.6858984375 -0.8651613464886619 -0.4865527782658674
12.687046875 -0.8675248088403713 -0.4830756941561939
12.6881953125 -0.8658942339054045 -0.4808118703884566
12.68934375 -0.8604588706331456 -0.4695108462868023
12.6904921875 -0.8607181391107377 -0.47825605172611296
12.691640625 -0.8599127128267372 -0.4808875025074853
12.6927890625 -0.854380110901975 -0.4854792182094115
12.6939375 -0.8530766121417401 -0.48402993308706305
12.6950859375 -0.8538418532787002 -0.486278350335272
12.696234375 -0.8518742575683195 -0.4834112033204634
12.6973828125 -0.8536099539905077 -0.49167591396024396
12.69853125 -0.8482895222252181 -0.48925770664285073
12.6996796875 -0.8543850260657948 -0.4943607046254573
12.700828125 -0.8515509731642368 -0.4903932400224802
12.7019765625 -0.8486778070799972 -0.49108889107766895
12.703125 -0.8515536309205618 -0.4945020359099952
12.7042734375 -0.8513424184590164 -0.49248933349561996
12.705421875 -0.8493083161172473 -0.49498211108733103
12.7065703125 -0.8502487571804679 -0.4991952410683732
12.70771875 -0.8519420390415904 -0.49726834555590466
12.7088671875 -0.8511527346947845 -0.49885492418375127
12.710015625 -0.8527412913565628 -0.4980833776651771
12.7111640625 -0.8530852223440029 -0.4976890342538679
12.7123125 -0.8543395816254348 -0.4962579307600869
12.7134609375 -0.8537984642600421 -0.49844397276472524
12.714609375 -0.8566338498692818 -0.49574403882637263
12.7157578125 -0.8554384631022631 -0.4947182924415118
12.71690625 -0.8547746713562527 -0.4948643904368022
12.7180546875 -0.8547434363409689 -0.4967014081341226
12.719203125 -0.8546106230201294 -0.4982539512829187
12.7203515625 -0.8543831418517291 -0.5037521311518652
12.7215 -0.8551018549066871 -0.502225436152979
12.7226484375 -0.8559081252653609 -0.4990065712313055
12.723796875 -0.8561396516300506 -0.49940808216524335
12.7249453125 -0.8615346458437366 -0.5017622169610262
12.72609375 -0.8593468383985345 -0.4985938179063645
12.7272421875 -0.8567467965073015 -0.495463500552967
12.728390625 -0.8569994758047045 -0.4955903987489732
12.7295390625 -0.8561781604751625 -0.4941840487469947
12.7306875 -0.8566856534642051 -0.49785118748206014
12.7318359375 -0.857595799907659 -0.4993197776990606
12.732984375 -0.8570527326589895 -0.4996252016037307
12.7341328125 -0.8570917973130843 -0.501297468124156
12.73528125 -0.8582046873005957 -0.49883171299604245
12.7364296875 -0.8588155674146651 -0.5031110951541299
12.737578125 -0.8612817215161144 -0.4997247051104295
12.7387265625 -0.8608668871766265 -0.5015843439285447
12.739875 -0.8614085338271782 -0.5041642556656186
12.7410234375 -0.8648576127732548 -0.5057401678218947
12.742171875 -0.8660176322523149 -0.5023402253371118
12.7433203125 -0.8695674059577152 -0.4983930716633825
12.74446875 -0.8634809923408155 -0.5030692425562979
12.7456171875 -0.870593212996895 -0.504284913486714
12.746765625 -0.8626607370445347 -0.49992052174240964
12.7479140625 -0.8673871697369496 -0.49677212858179237
12.7490625 -0.8690104099415044 -0.49542018252504405
12.7502109375 -0.8704143643498878 -0.49778481129022334
12.751359375 -0.8721198642903458 -0.49850461647947325
12.7525078125 -0.8695332404434407 -0.5003434015019177
12.75365625 -0.8697943688482109 -0.4958376901920695
12.7548046875 -0.8735289078033349 -0.49384185198067476
12.755953125 -0.8723158748082538 -0.5008943882497512
12.7571015625 -0.8744448132423381 -0.4923660314774596
12.75825 -0.8755476308012354 -0.4951523467919519
12.7593984375 -0.8731939849907949 -0.4955108402984692
12.760546875 -0.8735857790340371 -0.4956533115612163
12.7616953125 -0.8697783807058957 -0.49588035153972493
12.76284375 -0.8697792787086474 -0.49486023096628573
12.7639921875 -0.8745759807610819 -0.4919188655868723
12.765140625 -0.8765379873287494 -0.49253273658279306
12.7662890625 -0.8728592519388539 -0.4968183497581446
12.7674375 -0.8734019977166032 -0.49803003303208215
12.7685859375 -0.8746104207334482 -0.4963509746009702
12.769734375 -0.8749119952460058 -0.4939929170944607
12.7708828125 -0.87969315027596 -0.4951181903869333
12.77203125 -0.8850831307610485 -0.4974721503150456
12.7731796875 -0.8833757081119671 -0.495726348232272
12.774328125 -0.885118200782052 -0.4980552580736117
12.7754765625 -0.8852481382729903 -0.4946979155423947
12.776625 -0.8881257714409043 -0.4912107352878794
12.7777734375 -0.8909529598568771 -0.4942130525181038
12.778921875 -0.8941547553596568 -0.49553726306203205
12.7800703125 -0.8934438997042682 -0.4890844235540131
12.78121875 -0.8954790291156646 -0.4905613335657924
12.7823671875 -0.8953928188503373 -0.48576865099294514
12.783515625 -0.892308822186971 -0.484711130287201
12.7846640625 -0.8925847178116797 -0.48354492695259604
12.7858125 -0.889497166811182 -0.4836872416736207
12.7869609375 -0.8914801174129519 -0.4815412972145063
12.788109375 -0.8915616689315279 -0.47966706058167574
12.7892578125 -0.8910355290061062 -0.48585190558229235
12.79040625 -0.8910017499548504 -0.4865866026306471
12.7915546875 -0.8913319130496274 -0.4868334406503769
12.792703125 -0.893728960939015 -0.4857670120636339
12.7938515625 -0.892995657019164 -0.48457484309674204
12.795 -0.8976853518831873 -0.47742687104641085
12.7961484375 -0.9012134022051769 -0.4781150953348217
12.797296875 -0.9030240849783873 -0.4786179964637355
12.7984453125 -0.8850578246867291 -0.48061808935928685
12.79959375 -0.8883901517050272 -0.4839634165767231
12.8007421875 -0.8873660710978037 -0.47990577626471853
12.801890625 -0.891596987484557 -0.48711053923177483
12.8030390625 -0.8931076629081692 -0.47470412362532066
12.8041875 -0.8886423962946921 -0.4899237863582382
12.8053359375 -0.893729866460604 -0.4830334035270014
12.806484375 -0.8887548559685432 -0.48237175393070186
12.8076328125 -0.8899575289815447 -0.47624435385911584
12.80878125 -0.9072903764950617 -0.477518417564349
12.8099296875 -0.913406979675268 -0.47776910642214404
12.811078125 -0.9094558399413115 -0.48096885238543197
12.8122265625 -0.9034437592431626 -0.48190506146761214
12.813375 -0.9041009622002149 -0.46160910159316615
12.8145234375 -0.9014168856933205 -0.463310469820419
12.815671875 -0.8973969533936463 -0.45589954967589097
12.8168203125 -0.896493942503117 -0.4623769225534775
12.81796875 -0.8964153718962861 -0.4642275929542718
12.8191171875 -0.8954565812898879 -0.46588819384536917
12.820265625 -0.8841513676063075 -0.4520439537100258
12.8214140625 -0.8977924776415863 -0.45801360773091626
12.8225625 -0.8939588190883665 -0.46625871248784523
12.8237109375 -0.9059602932921124 -0.46837037744866117
12.824859375 -0.8983381440036741 -0.4646993536316333
12.8260078125 -0.9024383716893464 -0.47217516892294986
12.82715625 -0.9065741707620272 -0.4621953547489309
12.8283046875 -0.9005280174757868 -0.4682614055275468
12.829453125 -0.9015494075624809 -0.46991912450696155
12.8306015625 -0.9072880940103952 -0.46241704481287427
12.83175 -0.9005783415138954 -0.45830378107083947
12.8328984375 -0.9090204671569735 -0.4765374412192157
12.834046875 -0.9145402973761552 -0.4793246551181465
12.8351953125 -0.8944170824918519 -0.4586334738286939
12.83634375 -0.9114322501681682 -0.4663506640777321
12.8374921875 -0.9208155686818654 -0.46123326878402743
12.838640625 -0.9158890797425365 -0.47019930393600395
12.8397890625 -0.9167648843261996 -0.46015826659510806
12.8409375 -0.9148611258143987 -0.4561847602303461
12.8420859375 -0.9187941333152516 -0.4595847222045021
12.843234375 -0.9104024328735992 -0.4531317840107152
12.8443828125 -0.916121979966625 -0.45271844308321973
12.84553125 -0.9237581344245226 -0.4567165583422935
12.8466796875 -0.909718374831113 -0.44964392574377676
12.847828125 -0.915984782458573 -0.44976444928076753
12.8489765625 -0.9107566739132469 -0.4471651065066997
12.850125 -0.9189027272583824 -0.44360114868378286
12.8512734375 -0.9204456403839245 -0.44264256108484007
12.852421875 -0.9122513520235844 -0.4473266204542723
12.8535703125 -0.9158188192976205 -0.4324426262280582
12.85471875 -0.9052238084160672 -0.4347078509827247
12.8558671875 -0.9146175011137735 -0.4411461646920256
12.857015625 -0.9191279771983507 -0.43714382137650887
12.8581640625 -0.91038130042001 -0.43921383854078433
12.8593125 -0.9114966879791983 -0.442328944352296
12.8604609375 -0.9076203464240826 -0.43496542403483734
12.861609375 -0.9052132833246678 -0.4322782852275084
12.8627578125 -0.9132318467795164 -0.44026546340721906
12.86390625 -0.9101185183910705 -0.4416031634323292
12.8650546875 -0.9157833856874708 -0.4340768237110484
12.866203125 -0.9073883547898731 -0.4384574238393053
12.8673515625 -0.903643612522526 -0.4323395398322397
12.8685 -0.8955653934856687 -0.4295975733143216
12.8696484375 -0.9036544906662367 -0.4386185992206718
12.870796875 -0.9009107665793968 -0.44538067003232157
12.8719453125 -0.900664020731778 -0.44498692244443017
12.87309375 -0.897976804770039 -0.44774086316095474
12.8742421875 -0.9006680655388968 -0.4496499853886582
12.875390625 -0.9066081989866063 -0.4478409087427343
12.8765390625 -0.9141152852605007 -0.45554534261665824
12.8776875 -0.908426089040641 -0.45812039833070994
12.8788359375 -0.9157988912064874 -0.45154265001575383
12.879984375 -0.9120374210861376 -0.4523787498680179
12.8811328125 -0.9184260223801795 -0.4555249972770121
12.88228125 -0.9202144394420987 -0.4549556076365856
12.8834296875 -0.9154127743442011 -0.43616225857053503
12.884578125 -0.9182049549828093 -0.4409876136463937
12.8857265625 -0.9176018400049881 -0.4404070224764961
12.886875 -0.9078114180575758 -0.43626236443057265
12.8880234375 -0.9142005189686784 -0.437009792507123
12.889171875 -0.9142925051162409 -0.44154952518669294
12.8903203125 -0.9085822392094617 -0.4406879276527924
12.89146875 -0.9154169836804231 -0.4415102909548348
12.8926171875 -0.9136165520741217 -0.44108782388946227
12.893765625 -0.9144561998029193 -0.4458896278109411
12.8949140625 -0.9096667902646708 -0.43587933695312986
12.8960625 -0.9133276867456871 -0.4457287767727097
12.8972109375 -0.9143731977463421 -0.4425120396315612
12.898359375 -0.9102321716675397 -0.4435827794700289
12.8995078125 -0.9199883690357514 -0.43838789312820114
12.90065625 -0.9189729950531502 -0.4400276378872904
12.9018046875 -0.917505882275399 -0.43794650435116456
12.902953125 -0.9141533848253707 -0.4397157295652788
12.9041015625 -0.9181295712376347 -0.44615144010230123
12.90525 -0.9186214159185303 -0.44289267911530406
12.9063984375 -0.9233035780761467 -0.43937094304930646
12.907546875 -0.9198595557596146 -0.44037366077934215
12.9086953125 -0.923556198449663 -0.4443219643058435
12.90984375 -0.9250594564535091 -0.4426910169977132
12.9109921875 -0.9309760279996799 -0.44311261383192885
12.912140625 -0.9389700664959005 -0.44234144205825426
12.9132890625 -0.9353381044986122 -0.4365585437338067
12.9144375 -0.9331286674484914 -0.4357957125705646
12.9155859375 -0.9374439216955588 -0.4363286163662896
12.916734375 -0.9416462516546407 -0.4345972109884657
12.9178828125 -0.9472845590143613 -0.43159107613346187
12.91903125 -0.9459469524773328 -0.4293113300586857
12.9201796875 -0.9476587834309653 -0.41925505215434056
12.921328125 -0.9481513288935743 -0.41820573750334344
12.9224765625 -0.9486752447301545 -0.4164732371838017
12.923625 -0.9470409323191468 -0.4117675477234616
12.9247734375 -0.9448236133127955 -0.4053428139761611
12.925921875 -0.9466884960019235 -0.40379966237097836
12.9270703125 -0.9478642912032559 -0.4044814415164599
12.92821875 -0.9433760312019819 -0.4020422190626319
12.9293671875 -0.9430235829508311 -0.39863547285388184
12.930515625 -0.93872388561447 -0.4027571870209962
12.9316640625 -0.9429682471489368 -0.39674533987405275
12.9328125 -0.942115279935086 -0.394481279021729
12.9339609375 -0.9429761062838828 -0.3972013874316537
12.935109375 -0.9399666958830548 -0.39319250801149197
12.9362578125 -0.9407320504190392 -0.3940953375352355
12.93740625 -0.9341919337244275 -0.39745047803040834
12.9385546875 -0.9303634806011793 -0.3982401528738605
12.939703125 -0.9347613297023377 -0.40264610801446105
12.9408515625 -0.9320279170071774 -0.40513886952161376
12.942 -0.9397343415028758 -0.4074235045780165
12.9431484375 -0.9366039485662694 -0.39941574958251425
12.944296875 -0.9365613150430787 -0.39901079495835756
12.9454453125 -0.9345217794096145 -0.3958009644382561
12.94659375 -0.9385811945113861 -0.3993163148875391
12.9477421875 -0.9350336108952437 -0.39665921648411057
12.948890625 -0.9358313962380455 -0.3939941369171102
12.9500390625 -0.932912760615673 -0.392226681238659
12.9511875 -0.9343415938837303 -0.3855450913695645
12.9523359375 -0.934227862908001 -0.3902832154631813
12.953484375 -0.93139696640152 -0.3925349404801539
12.9546328125 -0.9336835308411047 -0.3882494462515716
12.95578125 -0.9366537534063104 -0.39060761006977307
12.9569296875 -0.9357123398268103 -0.3960035991223791
12.958078125 -0.9395423091015729 -0.3914974272333643
12.9592265625 -0.9341911581271243 -0.38860478161369916
12.960375 -0.9345945595322728 -0.3953278148743905
12.9615234375 -0.9343116102368358 -0.39030683357202867
12.962671875 -0.9337869567085127 -0.39722240223856686
12.9638203125 -0.9335253769041811 -0.3976959405303586
12.96496875 -0.9400635602485096 -0.3934210192335261
12.9661171875 -0.9390288325689955 -0.38351345026828926
12.967265625 -0.9373852172982206 -0.3945727352183257
12.9684140625 -0.9377074363860455 -0.3912432389462972
12.9695625 -0.9409728151856811 -0.3915862764734733
12.9707109375 -0.9400493057711543 -0.3851194834821731
12.971859375 -0.9433838559780622 -0.38904845710052455
12.9730078125 -0.9339716664350288 -0.38345039275702353
12.97415625 -0.9386970926877739 -0.39185350999866086
12.9753046875 -0.9375280686500451 -0.3799153732161493
12.976453125 -0.9496854069557796 -0.3774600067571235
12.9776015625 -0.9394011109764152 -0.38398884789107274
12.97875 -0.9299412898293409 -0.3761075419518431
12.9798984375 -0.9374771531952406 -0.3763368547515425
12.981046875 -0.928112847694941 -0.37851119186298243
12.9821953125 -0.9351178543938038 -0.37983432627171576
12.98334375 -0.9406562227289499 -0.3843813323908651
12.9844921875 -0.9423790195315084 -0.37249771471072124
12.985640625 -0.9531489041237314 -0.3747976906668667
12.9867890625 -0.9485240371933297 -0.3701368018681388
12.9879375 -0.9520010205277921 -0.35773699969262074
12.9890859375 -0.938079272882723 -0.36190746582142763
12.990234375 -0.929573781460509 -0.3569909810802069
12.9913828125 -0.9329458902905222 -0.3637616108941194
12.99253125 -0.9351060213595849 -0.37346264213336045
12.9936796875 -0.9411041006919185 -0.36309980372916106
12.994828125 -0.9376708471022592 -0.36303904595195635
12.9959765625 -0.9417432202445316 -0.35375827018371026
12.997125 -0.9354466485049037 -0.3495354625458113
12.9982734375 -0.9327443186702133 -0.34716895971246087
12.999421875 -0.9382355555366066 -0.34558372359742895
13.0005703125 -0.9350269010837122 -0.3380398230197205
13.00171875 -0.9251606115149031 -0.33054557106342447
13.0028671875 -0.9317493232809319 -0.34042981189307175
13.004015625 -0.9336839068287353 -0.3368427962465992
13.0051640625 -0.9288677988544767 -0.3274055857448418
13.0063125 -0.9134358962229039 -0.34233306661755225
13.0074609375 -0.9287529754451425 -0.33728773362065134
13.008609375 -0.91723900457534 -0.34628223901613364
13.0097578125 -0.9145666690609081 -0.34119084529831745
13.01090625 -0.8973805905161648 -0.3438433275091305
13.0120546875 -0.9135626665390025 -0.34259395872312803
13.013203125 -0.9059910184856843 -0.3456446693296929
13.0143515625 -0.9319139136588442 -0.3570234007179336
13.0155 -0.9296379947281053 -0.34794027781244047
13.0166484375 -0.9143417717621432 -0.3378790299576667
13.017796875 -0.9260972430244031 -0.328718651023596
13.0189453125 -0.9253590284904123 -0.3326011033693586
13.02009375 -0.9186361925563123 -0.33803179269431344
13.0212421875 -0.9111824353303642 -0.34098782663670485
13.022390625 -0.9046982488473405 -0.3411977849390242
13.0235390625 -0.8966908727743349 -0.3553249331866728
13.0246875 -0.899249512133439 -0.3401683228574785
13.0258359375 -0.9136284476474837 -0.34830159480110806
13.026984375 -0.8966647237961434 -0.3557381322310835
13.0281328125 -0.9041447137921799 -0.36767587766948406
13.02928125 -0.8918571649903785 -0.37686020653554514
13.0304296875 -0.8945300411981417 -0.37166811784012815
13.031578125 -0.9021194061950658 -0.37541354072612176
13.0327265625 -0.90739417894255 -0.3774130876130377
13.033875 -0.9191830882814915 -0.3949518569746448
13.0350234375 -0.9181238118765342 -0.3857702976375187
13.036171875 -0.9186363907009234 -0.3865869253497956
13.0373203125 -0.9315988273783558 -0.3701014234987859
13.03846875 -0.9249824791678968 -0.36790104043127364
13.0396171875 -0.9184652516569154 -0.3772997380253036
13.040765625 -0.9238925558230924 -0.37597699763884174
13.0419140625 -0.9216349143557125 -0.37845354547553955
13.0430625 -0.9140937021999098 -0.3711188278141527
13.0442109375 -0.9123444324325731 -0.3646972630921823
13.045359375 -0.9201576051943844 -0.3688130867828993
13.0465078125 -0.9222126751621609 -0.3817529717964097
13.04765625 -0.9151761888511349 -0.38038651956233904
13.0488046875 -0.9199425508431563 -0.38479256927968947
13.049953125 -0.9218947829625255 -0.37915256167749173
13.0511015625 -0.9120792391805538 -0.38702263630617734
13.05225 -0.9201829306503481 -0.37553076102542987
13.0533984375 -0.9295213479621572 -0.3959125418953686
13.054546875 -0.9382803972552707 -0.4023664778444834
13.0556953125 -0.9437019773941362 -0.38374795375221266
13.05684375 -0.9215946839192433 -0.3761264992967035
13.0579921875 -0.9193712447806455 -0.37655536946869
13.059140625 -0.9281419844657646 -0.38050799223579657
13.0602890625 -0.9466459673830974 -0.38565361862144754
13.0614375 -0.9397310757711692 -0.3830379019210423
13.0625859375 -0.9409422274490102 -0.3795182547815812
13.063734375 -0.9358192798648788 -0.3720042783971094
13.0648828125 -0.9304215345481224 -0.3702899254708552
13.06603125 -0.9518310117803432 -0.3709671185773989
13.0671796875 -0.9467293061868511 -0.38227804054315173
13.068328125 -0.9511876566156094 -0.3652579192047303
13.0694765625 -0.938759765557359 -0.3766177233619825
13.070625 -0.9386819378118547 -0.37092278649493016
13.0717734375 -0.940045596093568 -0.3742420818165995
13.072921875 -0.9460748522241819 -0.3854840484685329
13.0740703125 -0.9394661339601847 -0.3727192752848377
13.07521875 -0.9664994346909673 -0.3486066769318137
13.0763671875 -0.9476908454251017 -0.3661690323168768
13.077515625 -0.9547664267343443 -0.37058579973192196
13.0786640625 -0.9445289560907992 -0.3853410886857821
13.0798125 -0.9492829633448543 -0.3609998821246185
13.0809609375 -0.9723840042828513 -0.34627756529008913
13.082109375 -0.97091879937059 -0.36815494490186745
13.0832578125 -0.9557034292174205 -0.368319638449392
13.08440625 -0.9770313622551835 -0.35782364160544033
13.0855546875 -0.9493253215284397 -0.3502031123871157
13.086703125 -0.983022257530649 -0.35113689416855204
13.0878515625 -0.9689793810017899 -0.3663443722234793
13.089 -0.9563120067730165 -0.3537699441630596
13.0901484375 -0.9606224655437923 -0.34506460591800747
13.091296875 -0.9499703611078228 -0.34013387315785704
13.0924453125 -0.948739159916312 -0.3403704955272561
13.09359375 -0.9743537853014899 -0.3263565928273171
13.0947421875 -0.9640565855412946 -0.35082279181312076
13.095890625 -0.9558017421713989 -0.3330257814903261
13.0970390625 -0.9653063371503412 -0.3252758802267661
13.0981875 -0.9571579260530197 -0.3282515734563378
13.0993359375 -0.97261531006378 -0.3287543724495447
13.100484375 -0.9553087942575647 -0.3157966741032214
13.1016328125 -0.9550293517633284 -0.311179061122537
13.10278125 -0.962580525259388 -0.3136420364876638
13.1039296875 -0.943234717288938 -0.3210503891072851
13.105078125 -0.9450372314375688 -0.3294437687019068
13.1062265625 -0.9485329260373164 -0.32810240631316073
13.107375 -0.9507653049549712 -0.3291516105026894
13.1085234375 -0.9587948179131607 -0.31497537317066293
13.109671875 -0.9515403309198296 -0.3103468381980237
13.1108203125 -0.9539291692693004 -0.31236700142678064
13.11196875 -0.9451575044751638 -0.31609816231204513
13.1131171875 -0.9538889762910416 -0.3250358259671604
13.114265625 -0.9459514478071126 -0.32028573648237163
13.1154140625 -0.9441125699614724 -0.3182034519198525
13.1165625 -0.946342241277587 -0.32324742112125265
13.1177109375 -0.9479537689387996 -0.32198558725070525
13.118859375 -0.945195606833518 -0.32946270677667244
13.1200078125 -0.9410122486128442 -0.324830331941363
13.12115625 -0.941851783928341 -0.3172260848532132
13.1223046875 -0.9527086513230655 -0.32294769593395756
13.123453125 -0.9432894466883703 -0.3221040156937635
13.1246015625 -0.9442471040673632 -0.3181828935336665
13.12575 -0.9436383514417694 -0.31534401601430107
13.1268984375 -0.9432033908698987 -0.3144687243991453
13.128046875 -0.9423268811523843 -0.3188775494680218
13.1291953125 -0.9349672475599664 -0.32417977360585426
13.13034375 -0.9321437958923631 -0.31842263211319066
13.1314921875 -0.9440097113210619 -0.3218685844400083
13.132640625 -0.9379301894748046 -0.3264268763315014
13.1337890625 -0.9364795079367928 -0.32984434708093746
13.1349375 -0.9329898756793726 -0.31718498492257424
13.1360859375 -0.9298718825193204 -0.3184887518523487
13.137234375 -0.9316275427288172 -0.3257383421212363
13.1383828125 -0.9221796639042812 -0.32947963911713296
13.13953125 -0.9311800024629123 -0.3251865570486364
13.1406796875 -0.9331667769232499 -0.3380196054047469
13.141828125 -0.9278188131041809 -0.33757182302001976
13.1429765625 -0.9231229109542083 -0.33317172672962375
13.144125 -0.9312947283177961 -0.3421469708995394
13.1452734375 -0.9358711285929681 -0.3417713916805171
13.146421875 -0.9321926052937619 -0.3358762684472601
13.1475703125 -0.9351181719962929 -0.3390664024788922
13.14871875 -0.9456758483378349 -0.3538121450784238
13.1498671875 -0.9404384446734275 -0.3400812666452958
13.151015625 -0.943661120620549 -0.3307405501545826
13.1521640625 -0.9454067951570282 -0.32893873174311905
13.1533125 -0.9455821638017423 -0.32467999323477936
13.1544609375 -0.9531919498207599 -0.3335205641888349
13.155609375 -0.9524328908216724 -0.33329962033867155
13.1567578125 -0.9524447917431891 -0.3299148069273269
13.15790625 -0.960540645981364 -0.3363630176636844
13.1590546875 -0.9684995362016344 -0.3250034149725106
13.160203125 -0.9573489639826172 -0.322922242672604
13.1613515625 -0.9503414657419814 -0.3205511649429828
13.1625 -0.9534805861968555 -0.32293484895495794
13.1636484375 -0.9585540328335106 -0.3259762189446353
13.164796875 -0.9649924495125258 -0.314597502167714
13.1659453125 -0.954633593958093 -0.32226141900619426
13.16709375 -0.9670381404632907 -0.31167865448311866
13.1682421875 -0.9661359013684212 -0.31778727006310475
13.169390625 -0.9489024839145368 -0.31317044907682573
13.1705390625 -0.9532935158067878 -0.3103089750025667
13.1716875 -0.9742701082771622 -0.2993624944173321
13.1728359375 -0.9656609690287496 -0.30262333165935495
13.173984375 -0.966627867771763 -0.30300762944173115
13.1751328125 -0.9622233324212652 -0.29787128227568566
13.17628125 -0.9533078940333489 -0.30256913803493046
13.1774296875 -0.9720365315878555 -0.3005611043003084
13.178578125 -0.9608792259674563 -0.29684525557446706
13.1797265625 -0.9595520537722027 -0.2974162899481283
13.180875 -0.9574273309260329 -0.2847341388716506
13.1820234375 -0.9652430456086407 -0.3006313257691869
13.183171875 -0.9634299979906202 -0.29765951200230367
13.1843203125 -0.9639003335436362 -0.2919733386223021
13.18546875 -0.9714299060089648 -0.2946508757046817
13.1866171875 -0.9677891568426493 -0.2944252381529248
13.187765625 -0.9678332692700561 -0.3005327850500265
13.1889140625 -0.9744404966823054 -0.29304126439689854
13.1900625 -0.9667308498395436 -0.298887017865447
13.1912109375 -0.9723190054337418 -0.29584156324918376
13.192359375 -0.9712891633574109 -0.2976913243322228
13.1935078125 -0.9676352839906488 -0.2866561024667646
13.19465625 -0.9757638686958797 -0.2935853088582182
13.1958046875 -0.9732371442161009 -0.2817863110646339
13.196953125 -0.982282297513675 -0.2846892656742821
13.1981015625 -0.9661934011338584 -0.2820337128398718
13.19925 -0.9676185706929006 -0.2880069929111267
13.2003984375 -0.9679673110003915 -0.2944343221299449
13.201546875 -0.9783705196006371 -0.28541703538279684
13.2026953125 -0.9739800571766657 -0.2824691846995372
13.20384375 -0.9799497207077259 -0.28226553805798416
13.2049921875 -0.9849924212141568 -0.29306199941536554
13.206140625 -0.9706859580505766 -0.2775045368130939
13.2072890625 -0.9685689324316584 -0.2844185618242382
13.2084375 -0.9682333338681992 -0.2983648760049457
13.2095859375 -0.9659606215791134 -0.2920071658818049
13.210734375 -0.9606421298990735 -0.27373502697099394
13.2118828125 -0.9689255354867159 -0.2941142448614295
13.21303125 -0.9753205169553361 -0.29234096677025845
13.2141796875 -0.959490676527466 -0.2772548203117939
13.215328125 -0.9676855120209766 -0.30560437998985335
13.2164765625 -0.9688396139778284 -0.28761628316817645
13.217625 -0.9759755319779866 -0.26884703190802833
13.2187734375 -0.9892685854843501 -0.2979356294456412
13.219921875 -0.9702568540251753 -0.27938264089947384
13.2210703125 -0.9555860049190873 -0.2779117181144184
13.22221875 -0.96528552411103 -0.27522178158900157
13.2233671875 -0.9562540155961312 -0.27738813903188697
13.224515625 -0.9727778301558657 -0.2706635136141884
13.2256640625 -0.9940666975277754 -0.280215252674238
13.2268125 -0.9666974494561371 -0.2576063776104274
13.2279609375 -0.9620359290538459 -0.2903597958271349
13.229109375 -0.9443122625337925 -0.27429731537157054
13.2302578125 -0.9582355330148496 -0.2838193288245029
13.23140625 -0.9666291405343864 -0.27976181636543185
13.2325546875 -0.9536112286858734 -0.2732055690599938
13.233703125 -0.9647581568066346 -0.3029579813471228
13.2348515625 -1.000909255911954 -0.2642963545228295
13.236 -0.9665880531225126 -0.2793403922825818
13.2371484375 -0.9607439283805207 -0.28190107944287834
13.238296875 -1.0013165655200171 -0.266636346779188
13.2394453125 -0.9522706825465077 -0.25075735783057185
13.24059375 -0.9569469888678156 -0.23377562286107068
13.2417421875 -0.9675226022455449 -0.26014850324256333
13.242890625 -0.9864480160129268 -0.2353608855197742
13.2440390625 -0.990444065839899 -0.24712175136309245
13.2451875 -1.0019635748100777 -0.23677118608655712
13.2463359375 -0.9747587480141918 -0.2227594120815306
13.247484375 -0.959203863685588 -0.27120437526095087
13.2486328125 -0.9650454898862015 -0.26852949099677625
13.24978125 -0.9615787136561982 -0.24619267459716476
13.2509296875 -0.9673250724027836 -0.27772402647342376
13.252078125 -0.9668634992480877 -0.24253402887276487
13.2532265625 -0.9778011864408406 -0.24030423913644328
13.254375 -0.9840231232902615 -0.22516398388974257
13.2555234375 -0.9714553385563616 -0.2462003769782205
13.256671875 -0.9605683823843941 -0.24993048067412182
13.2578203125 -0.9753816076309707 -0.24315777776291259
13.25896875 -0.9683284189588692 -0.23342748700127225
13.2601171875 -0.963181656384241 -0.2306669036778033
13.261265625 -0.9512554719700889 -0.24749754444800431
13.2624140625 -0.956926130936286 -0.23537511886138618
13.2635625 -0.9680035764754593 -0.24973247012370237
13.2647109375 -0.9625851607077887 -0.24406800025145348
13.265859375 -0.9579362862516365 -0.23767290331576596
13.2670078125 -0.969160232316013 -0.22566520158163095
13.26815625 -0.963517162856548 -0.2419125141683185
13.2693046875 -0.9679974572105818 -0.2411182734031867
13.270453125 -0.964399516901369 -0.23550462064512911
13.2716015625 -0.9626897771709354 -0.24390725351555376
13.27275 -0.958605844246391 -0.23341996822795452
13.2738984375 -0.9522934890994855 -0.23673116735389343
13.275046875 -0.9526312867853689 -0.24926134632854013
13.2761953125 -0.9611026808959734 -0.24508648712546643
13.27734375 -0.9686302309328803 -0.24597534702527846
13.2784921875 -0.9643361111096431 -0.24489951320261483
13.279640625 -0.9632507366055743 -0.2319524458082559
13.2807890625 -0.9585669655530433 -0.23626582629145298
13.2819375 -0.9512650251390363 -0.23275490533560106
13.2830859375 -0.954439281879365 -0.2458735759618258
13.284234375 -0.9626354958131386 -0.2515589605034346
13.2853828125 -0.9518150699936092 -0.25116923090148735
13.28653125 -0.9466722433182206 -0.2405381414803972
13.2876796875 -0.9554150674168587 -0.2468159435387881
13.288828125 -0.9547379337380226 -0.25398967373753134
13.2899765625 -0.9484830994682403 -0.2709998854866946
13.291125 -0.9600349727599713 -0.2676023577718968
13.2922734375 -0.9543173925233261 -0.25724838517453497
13.293421875 -0.9528015408887528 -0.2529391878576027
13.2945703125 -0.9556715464001072 -0.25028522829408406
13.29571875 -0.9544696022638527 -0.2560812813225031
13.2968671875 -0.9564771326507464 -0.25370025498786486
13.298015625 -0.9554871768293658 -0.26584158731389185
13.2991640625 -0.9544931585913967 -0.25607749370449145
13.3003125 -0.9571358662889036 -0.25881780470815224
13.3014609375 -0.9554915143422603 -0.2580776121821948
13.302609375 -0.9561230887462018 -0.2686434539223155
13.3037578125 -0.9533351335850464 -0.2784615414593701
13.30490625 -0.9534267088465974 -0.2651649603185698
13.3060546875 -0.9562123878125688 -0.2544536767638314
13.307203125 -0.962662530815838 -0.2561201049676112
13.3083515625 -0.9508082327742517 -0.26580271674579237
13.3095 -0.9607297131896032 -0.2646784220154614
13.3106484375 -0.9617257830047973 -0.26598536266001327
13.311796875 -0.9555797372797816 -0.252093132548202
13.3129453125 -0.9636147828757663 -0.2595798911037366
13.31409375 -0.9559999755839863 -0.2543699342141457
13.3152421875 -0.9544151684643056 -0.2504699884782654
13.316390625 -0.9550152911204006 -0.254836404606365
13.3175390625 -0.9612082165685025 -0.2543496754920695
13.3186875 -0.9573385237672984 -0.26278440665258196
13.3198359375 -0.9544569637181956 -0.2504875123556259
13.320984375 -0.9520929015332918 -0.25812291370577234
13.3221328125 -0.9521518609484811 -0.258437642185396
13.32328125 -0.9549992898204422 -0.2470806361660462
13.3244296875 -0.9553723850214061 -0.2516780386614587
13.325578125 -0.9570550521960419 -0.25557994478834645
13.3267265625 -0.9495798505517663 -0.24963555684997069
13.327875 -0.9500439187595153 -0.24927620928780864
13.3290234375 -0.9534486956411056 -0.24886254199778202
13.330171875 -0.9529960983877576 -0.251111788567272
13.3313203125 -0.9465486086675557 -0.24782411124308226
13.33246875 -0.9459995881975918 -0.25120128589399693
13.3336171875 -0.9509483450179823 -0.25005963897225403
13.334765625 -0.9525883596547899 -0.24889000500998865
13.3359140625 -0.9537767935766808 -0.24847833560223337
13.3370625 -0.9558200161974334 -0.25680741508959076
13.3382109375 -0.9564138699756507 -0.2522308786072539
13.339359375 -0.9562541028053113 -0.25482178938673955
13.3405078125 -0.959849734772942 -0.2529741374170822
13.34165625 -0.9534497714071212 -0.25137545446688636
13.3428046875 -0.9563070141380482 -0.24636072792371783
13.343953125 -0.9589158621158832 -0.24438682254377625
13.3451015625 -0.961819018695654 -0.24222706997405652
13.34625 -0.957858868339302 -0.23781614147096516
13.3473984375 -0.9567414939343086 -0.23489514112494378
13.348546875 -0.9519482037980701 -0.23984673508500615
13.3496953125 -0.9526664870186715 -0.23371661697373208
13.35084375 -0.9496380359641177 -0.24021542107507454
13.3519921875 -0.955788027110695 -0.23745257756870425
13.353140625 -0.9458758769897541 -0.23760054794365507
13.3542890625 -0.9456423757958404 -0.24085159246316012
13.3554375 -0.9579895321669843 -0.247668910139631
13.3565859375 -0.95302853007313 -0.2583685228676563
13.357734375 -0.9567955938273431 -0.2629207856616821
13.3588828125 -0.9569675900275151 -0.24750139865755544
13.36003125 -0.9517188147911753 -0.25284151963547086
13.3611796875 -0.9614428736596105 -0.2431598750785549
13.362328125 -0.9531242576128013 -0.24523273975507176
13.3634765625 -0.9631892728845833 -0.2483002911303086
13.364625 -0.9522678780545566 -0.23275713348514204
13.3657734375 -0.9530646586699383 -0.24977626994824653
13.366921875 -0.9668989387110009 -0.2400938528612766
13.3680703125 -0.9593059658347244 -0.24637884955893768
13.36921875 -0.9704886608528116 -0.24453584177637333
13.3703671875 -0.9652082615463088 -0.24278217338181923
13.371515625 -0.9614153146655013 -0.2461610776336145
13.3726640625 -0.9648153569758307 -0.24483313920552097
13.3738125 -0.9616125540917613 -0.24416947280206358
13.3749609375 -0.9635083341305652 -0.24941836358585012
13.376109375 -0.9658829112937587 -0.236673875827636
13.3772578125 -0.9580790142712555 -0.23536824774147902
13.37840625 -0.9636258575635969 -0.23043080735471155
13.3795546875 -0.9642675482649274 -0.2377507512922019
13.380703125 -0.9645709923672027 -0.23103820787815477
13.3818515625 -0.9602470082078713 -0.2349350868065584
13.383 -0.9522334378912949 -0.23160703568493013
13.3841484375 -0.9528018595427916 -0.23665122268032457
13.385296875 -0.9606309248256072 -0.22607199184473192
13.3864453125 -0.9482149388127488 -0.24243760586757468
13.38759375 -0.9447927159213034 -0.2334880388794084
13.3887421875 -0.9478656187969778 -0.22765910537223155
13.389890625 -0.9377663624225834 -0.23025773757958978
13.3910390625 -0.9267866130496644 -0.23856450074519475
13.3921875 -0.9364910989629548 -0.23957010967672887
13.3933359375 -0.9435972440305538 -0.2385695880228238
13.394484375 -0.9356044519450417 -0.24217173537024705
13.3956328125 -0.9364714110778969 -0.24519419734688053
13.39678125 -0.9342272370064759 -0.24560973097925376
13.3979296875 -0.935120833567172 -0.2522322321228154
13.399078125 -0.943476334157491 -0.2605184313314943
13.4002265625 -0.9429667158626571 -0.2693873286542324
13.401375 -0.9482894399074895 -0.2634589459756258
13.4025234375 -0.968433167307758 -0.2722164786730973
13.403671875 -0.9556172102268121 -0.2831308234663059
13.4048203125 -0.9678304928410666 -0.28161502275302386
13.40596875 -0.9709142574678784 -0.255149382151884
13.4071171875 -0.9729439659260177 -0.2543742018690409
13.408265625 -0.9797824697632616 -0.26283832165064025
13.4094140625 -0.9665487326758353 -0.2561030933336961
13.4105625 -0.9757595234530902 -0.2631041108433323
13.4117109375 -0.9774522685419085 -0.26106356269675945
13.412859375 -0.9718093586410493 -0.25237722972718657
13.4140078125 -0.9993160978960016 -0.2533434217656958
13.41515625 -0.9944840998866435 -0.259791368631324
13.4163046875 -0.997012138786358 -0.2519277233243906
13.417453125 -0.9823369851441885 -0.2536687653854657
13.4186015625 -0.9942833388275385 -0.24746593653505689
13.41975 -0.9873717873540209 -0.2394290439994402
13.4208984375 -0.9918113422111717 -0.24930384349705303
13.422046875 -1.0006417746899563 -0.24858939952917936
13.4231953125 -1.0011387510537388 -0.23893037769972447
13.42434375 -1.0103664639898187 -0.23651369155822055
13.4254921875 -1.004117560833933 -0.22498613132130962
13.426640625 -1.0062959892289887 -0.2245707306892194
13.4277890625 -1.021571890037964 -0.23047300860993591
13.4289375 -1.0241489673411164 -0.22472605858328198
13.4300859375 -1.0188818059969922 -0.2101837548962029
13.431234375 -1.0148167200726996 -0.20565221983855864
13.4323828125 -1.0092815613683581 -0.21712297127387592
13.43353125 -1.0168957937181422 -0.2083508604871409
13.4346796875 -1.0310442341333839 -0.21414800430598124
13.435828125 -1.0113781090771388 -0.20035888218524667
13.4369765625 -1.008759604677229 -0.1977705945768239
13.438125 -1.0216325689318357 -0.1959116533249221
13.4392734375 -1.0169899299373548 -0.20081406219000786
13.440421875 -1.0232306109117237 -0.1919174335157242
13.4415703125 -1.018131225118939 -0.18634208800578
13.44271875 -1.0201755381956372 -0.1893062496461677
13.4438671875 -1.0053883990612746 -0.18248077412050878
13.445015625 -1.0096283924084175 -0.1760476136431649
13.4461640625 -1.0139599691748353 -0.18001470847569923
13.4473125 -1.0029726815377753 -0.1768604558395782
13.4484609375 -1.0017038019174422 -0.1767027680911809
13.449609375 -1.0041702136467041 -0.18118821831276521
13.4507578125 -0.9994378210430985 -0.18186696282176806
13.45190625 -1.0162368139443978 -0.1762196503807708
13.4530546875 -1.0023360628006117 -0.1637325537497405
13.454203125 -0.9999056790866194 -0.169516618519161
13.4553515625 -0.9910362099674548 -0.16492803583105065
13.4565 -0.9883191511778711 -0.1626275634564902
13.4576484375 -0.9896258889517893 -0.17017798086068142
13.458796875 -0.9895020552251347 -0.16602170169741792
13.4599453125 -0.9897900426515321 -0.16685780356801655
13.46109375 -0.9940358412581094 -0.17647092072883686
13.4622421875 -0.9836497935540673 -0.17221338496422917
13.463390625 -0.9770940624517868 -0.17208624574915005
13.4645390625 -0.9930953798948402 -0.17324599069520624
13.4656875 -0.9934851084358536 -0.16960301248041298
13.4668359375 -0.9887064805227292 -0.1676061996737453
13.467984375 -0.9866614804423097 -0.1672015440510911
13.4691328125 -0.9823238501094915 -0.16483776882772988
13.47028125 -0.97471439640058 -0.174299266080643
13.4714296875 -0.979446812499523 -0.16881734719711938
13.472578125 -0.9770999279622511 -0.16188493749211058
13.4737265625 -0.9799528143943306 -0.16836966659104102
13.474875 -0.9832859927066756 -0.17451500532388836
13.4760234375 -0.9761596968312333 -0.17029776029816732
13.477171875 -0.9711764545873075 -0.16615762835253833
13.4783203125 -0.970512710037051 -0.1569281317404323
13.47946875 -0.9761954214713029 -0.15982578004517728
13.4806171875 -0.9750368548311149 -0.16413453637086928
13.481765625 -0.9697937113011637 -0.16622765595202613
13.4829140625 -0.9683753183217441 -0.15944358805790013
13.4840625 -0.9642894503965189 -0.157919237302606
13.4852109375 -0.9662868751042488 -0.16264934118249538
13.486359375 -0.9657744634808447 -0.16524625583329988
13.4875078125 -0.9682773510126533 -0.1642799994669462
13.48865625 -0.9598676141118954 -0.16469617818691398
13.4898046875 -0.9634899829385298 -0.15890511704756344
13.490953125 -0.9707150286340336 -0.15166976149890274
13.4921015625 -0.9603278296723348 -0.16288108710483015
13.49325 -0.9629075461155162 -0.15938428819596978
13.4943984375 -0.957850154588013 -0.15989493292388574
13.495546875 -0.9618273629771117 -0.15804411497104637
13.4966953125 -0.9625114643172664 -0.15948041209745406
13.49784375 -0.9638196194223398 -0.16385295719555049
13.4989921875 -0.9659457358557315 -0.169888483352123
13.500140625 -0.9605848481731939 -0.16642929720582178
13.5012890625 -0.9566193272575944 -0.1715046752213161
13.5024375 -0.9652632545212452 -0.17227455561213054
13.5035859375 -0.9613050803678475 -0.16200106735326122
13.504734375 -0.9622322775608821 -0.1600669792458348
13.5058828125 -0.9573175980726362 -0.15976543789557507
13.50703125 -0.9573138171588998 -0.16521415525377603
13.5081796875 -0.9605883411681551 -0.16933174946289187
13.509328125 -0.9576335713240525 -0.16215012896928285
13.5104765625 -0.9599211247292572 -0.15753272054772802
13.511625 -0.9596029710476592 -0.16500524735081512
13.5127734375 -0.9679917899642203 -0.16023668718403886
13.513921875 -0.9693819872408899 -0.16502055273850502
13.5150703125 -0.965905394608406 -0.16424052776194806
13.51621875 -0.9666935991242483 -0.16614753645638275
13.5173671875 -0.9706665836683296 -0.16971671475912675
13.518515625 -0.9693906737290848 -0.15661093047635277
13.5196640625 -0.9642469921526231 -0.15883538738130742
13.5208125 -0.9679818698056563 -0.1637851055753003
13.5219609375 -0.9707825428733644 -0.16254635816854124
13.523109375 -0.9643376096303209 -0.1612572711531986
13.5242578125 -0.9695768622206694 -0.16543394456615806
13.52540625 -0.9716777125791283 -0.16134454357340522
13.5265546875 -0.9706815360028377 -0.16122524535169902
13.527703125 -0.9689880733980344 -0.16504412032817622
13.5288515625 -0.9678491772468722 -0.16239475245165563
13.53 -0.9710344273068949 -0.15741160290161083
13.5311484375 -0.9706379917019322 -0.16260430860558345
13.532296875 -0.9674410022555344 -0.15359155482685283
13.5334453125 -0.9665666891007814 -0.16163102248159988
13.53459375 -0.9674500365422196 -0.15426402983666004
13.5357421875 -0.9680490132257871 -0.1625266613892229
13.536890625 -0.9686565917222831 -0.1590731174626978
13.5380390625 -0.9627008313184955 -0.15338094862041718
13.5391875 -0.9697540055278864 -0.1549288783944719
13.5403359375 -0.9756469511250809 -0.16347293404763258
13.541484375 -0.9667220611515605 -0.15978710573350852
13.5426328125 -0.9685801815246503 -0.15380804123982372
13.54378125 -0.9767877333765272 -0.1591146503078964
13.5449296875 -0.9651982499173394 -0.15315413654098375
13.546078125 -0.971292451887688 -0.16748141050795973
13.5472265625 -0.9691202582436655 -0.15910334007687665
13.548375 -0.9670492461775277 -0.15433189130094793
13.5495234375 -0.9690108134740825 -0.15543968268931996
13.550671875 -0.9713302143287676 -0.15724276985498253
13.5518203125 -0.9711161834787733 -0.16255480391747773
13.55296875 -0.970012345049673 -0.15229052442343338
13.5541171875 -0.9713047591965671 -0.16307505058100835
13.555265625 -0.9681798979161738 -0.15410835231617515
13.5564140625 -0.9669369283061493 -0.15125468231222106
13.5575625 -0.9720953621775066 -0.14866411099855548
13.5587109375 -0.9703978526867725 -0.15822854098702555
13.559859375 -0.9724293470538871 -0.16364393724676424
13.5610078125 -0.9551061856278579 -0.15044085983671973
13.56215625 -0.960768368800906 -0.1547636425823068
13.5633046875 -0.9701589921602028 -0.15126623282904694
13.564453125 -0.9612985275497397 -0.15547781335728467
13.5656015625 -0.9712322080696323 -0.164516898673141
13.56675 -0.9651562676262888 -0.15319558597238092
13.5678984375 -0.9635147471732857 -0.15676485492923586
13.569046875 -0.9636494247358329 -0.14986304662851424
13.5701953125 -0.9657910060700439 -0.15404848192378723
13.57134375 -0.9679119908126009 -0.14447713947304053
13.5724921875 -0.9698070346780354 -0.15562128404940995
13.573640625 -0.9681324095116035 -0.1544481775981263
13.5747890625 -0.9694241093187427 -0.15040170418611937
13.5759375 -0.9630471886316452 -0.1551651947500095
13.5770859375 -0.9731489652118804 -0.15816039833744566
13.578234375 -0.9708467349358119 -0.14917758628608113
13.5793828125 -0.9674860509155383 -0.14795443381511908
13.58053125 -0.9710779061660011 -0.15410105445683087
13.5816796875 -0.970103755660961 -0.14951868503507426
13.582828125 -0.9680193826450846 -0.15130243318838404
13.5839765625 -0.9673400366875612 -0.15187523283416338
13.585125 -0.9688883813702582 -0.14269479059015983
13.5862734375 -0.976081367025025 -0.13974344043527354
13.587421875 -0.9783940396980084 -0.1424119202052342
13.5885703125 -0.978635194655419 -0.15128556280347183
13.58971875 -0.976515768914932 -0.14402732541921803
13.5908671875 -0.9711536063608476 -0.14002716706770135
13.592015625 -0.9697338158095481 -0.14167165307362428
13.5931640625 -0.9723293841757201 -0.14192691694532655
13.5943125 -0.9745061807351092 -0.14724063330576448
13.5954609375 -0.9742108763936594 -0.1417903212067529
13.596609375 -0.9763557628733404 -0.1419823632395132
13.5977578125 -0.9779947921509102 -0.13907050864923565
13.59890625 -0.9777655005932552 -0.14269809974848185
13.6000546875 -0.9786045544067237 -0.14413993113420526
13.601203125 -0.9812185785697516 -0.14110815495532558
13.6023515625 -0.9809009649538154 -0.13652795907448867
13.6035 -0.977263812573977 -0.13594202800004368
13.6046484375 -0.9830625808630564 -0.13775656877886255
13.605796875 -0.9822652251294381 -0.1376915128150984
13.6069453125 -0.9884141655129386 -0.13934660074679156
13.60809375 -0.9843316521655581 -0.14058580987482955
13.6092421875 -0.9820806326141398 -0.12720904871198324
13.610390625 -0.986236714921912 -0.13343149175985702
13.6115390625 -0.9849072586323546 -0.13147993770831612
13.6126875 -0.9792654562990286 -0.13183329836632518
13.6138359375 -0.9824597779950666 -0.13474690052545285
13.614984375 -0.9769196252208849 -0.12764579233098838
13.6161328125 -0.97977731555791 -0.13616430238782606
13.61728125 -0.9860790715693165 -0.1347413051764772
13.6184296875 -0.9836567433321104 -0.13073445821070484
13.619578125 -0.9824304460099307 -0.13393884517203702
13.6207265625 -0.9690574101093108 -0.1262887677453961
13.621875 -0.9686423909713212 -0.12527370369606539
13.6230234375 -0.9723219923131409 -0.1338049138217845
13.624171875 -0.9755269704731376 -0.1346655227053587
13.6253203125 -0.9861344569525865 -0.13165036453814927
13.62646875 -0.9755552510278801 -0.1338316653605104
13.6276171875 -0.9654200936596937 -0.13497554337698797
13.628765625 -0.9707584522223651 -0.13774534329364474
13.6299140625 -0.9939584195447937 -0.14259593401567722
13.6310625 -0.9833453202279506 -0.1423677613565743
13.6322109375 -0.9808669838483338 -0.13907418366389201
13.633359375 -0.9887345348659169 -0.14727461265476582
13.6345078125 -0.9930149804754457 -0.126847808924761
13.63565625 -0.9890788053326921 -0.13144063195967826
13.6368046875 -0.9781200171135112 -0.13023766045971497
13.637953125 -0.9923409167969195 -0.12800027514936085
13.6391015625 -0.992574445757415 -0.12155258888645065
13.64025 -0.9894428893270355 -0.1275981792929911
13.6413984375 -0.9819064124116255 -0.12500411245361154
13.642546875 -0.9747610106516595 -0.12887850394053213
13.6436953125 -0.9882035660304085 -0.11050697400081544
13.64484375 -0.9830148142757472 -0.12130037620849987
13.6459921875 -0.9826978548921745 -0.12253977382258074
13.647140625 -0.982604708626007 -0.1252333668942982
13.6482890625 -0.9786120304505714 -0.12274144780916485
13.6494375 -0.9818013458727017 -0.12268092471915482
13.6505859375 -0.985261532139879 -0.11165707179757267
13.651734375 -0.9746205588809943 -0.1274239264114962
13.6528828125 -0.9824046802334586 -0.11786907434812535
13.65403125 -0.9857654712118706 -0.11549632505952681
13.6551796875 -0.9774255224044843 -0.11358986969159368
13.656328125 -0.9869145304679237 -0.1080783471219589
13.6574765625 -0.9866530227753498 -0.11389697859204528
13.658625 -0.9919673801418181 -0.1155156550218821
13.6597734375 -0.9841457315315323 -0.12506536645278604
13.660921875 -0.9912963667922234 -0.11363547481725955
13.6620703125 -0.9930774035005073 -0.09969256646182435
13.66321875 -0.9878061918574854 -0.1079715705966511
13.6643671875 -0.9813377965268331 -0.10414672547924972
13.665515625 -0.97821297057225 -0.10009024852794543
13.6666640625 -0.9944997188007509 -0.10116501292711755
13.6678125 -0.9883774365189923 -0.10339621168406507
13.6689609375 -0.9725284651134699 -0.10205705129873978
13.670109375 -0.9738247394983401 -0.0993290587125736
13.6712578125 -0.9731765478059606 -0.09564106144096511
13.67240625 -0.981402757332448 -0.09309505523017132
13.6735546875 -0.988772166481165 -0.10268727414603765
13.674703125 -0.9716278535082019 -0.09291798611648158
13.6758515625 -0.9842533386542105 -0.09827653588606375
13.677 -0.9889477732147205 -0.10132508707890098
13.6781484375 -0.9830133867463686 -0.09583268272319947
13.679296875 -0.9787891811532136 -0.09349132111948194
13.6804453125 -0.9668168678952767 -0.09186036893059629
13.68159375 -0.9737760269085882 -0.09449898343469808
13.6827421875 -0.9777827618559123 -0.0955474020811222
13.683890625 -0.9775954449163166 -0.09121226271511501
13.6850390625 -0.9759708430149059 -0.09898707318310154
13.6861875 -0.9859266538616416 -0.09712869397589532
13.6873359375 -0.9829493161516472 -0.09148918458284658
13.688484375 -0.978324661437391 -0.09063823161789863
13.6896328125 -0.9825666575084346 -0.09568714823047314
13.69078125 -0.9816295084912767 -0.09744854590158644
13.6919296875 -0.9816219347502916 -0.09192122400716085
13.693078125 -0.9878098498627207 -0.09492222670652026
13.6942265625 -0.9869421051381874 -0.0969872792066814
13.695375 -0.9809719549099993 -0.09909334731654895
13.6965234375 -0.9853850961188695 -0.09461048295730107
13.697671875 -0.9829335286707794 -0.09132939219584091
13.6988203125 -0.9818773851361635 -0.09154224504127845
13.69996875 -0.9926049630975411 -0.0949582031480064
13.7011171875 -0.9881295119333847 -0.09556836531279128
13.702265625 -0.9897344946925053 -0.09654647833548952
13.7034140625 -0.9888392327180986 -0.09572719980028549
13.7045625 -0.991285415591576 -0.09300523153553403
13.7057109375 -0.9927123985198556 -0.0973835451202899
13.706859375 -0.993164361221608 -0.09385969194227148
13.7080078125 -0.9997862378322182 -0.09658191777572722
13.70915625 -0.9999825678482225 -0.09637111832901984
13.7103046875 -0.9951118793217584 -0.09373296180337365
13.711453125 -1.0012229568798183 -0.09569197068116342
13.7126015625 -1.0053932293044356 -0.09215896048509775
13.71375 -1.0036380055666863 -0.08573482335855265
13.7148984375 -1.0008255048002213 -0.08826962146660913
13.716046875 -1.0011608203964726 -0.08259285582962994
13.7171953125 -1.002910075855423 -0.0810280984715428
13.71834375 -1.0064561911753676 -0.07900212871934814
13.7194921875 -1.005254720507946 -0.08108224270774794
13.720640625 -1.0019151709100724 -0.07748726951281854
13.7217890625 -1.0068005159972604 -0.07945541161042621
13.7229375 -1.0035161135499502 -0.07719285993374472
13.7240859375 -1.0037021376190678 -0.07209327318085282
13.725234375 -1.0027093704502161 -0.07005723650529733
13.7263828125 -1.007499972512633 -0.07068524294547776
13.72753125 -1.0049459135383403 -0.06901018691915578
13.7286796875 -1.007580586645631 -0.06531821466301951
13.729828125 -1.0068016111892097 -0.06352830402167192
13.7309765625 -1.0090486729021628 -0.06293965403093113
13.732125 -1.0077706456177422 -0.06099459533096216
13.7332734375 -1.0047945900853672 -0.052536342183641976
13.734421875 -1.0029490119680322 -0.06026118718731219
13.7355703125 -1.002622868000442 -0.05845138283961991
13.73671875 -0.9991794712556893 -0.05538295308391661
13.7378671875 -1.001069973280963 -0.0529927169228194
13.739015625 -1.003843230284955 -0.05180921615754264
13.7401640625 -1.0007643048478543 -0.03921590657026511
13.7413125 -0.9993409876309854 -0.04795360710918209
13.7424609375 -0.9995590863668679 -0.045234779188369816
13.743609375 -0.9964606172179702 -0.04633723989432011
13.7447578125 -0.9985160485887115 -0.044108723346135484
13.74590625 -0.995866987438958 -0.04003703804727057
13.7470546875 -0.9959085707163354 -0.040774524726827056
13.748203125 -0.9952746288371728 -0.03761909714229014
13.7493515625 -0.9912608527906515 -0.03901480542216671
13.7505 -0.9866376865757683 -0.04016415707459199
13.7516484375 -0.9883114951173271 -0.039419646397382435
13.752796875 -0.9868426851518194 -0.03874591493568105
13.7539453125 -0.9900736371339676 -0.04016104683385069
13.75509375 -0.9912310431429112 -0.03625526731281045
13.7562421875 -0.9860894023049821 -0.03500380441230197
13.757390625 -0.9856085681716835 -0.03407392393829731
13.7585390625 -0.9893335488187703 -0.03683430314136976
13.7596875 -0.9885172365903838 -0.03486526524301187
13.7608359375 -0.9863751348077493 -0.03514102044455253
13.761984375 -0.9886500334083028 -0.030234296507435476
13.7631328125 -0.9841452835853232 -0.030658436331715777
13.76428125 -0.9811341553677236 -0.02732632821591069
13.7654296875 -0.9837780958212625 -0.02930054682682201
13.766578125 -0.9839723854474929 -0.02751988942516642
13.7677265625 -0.983555169796762 -0.029956002178307573
13.768875 -0.9830121025103209 -0.027483306013855013
13.7700234375 -0.9833104306029397 -0.025875377306119884
13.771171875 -0.9807608366362668 -0.024999719017335276
13.7723203125 -0.9794224032176175 -0.022742209593773627
13.77346875 -0.9821085221046577 -0.024346975596054976
13.7746171875 -0.9797158795179659 -0.016518337358521956
13.775765625 -0.9803507550006186 -0.0205187401337662
13.7769140625 -0.9767700276105302 -0.01769682380011195
13.7780625 -0.9742126087529381 -0.019913261428199713
13.7792109375 -0.9728417108892047 -0.021034581023903404
13.780359375 -0.9757143504770522 -0.026845342683816054
13.7815078125 -0.9673556064192873 -0.02126552889970676
13.78265625 -0.9647852568154545 -0.02606898947235553
13.7838046875 -0.9707592052613274 -0.02600841786270558
13.784953125 -0.9702141989643664 -0.026203191340326754
13.7861015625 -0.9721641743399982 -0.027256693745189853
13.78725 -0.9713935316724395 -0.02628011441419592
13.7883984375 -0.974504319825883 -0.027961529136339203
13.789546875 -0.9639952638133136 -0.028838460572578828
13.7906953125 -0.9678656115379529 -0.028799807712620695
13.79184375 -0.9644920122825218 -0.03269573532921839
13.7929921875 -0.9692026615825975 -0.03057039762338852
13.794140625 -0.9652851965703168 -0.030587220611436865
13.7952890625 -0.9655749728955435 -0.03314949817036501
13.7964375 -0.9643783405221616 -0.03166252345584526
13.7975859375 -0.9730153691828495 -0.03391505563016606
13.798734375 -0.9720733011253992 -0.030986316005109232
13.7998828125 -0.9723999614950791 -0.030709918218765855
13.80103125 -0.9776503271263887 -0.0316091634478178
13.8021796875 -0.9758643396684344 -0.03280944717895755
13.803328125 -0.9711657905851077 -0.028011945026491458
13.8044765625 -0.9712619545958041 -0.025778267411460803
13.805625 -0.9724046574616513 -0.026434612539963043
13.8067734375 -0.9762597077726667 -0.02657136464538229
13.807921875 -0.9760941320666847 -0.026010880929213276
13.8090703125 -0.9716177260128718 -0.026714289123249635
13.81021875 -0.9732878480599612 -0.030453192228171833
13.8113671875 -0.970135630989363 -0.023557593006573674
13.812515625 -0.9728549828620925 -0.024120698188046075
13.8136640625 -0.9757600558680778 -0.02298325117138561
13.8148125 -0.9747737028248641 -0.02176938093697861
13.8159609375 -0.9755801430038253 -0.026199697629560592
13.817109375 -0.9722353735428483 -0.01823471634972318
13.8182578125 -0.974203048863698 -0.018506215431587925
13.81940625 -0.9784558292895862 -0.018188975565280763
13.8205546875 -0.9767101622146437 -0.017917663311886767
13.821703125 -0.9770296446522659 -0.017191286487857338
13.8228515625 -0.972254315416494 -0.011478387044034144
13.824 -0.9730578879407579 -0.015532533038360219
13.8251484375 -0.970613892747047 -0.0137219497113783
13.826296875 -0.9734952912564131 -0.011076046908790715
13.8274453125 -0.9766651894917227 -0.009346198689498708
13.82859375 -0.9722423432548444 -0.007808993797699282
13.8297421875 -0.9720659544025381 -0.011879124292698329
13.830890625 -0.9721505775287912 -0.008196380089989797
13.8320390625 -0.9708184993810459 -0.0056411661873294605
13.8331875 -0.9733407344750713 -0.004356246845116041
13.8343359375 -0.9720728890608081 0.0005985359062731233
13.835484375 -0.9705711186752419 -0.0002773274154639349
13.8366328125 -0.9732742075775795 0.0008893662908512345
13.83778125 -0.9719987820501093 0.002538891215528638
13.8389296875 -0.9688381474366019 -0.0014492721667880293
13.840078125 -0.967635486618162 0.0010816102222072077
13.8412265625 -0.9667467026578889 0.003520365162046235
13.842375 -0.9656571978573554 0.002216187620261767
13.8435234375 -0.9679385223418151 0.0011099723162104613
13.844671875 -0.9719507293270124 0.005588531778965455
13.8458203125 -0.9662767937858978 0.0016321041118876334
13.84696875 -0.9677887462140486 0.007492598863258593
13.8481171875 -0.9651068301681127 0.005062764634740202
13.849265625 -0.9636755328566653 0.004776810942160203
13.8504140625 -0.9655338675627506 0.006404116147519567
13.8515625 -0.9700709607322173 0.008815090014838267
13.8527109375 -0.9668194295506266 0.009772874886847971
13.853859375 -0.9659784940141064 0.008511197914653268
13.8550078125 -0.9652774720600897 0.0061507612922995225
13.85615625 -0.9619468817789079 0.008199303738326447
13.8573046875 -0.9658962601823358 0.006080461215365207
13.858453125 -0.9641592281195219 0.01163689323320527
13.8596015625 -0.965096178502139 0.013216877558326678
13.86075 -0.9655535139177227 0.012330422510436145
13.8618984375 -0.962548522880806 0.010214776850195673
13.863046875 -0.9617038124393157 0.016191422238680198
13.8641953125 -0.9594789585861925 0.014669692399359446
13.86534375 -0.9541897997783774 0.01533160408758516
13.8664921875 -0.9569177951796737 0.017440791597794436
13.867640625 -0.9547844995128135 0.015775160519872378
13.8687890625 -0.9493884341106928 0.012910372474108645
13.8699375 -0.9532837729817152 0.011680680888538242
13.8710859375 -0.9550806086178278 0.014755393731074373
13.872234375 -0.9543218488009677 0.012896095662136564
13.8733828125 -0.9517125395860669 0.011437681467738714
13.87453125 -0.9534844332647067 0.012309955648356241
13.8756796875 -0.9498651411079805 0.013058559129809355
13.876828125 -0.9497501738197724 0.014189768627613342
13.8779765625 -0.950665163407718 0.007321607782752038
13.879125 -0.948294595173558 0.0060961760774321805
13.8802734375 -0.9499870113838642 0.006667937921465805
13.881421875 -0.9489606166563247 0.006169831851766672
13.8825703125 -0.949756402512681 0.009700626082079666
13.88371875 -0.9507123713059414 0.013024578564374445
13.8848671875 -0.944304638197084 0.006940604573840825
13.886015625 -0.9457917185946507 0.011302409108273848
13.8871640625 -0.9450378267556104 0.007910478282551314
13.8883125 -0.9461411269712164 0.0036660242542825294
13.8894609375 -0.9483496686969398 0.005521184256543632
13.890609375 -0.9477705638472788 0.006696213750135294
13.8917578125 -0.9509100967980787 0.007888919715728415
13.89290625 -0.9479006133749813 0.006063994287402508
13.8940546875 -0.9518697084883415 0.010894045845108447
13.895203125 -0.9510265155767741 0.011981445013002301
13.8963515625 -0.9505698545081185 0.008155809734461172
13.8975 -0.9516698939068607 0.01132739775215269
13.8986484375 -0.9488010186945639 0.011316968825030471
13.899796875 -0.9513011324842056 0.012416643623283485
13.9009453125 -0.9504642939641749 0.012663389142976822
13.90209375 -0.948377322048933 0.013969691416234775
13.9032421875 -0.9505917748825776 0.014346972385737067
13.904390625 -0.9473049682589326 0.01357425049764549
13.9055390625 -0.9487576137557543 0.013978937624546883
13.9066875 -0.9472014757893237 0.013901900687230628
13.9078359375 -0.9491245831072512 0.011692220232154826
13.908984375 -0.9496366907038521 0.014147632140225352
13.9101328125 -0.9501203719148585 0.012099382639169654
13.91128125 -0.9528599443650363 0.010724223060436688
13.9124296875 -0.9504944047882392 0.013885636488332465
13.913578125 -0.9506789848176862 0.016071189218490378
13.9147265625 -0.9497359611474989 0.016946623670853894
13.915875 -0.9493671910861058 0.019970422480900613
13.9170234375 -0.9483329587609746 0.019614106198454218
13.918171875 -0.9474561736421911 0.02324382242490894
13.9193203125 -0.9432358983228826 0.019601552734173106
13.92046875 -0.9434582684902524 0.019407476550782732
13.9216171875 -0.94066633637524 0.019311325703307902
13.922765625 -0.9402057982910919 0.01703335501997158
13.9239140625 -0.9380572321955428 0.014381678992830493
13.9250625 -0.9352805795357663 0.014451796192466199
13.9262109375 -0.9391943128773353 0.008471691328678671
13.927359375 -0.9385986198502267 0.0073589580543262645
13.9285078125 -0.9389083052296407 0.006746993632394949
13.92965625 -0.9404611045009048 0.008865909814715411
13.9308046875 -0.9401953508270449 0.010648659553224499
13.931953125 -0.9389260368552248 0.009919605614598537
13.9331015625 -0.9352987792404035 0.006683232716501175
13.93425 -0.9372703203131002 0.003572328146623338
13.9353984375 -0.9366791805227649 0.0026843585716099794
13.936546875 -0.9361754839092604 0.0010802564574249884
13.9376953125 -0.9355788472570405 -0.0014683501727440484
13.93884375 -0.9373276768805848 -0.005256806536028558
13.9399921875 -0.9392573509713207 -0.010525473115519823
13.941140625 -0.942569172283499 -0.010575912100726281
13.9422890625 -0.948476990480835 -0.011193434051658901
13.9434375 -0.9470840589034488 -0.011317889185695706
13.9445859375 -0.9491665880610709 -0.014513776789370547
13.945734375 -0.9512456669723273 -0.013755950625035707
13.9468828125 -0.9521221900490056 -0.015038269632396406
13.94803125 -0.9537142572131689 -0.012032998525030647
13.9491796875 -0.9568069484651436 -0.013920876427783335
13.950328125 -0.9563850435985117 -0.014712852210692573
13.9514765625 -0.9563122063455941 -0.015966928966573535
13.952625 -0.958791014263066 -0.015332264525178885
13.9537734375 -0.9642627075219152 -0.01768259837226127
13.954921875 -0.9639032132629812 -0.016574272059324824
13.9560703125 -0.9675913482459741 -0.011897960452301182
13.95721875 -0.9722505430116506 -0.011491411279320962
13.9583671875 -0.9729373046152565 -0.011943468266572554
13.959515625 -0.9740626318794057 -0.00883552830116241
13.9606640625 -0.9762557239989567 -0.010924627055049374
13.9618125 -0.9741071058401145 -0.005216160026589756
13.9629609375 -0.9763698093029485 -0.004889918803397286
13.964109375 -0.9753359191540972 -0.005150698470418269
13.9652578125 -0.975781461952899 -0.002625948370343578
13.96640625 -0.9757948062757422 -0.0008490009831799705
13.9675546875 -0.9762509293865462 -0.003183625102003096
13.968703125 -0.9806893741966736 -0.002291753343408365
13.9698515625 -0.9792394600392286 -0.005091767530568281
13.971 -0.9793058119692865 -3.736217966121558e-07
13.9721484375 -0.9820095040637583 -0.0033275894936520833
13.973296875 -0.9809550805358056 0.001516414065393823
13.9744453125 -0.9823989858899913 0.00021189983073877094
13.97559375 -0.9805789364361649 -5.5834862858539225e-05
13.9767421875 -0.9797177687972874 0.001332625523557951
13.977890625 -0.98652160999978 -0.0002142366622631675
13.9790390625 -0.9882192821891947 -0.0005705326982740067
13.9801875 -0.9900355871731703 -0.0011318408066200991
13.9813359375 -0.9942103791447234 0.00017570709405212437
13.982484375 -0.9938764405134364 0.0043242786133865785
13.9836328125 -0.999846242652411 0.007100756696930555
13.98478125 -1.000434706835411 0.009994322314354154
13.9859296875 -0.9982750840223826 0.011709341713519894
13.987078125 -1.0037202053331777 0.011673996733114311
13.9882265625 -1.00151281820352 0.0157293116659738
13.989375 -1.0022568585282978 0.013350445075527961
13.9905234375 -1.0059693874177127 0.018078903228255894
13.991671875 -1.0027820617368457 0.016441188045066224
13.9928203125 -1.005206500466656 0.019936827903868748
13.99396875 -1.0071371103388944 0.025508762605785718
13.9951171875 -1.012640097385631 0.022996482319336597
13.996265625 -1.0114419935732002 0.021710221885525294
13.9974140625 -1.012259572385519 0.027437970215797636
13.9985625 -1.0139446864322328 0.030212760409548234
13.9997109375 -1.0094952898012965 0.034130830397912315
14.000859375 -1.0091196816537038 0.03481628514498636
14.0020078125 -1.0123100758052628 0.036316998730274386
14.00315625 -1.01300909838223 0.03886801435702292
14.0043046875 -1.01350232500732 0.03841202012033573
14.005453125 -1.0065817918768696 0.044972379408352525
14.0066015625 -1.009005337114383 0.04929366052954165
14.00775 -1.0060655933033547 0.04653738409832697
14.0088984375 -1.0116609920993918 0.04737475691317283
14.010046875 -1.0084014167905984 0.048622321676770164
14.0111953125 -1.0098255983186903 0.04624786324326502
14.01234375 -1.0091086032111218 0.050844007764559995
14.0134921875 -1.0104118926211652 0.055920048045270176
14.014640625 -1.0077808827828543 0.0564506698478171
14.0157890625 -1.0081136062469866 0.054808346874204106
14.0169375 -1.0091993193058626 0.055511534334503176
14.0180859375 -1.006980018587406 0.0591177434554242
14.019234375 -1.0076442398292105 0.06126153946100077
14.0203828125 -1.0136635565388135 0.0625609750584677
14.02153125 -1.0103336401668164 0.06741884428414091
14.0226796875 -1.0064821683602225 0.0711927183065123
14.023828125 -1.0037823802573906 0.0733938732813435
14.0249765625 -1.0010376551073716 0.0772302309207561
14.026125 -0.9943878384734157 0.07679719471544133
14.0272734375 -0.993225274824653 0.07589575073615162
14.028421875 -0.9899948515652247 0.0767147994411399
14.0295703125 -0.9914772669410592 0.0746922011902934
14.03071875 -0.9904127017815583 0.07377932101409546
14.0318671875 -0.9900987557255047 0.07255385315091711
14.033015625 -0.9877673100706629 0.07013977263980598
14.0341640625 -0.9860949004442081 0.07182170852532732
14.0353125 -0.991786153285765 0.07267584480474598
14.0364609375 -0.9939130132065513 0.07156529669661527
14.037609375 -0.993427299292694 0.07576960132579535
14.0387578125 -0.9858962914702392 0.0767393216535942
14.03990625 -0.9964607628819736 0.0698797007069849
14.0410546875 -0.9914811515392452 0.07556571556746594
14.042203125 -0.9882011846094019 0.07702741534321667
14.0433515625 -0.987818340865636 0.07754574714219475
14.0445 -0.983265595233313 0.08074250701088681
14.0456484375 -0.9790757293328132 0.08830904442894238
14.046796875 -0.9817316535728444 0.08654263731974543
14.0479453125 -0.9748945742284734 0.09019635291619199
14.04909375 -0.971360265913995 0.08882710964504004
14.0502421875 -0.9701365417614133 0.07045595966441964
14.051390625 -0.9614328635672509 0.06197055727309042
14.0525390625 -0.9733155841162924 0.06817107136770562
14.0536875 -0.9819007826522816 0.06083620105463017
14.0548359375 -0.9888305623706195 0.06304174469778012
14.055984375 -0.9898701326473878 0.06585296654255512
14.0571328125 -0.9804266893880856 0.061820497917909445
14.05828125 -0.9931060897720996 0.06925013908403665
14.0594296875 -0.9961571963988568 0.0769902625639114
14.060578125 -0.9944054223701427 0.08027532990035391
14.0617265625 -0.9999183759914075 0.07731082540099299
14.062875 -0.9968184077534221 0.08051237401860056
14.0640234375 -1.0002645882524777 0.08401688790315465
14.065171875 -0.9960081277265769 0.08319243976670976
14.0663203125 -0.9931845339094936 0.09476285430064557
14.06746875 -0.9876021241077195 0.09102746451238852
14.0686171875 -0.9893796913350449 0.08927807795455267
14.069765625 -0.9829977652322273 0.08628548284596538
14.0709140625 -0.9889777737709645 0.08427452250876499
14.0720625 -0.9823364817613076 0.07987201181829595
14.0732109375 -0.9858282949962799 0.08480728301649876
14.074359375 -0.9898897692985886 0.08457874298233081
14.0755078125 -0.9871006808274148 0.08765210530579004
14.07665625 -0.9870003547428399 0.09474657113011431
14.0778046875 -0.9898245362684911 0.08520228677308372
14.078953125 -0.993106527474934 0.09244539692884068
14.0801015625 -0.9807331001021015 0.08658286391655656
14.08125 -0.9840289675087794 0.09741593808071569
14.0823984375 -0.9869660094531294 0.09027768590898755
14.083546875 -0.9850724543397464 0.08557209051686576
14.0846953125 -0.9869896711503532 0.09031816075230303
14.08584375 -0.9804489248334762 0.09002677974780049
14.0869921875 -0.9810034851276306 0.08847056689658828
14.088140625 -0.9880294624981969 0.0902951230454031
14.0892890625 -0.9912764092977701 0.09014080290833881
14.0904375 -0.9845377623691387 0.08866194473762323
14.0915859375 -0.9892315933314804 0.09109425334502108
14.092734375 -0.9878442543988182 0.09011979504019052
14.0938828125 -0.9867417515104309 0.09115673067360552
14.09503125 -0.9842950115937666 0.09709874008954922
14.0961796875 -0.9862933658411916 0.09378122753106533
14.097328125 -0.9824157550405195 0.08984159396523028
14.0984765625 -0.9799893341777678 0.08642799366972231
14.099625 -0.9831086444203 0.0863654062727649
14.1007734375 -0.9831061075637166 0.08476013005041338
14.101921875 -0.989789782845488 0.08465288175533403
14.1030703125 -0.9897843422787237 0.08926638118448538
14.10421875 -0.9893434449034962 0.09969500037837165
14.1053671875 -0.9835788542332111 0.09097503736495549
14.106515625 -0.9848506275092334 0.09065126663040302
14.1076640625 -0.9859335007266904 0.08210514438378436
14.1088125 -0.9823964661667492 0.0821294710167837
14.1099609375 -0.9851552756677195 0.0814613745849414
14.111109375 -0.9863164007907821 0.08308275278667698
14.1122578125 -0.9844012846906183 0.08859962232340912
14.11340625 -0.990004122791807 0.08189456392872752
14.1145546875 -0.9911671009480003 0.08013058219811864
14.115703125 -0.9942444897589029 0.0799899096286606
14.1168515625 -0.99347972815563 0.08164017880366514
14.118 -0.997576984915987 0.0798603973639902
14.1191484375 -1.0017894763590693 0.08723441695019751
14.120296875 -1.0089740409149162 0.0875430477811997
14.1214453125 -1.007770261057865 0.08896405312129063
14.12259375 -1.0084623736330214 0.0836767153083734
14.1237421875 -1.0109633228128465 0.08229042546394405
14.124890625 -1.0113872423977615 0.08967099322008276
14.1260390625 -1.0084431827265503 0.094938409371773
14.1271875 -1.0191162743799964 0.09692925429523924
14.1283359375 -1.0151943591819412 0.09607014331733832
14.129484375 -1.0246813539479607 0.09938697738602842
14.1306328125 -1.027319036420032 0.10413729464822441
14.13178125 -1.0227045480709478 0.10471512146601158
14.1329296875 -1.0350846467496495 0.11186370026553782
14.134078125 -1.039063939907164 0.10991788851808082
14.1352265625 -1.0315982017084397 0.12394660510503752
14.136375 -1.0415092946563793 0.13458499452838557
14.1375234375 -1.0379855105769866 0.13411204521974707
14.138671875 -1.0242825058270757 0.13511418041745527
14.1398203125 -1.0230036628060495 0.13823795061994903
14.14096875 -1.031021601238733 0.14087332852134649
14.1421171875 -1.0164134342635738 0.14319831271621264
14.143265625 -1.0121526719292886 0.1470487606965546
14.1444140625 -1.0225217980934922 0.15384571020141113
14.1455625 -1.0255796983163021 0.14671959799967738
14.1467109375 -1.0171882844562319 0.15728843889352706
14.147859375 -1.0161443491736908 0.15351934890373686
14.1490078125 -1.0157944152845608 0.1528174969105598
14.15015625 -1.02010180465174 0.1516761664491364
14.1513046875 -1.0071741274921222 0.1570479235841229
14.152453125 -1.004449310098579 0.1541812103188147
14.1536015625 -1.0074427594513358 0.15333250839104196
14.15475 -0.997376065702597 0.15533535544045074
14.1558984375 -1.0098071884665867 0.1564070097498672
14.157046875 -1.0084323014582186 0.14269275404831605
14.1581953125 -1.0143462951994486 0.1401647766745796
14.15934375 -1.0233296045391014 0.15167470804776095
14.1604921875 -1.0192905608655922 0.15873412772447038
14.161640625 -1.0151512136278487 0.16214075404369632
14.1627890625 -1.0176975102851662 0.15813450923519257
14.1639375 -1.0169085182732327 0.1653960493778296
14.1650859375 -1.0159194984082733 0.16074181306525004
14.166234375 -1.0136194881839224 0.1639443764338666
14.1673828125 -1.0194231598829078 0.16228398164861413
14.16853125 -1.0184669599175975 0.16470467647984688
14.1696796875 -1.0179486551034231 0.16591507066773759
14.170828125 -1.018566707429942 0.1666045577164279
14.1719765625 -1.0293678432620812 0.17656674313840615
14.173125 -1.0212047815606793 0.17854649089561814
14.1742734375 -1.0217072858783491 0.18413848459519555
14.175421875 -1.0200182080093352 0.1855560434373537
14.1765703125 -1.013159335959973 0.18482268072470293
14.17771875 -1.0093434920510713 0.18648288543654884
14.1788671875 -1.0081275733887962 0.1916686206419126
14.180015625 -1.0084053210319648 0.1917541501942015
14.1811640625 -1.0063005433011682 0.191653534621885
14.1823125 -1.0059554967806634 0.19060623712173624
14.1834609375 -1.0088382788266173 0.1929980737389454
14.184609375 -1.0063662787997816 0.19734456293825542
14.1857578125 -1.0131021116800236 0.19651511904588637
14.18690625 -1.0137660680487177 0.20509728685880613
14.1880546875 -1.0002011279208798 0.21257446296781068
14.189203125 -1.0014213376151182 0.20757898602556535
14.1903515625 -0.9949871293490373 0.20986075178296004
14.1915 -0.9944814319848061 0.2112665872298064
14.1926484375 -0.9832375321934076 0.20985747956613332
14.193796875 -0.9868013758923662 0.21146878171517025
14.1949453125 -0.9897742146720921 0.21376405790810116
14.19609375 -0.9817364033882157 0.22317912721880817
14.1972421875 -0.9847221892332755 0.21622054270186775
14.198390625 -0.9750892053269274 0.22002167630853198
14.1995390625 -0.9718697526433301 0.21326790599049483
14.2006875 -0.9713219486185755 0.21363898859735542
14.2018359375 -0.974076351795959 0.21220870130208092
14.202984375 -0.9706294842745422 0.21099081850264834
14.2041328125 -0.9733735147039948 0.216655976001627
14.20528125 -0.9747798649690357 0.21682503755966342
14.2064296875 -0.9657379794879735 0.21361710618205854
14.207578125 -0.9644626193014649 0.21466906687287013
14.2087265625 -0.9723568517358578 0.21526453261709544
14.209875 -0.9742775244923688 0.21971220485792475
14.2110234375 -0.9683902771393521 0.21700347767743944
14.212171875 -0.9650782351486897 0.22348577287298488
14.2133203125 -0.9550530539595552 0.21494366029630108
14.21446875 -0.9582876504275661 0.21697742620549954
14.2156171875 -0.9610896676621458 0.21369290020145215
14.216765625 -0.9584876717792676 0.21442623628464474
14.2179140625 -0.9504684272064144 0.2201585615800954
14.2190625 -0.9508723084687309 0.21073867985525174
14.2202109375 -0.956514049825391 0.21212549916359025
14.221359375 -0.9520848466043618 0.21051478151927072
14.2225078125 -0.9554795041785168 0.20668824176791878
14.22365625 -0.9645597262153094 0.21204651798789775
14.2248046875 -0.9640651725752113 0.2169983342497397
14.225953125 -0.9559561511417153 0.21443957950754888
14.2271015625 -0.9530725373443831 0.21511979317304686
14.22825 -0.9612611920657027 0.21954040032545907
14.2293984375 -0.9557150605242399 0.21482477059642557
14.230546875 -0.9483479280728149 0.20544236324487508
14.2316953125 -0.9479875529060618 0.21126887284440898
14.23284375 -0.9486817133565328 0.21032889643682962
14.2339921875 -0.9571908646271137 0.19029740927237593
14.235140625 -0.9662223431872621 0.21206844736953834
14.2362890625 -0.973318450396245 0.21806997421269136
14.2374375 -0.9579208610166036 0.21416803849715205
14.2385859375 -0.958387284092171 0.2218277777599137
14.239734375 -0.9628806860395651 0.22690340334857484
14.2408828125 -0.9450717681286118 0.21661648222709107
14.24203125 -0.9574794342050723 0.20953711660369956
14.2431796875 -0.9699753880359805 0.22865333929891252
14.244328125 -0.963152704743978 0.23742151897767205
14.2454765625 -0.9606575185978274 0.22758641052826523
14.246625 -0.9500907239006475 0.23138033076395959
14.2477734375 -0.9499702333180837 0.22946855413782896
14.248921875 -0.9585925770130919 0.2267377602067574
14.2500703125 -0.9477669746396549 0.22640533869385804
14.25121875 -0.9487491871009721 0.23504641528207948
14.2523671875 -0.9491136321066784 0.23168462278105273
14.253515625 -0.940387701909826 0.23773774612544207
14.2546640625 -0.9427995557212596 0.23564759182453443
14.2558125 -0.936416251664163 0.21590232273714172
14.2569609375 -0.9372783689385822 0.2335118883681826
14.258109375 -0.9284075052401767 0.24769223692382525
14.2592578125 -0.9358515377451627 0.23352752174075353
14.26040625 -0.9285951112556677 0.2326806127609804
14.2615546875 -0.9288303775156632 0.230741023079581
14.262703125 -0.9204092446375953 0.22535337871514305
14.2638515625 -0.9318900556340156 0.2269582042970586
14.265 -0.9257282758787237 0.2357393022347012
14.2661484375 -0.9309311620472933 0.2259911810721531
14.267296875 -0.9229792350771753 0.22491579071352719
14.2684453125 -0.9403525710531004 0.22838655942805064
14.26959375 -0.9227233627229894 0.2149074728454614
14.2707421875 -0.9332639424021814 0.22026963510014919
14.271890625 -0.9285728915894454 0.21553044311236014
14.2730390625 -0.9292377163082614 0.21266376231137896
14.2741875 -0.92974681831469 0.2178679473584565
14.2753359375 -0.9202179639725245 0.2175647424093684
14.276484375 -0.9236711088823291 0.227618047961339
14.2776328125 -0.9214257865205181 0.2305373562447518
14.27878125 -0.9320474061285071 0.2222037335039213
14.2799296875 -0.9238717046664091 0.2222321656862153
14.281078125 -0.9363409555511524 0.2190257690368166
14.2822265625 -0.9282985758979213 0.20460011712146609
14.283375 -0.9323405760062381 0.2108046040692343
14.2845234375 -0.9435746425107814 0.20518462414901928
14.285671875 -0.9412434144987725 0.21280876670322302
14.2868203125 -0.937101121235973 0.2194422422287139
14.28796875 -0.9340364208194231 0.23495594553469534
14.2891171875 -0.9231830807269874 0.2341789240064479
14.290265625 -0.9152823986176833 0.23334721607241826
14.2914140625 -0.9244668697760466 0.23166140546241998
14.2925625 -0.9097368108256372 0.23423265806030347
14.2937109375 -0.9104117251692496 0.21907730793890456
14.294859375 -0.9130166551770222 0.22141753222536165
14.2960078125 -0.9063468377907996 0.2208058080610822
14.29715625 -0.9057786361088188 0.209410355861391
14.2983046875 -0.9072690913959038 0.2042051379442365
14.299453125 -0.9104220849366125 0.21075022244367636
14.3006015625 -0.9055957832642837 0.20738229165985028
14.30175 -0.9026787315087338 0.20460343486105892
14.3028984375 -0.9107790581556734 0.20176427028636162
14.304046875 -0.9150319870893919 0.19935720458156025
14.3051953125 -0.9162272165909869 0.20166440604628905
14.30634375 -0.9134543533802972 0.1989627492858177
14.3074921875 -0.9202657354338909 0.19785908568603983
14.308640625 -0.9167964841659295 0.19195791617406194
14.3097890625 -0.921411427035824 0.1994299676083614
14.3109375 -0.9209503844360019 0.1985294093932028
14.3120859375 -0.9099397829467148 0.18939594331793663
14.313234375 -0.904754070691705 0.18311947654053645
14.3143828125 -0.922492452352047 0.19015224718568352
14.31553125 -0.923510600822229 0.18126539934013408
14.3166796875 -0.9261556571448981 0.17338706347825555
14.317828125 -0.9308227709453091 0.17663677049238558
14.3189765625 -0.9345714600826633 0.18054355238413317
14.320125 -0.9388439760176153 0.16951832925174443
14.3212734375 -0.9434293200114978 0.16695231256639276
14.322421875 -0.9619084838028751 0.17119131059346043
14.3235703125 -0.9597149064539252 0.1708900911573482
14.32471875 -0.9548702371523151 0.17982816668438648
14.3258671875 -0.9568191863867319 0.18116165760910724
14.327015625 -0.956641186127513 0.17419414838121797
14.3281640625 -0.9601500382452947 0.17726521789560057
14.3293125 -0.9628115303898903 0.18083856447358326
14.3304609375 -0.9724021235468009 0.17795737002892625
14.331609375 -0.9687237919673665 0.17739859712304934
14.3327578125 -0.9819465533556923 0.1846407340520387
14.33390625 -0.9857024408072783 0.1912866258794694
14.3350546875 -0.9868792789922979 0.20607756457276527
14.336203125 -0.9885873668765508 0.20302357538887378
14.3373515625 -0.9855172979521328 0.21436778342429016
14.3385 -0.9864863641670019 0.21715173234411939
14.3396484375 -0.9779478861114724 0.22101546157828073
14.340796875 -0.9755795354327371 0.21794582720642514
14.3419453125 -0.9702570405615507 0.21476771674741463
14.34309375 -0.9778822622089979 0.21822565063705854
14.3442421875 -0.9788887977226716 0.22079526221959278
14.345390625 -0.9791271213218922 0.2281428873449339
14.3465390625 -0.9693794492602523 0.2263059036140339
14.3476875 -0.9728974878125788 0.2290882568605707
14.3488359375 -0.9661417834670637 0.2315911846077199
14.349984375 -0.9695847450449955 0.23584138944155197
14.3511328125 -0.9667416873697467 0.2361540728776466
14.35228125 -0.9650246079351421 0.2391986037340262
14.3534296875 -0.9691518255969528 0.23172485310974722
14.354578125 -0.9606346643874142 0.23701960383034978
14.3557265625 -0.9659913294191975 0.23487129223476388
14.356875 -0.9602658686212293 0.24101564769282005
14.3580234375 -0.9558936976449561 0.24525084608335534
14.359171875 -0.9535868955830715 0.23790833191327265
14.3603203125 -0.9616245717092863 0.23881776171973262
14.36146875 -0.9569622392954604 0.2292184283950261
14.3626171875 -0.9659058295139982 0.22539682340926093
14.363765625 -0.9648224054963537 0.22919288376091324
14.3649140625 -0.97271390279449 0.2218684958807004
14.3660625 -0.9869386387231709 0.23475154178556434
14.3672109375 -0.9929849368245708 0.24800766020995285
14.368359375 -0.9830067179235189 0.25872729049031795
14.3695078125 -0.9805267753598366 0.2555607362632892
14.37065625 -0.9732826174808165 0.2663988482642088
14.3718046875 -0.9708653806740047 0.26443113382522265
14.372953125 -0.9670622960460538 0.27089361798855277
14.3741015625 -0.9685661466445479 0.2676904832882149
14.37525 -0.9626504339738607 0.27609089931862385
14.3763984375 -0.9652393215813693 0.26695728971726485
14.377546875 -0.9567016299226667 0.2694563582492915
14.3786953125 -0.9588640217487111 0.2653082848866016
14.37984375 -0.9580669706436888 0.26548952390573893
14.3809921875 -0.961870359393947 0.26873707544647485
14.382140625 -0.9712927683190761 0.267615193145679
14.3832890625 -0.9594704486091971 0.2755829080099401
14.3844375 -0.9592867889204092 0.2669843837589532
14.3855859375 -0.9525472377480861 0.2706054822059817
14.386734375 -0.9621973691265595 0.27623904457154336
14.3878828125 -0.952974095898074 0.27019517584382097
14.38903125 -0.9500992563173393 0.27327398180478607
14.3901796875 -0.9560586321377343 0.2663623783215678
14.391328125 -0.9555769215126093 0.27714662187922623
14.3924765625 -0.9513343522170574 0.26452927814404353
14.393625 -0.9651472554286314 0.2744579092521788
14.3947734375 -0.9592590610697523 0.27789779676261983
14.395921875 -0.9510757173908524 0.27487982723332804
14.3970703125 -0.9497290195508405 0.298406735695135
14.39821875 -0.9557950488608553 0.2845818077111566
14.3993671875 -0.9593478870481201 0.27686398862135586
14.400515625 -0.9538192570357521 0.28455131843415493
14.4016640625 -0.953239211688188 0.29048607284871325
14.4028125 -0.9394427597044006 0.2769936941026361
14.4039609375 -0.9476514182399232 0.27998034976610564
14.405109375 -0.9600821816615929 0.28714457908593694
14.4062578125 -0.9505503965676189 0.29045226671446245
14.40740625 -0.9437513671541253 0.29326541759187214
14.4085546875 -0.9470734330458703 0.2955930277945476
14.409703125 -0.9397948840257377 0.29876092527913467
14.4108515625 -0.9444130208283974 0.29622903889159513
14.412 -0.9517650913045625 0.2813836286224712
14.4131484375 -0.9449054729540656 0.29109161841514775
14.414296875 -0.9340884036863946 0.2856063517235136
14.4154453125 -0.9481416691223513 0.29279260275105357
14.41659375 -0.9384363301614191 0.298485601465822
14.4177421875 -0.9319468012388223 0.2950760545959038
14.418890625 -0.9464325459446878 0.2977912362444637
14.4200390625 -0.9382712073320418 0.2990129798554178
14.4211875 -0.9230253041393834 0.28622916343738414
14.4223359375 -0.9338932284939377 0.2813814352066113
14.423484375 -0.9206869013747869 0.289742330232925
14.4246328125 -0.9369839933729533 0.28970537515788763
14.42578125 -0.9234335268713028 0.27453824362365054
14.4269296875 -0.9275310688130236 0.25991190115625246
14.428078125 -0.9303506531941621 0.2620661403194557
14.4292265625 -0.9255041048400282 0.2519594337909491
14.430375 -0.9380762781244651 0.24437918713800227
14.4315234375 -0.941984598432429 0.2524189229223072
14.432671875 -0.9421874473746601 0.2530436966444328
14.4338203125 -0.955407534314411 0.24848599050959408
14.43496875 -0.9625196153692976 0.24123888505463836
14.4361171875 -0.9583597570208947 0.2433075372565245
14.437265625 -0.9591975847556903 0.25026285104180046
14.4384140625 -0.9697915202854535 0.2529519565105485
14.4395625 -0.9687048046003399 0.24860325743028988
14.4407109375 -0.9812246958422337 0.2550081082175611
14.441859375 -0.9898241526487124 0.2531223891871511
14.4430078125 -0.9898711415071899 0.2671733390814849
14.44415625 -0.9914974642716807 0.2719689442421663
14.4453046875 -1.0042108280861748 0.26778604530277594
14.446453125 -1.0084284834931243 0.27460357135496777
14.4476015625 -1.0004903387415072 0.27490609467861626
14.44875 -1.014920271823324 0.27038242260877715
14.4498984375 -1.014926694537659 0.27774079575527644
14.451046875 -1.0178905732632206 0.28908015554328526
14.4521953125 -0.9969732824810644 0.295573912064835
14.45334375 -1.013345930881052 0.31716612785064646
14.4544921875 -1.0173943806416377 0.312393927408143
14.455640625 -1.0109579931570452 0.3109939724496171
14.4567890625 -1.0456207495579897 0.3027230209733246
14.4579375 -1.0336514632980398 0.3406324093840543
14.4590859375 -1.0094172425814134 0.3214753345861511
14.460234375 -1.0037273368357453 0.3459335337896785
14.4613828125 -0.9972234454032483 0.33648038492301746
14.46253125 -1.0079934698410007 0.3302039309134514
14.4636796875 -0.986297292575185 0.35879849637450484
14.464828125 -0.9933628679889961 0.3533629368651864
14.4659765625 -0.9820633576000382 0.3446843219417052
14.467125 -0.9990088386241824 0.3491133903909408
14.4682734375 -0.9880129991622149 0.3567129077263237
14.469421875 -0.9857191661168136 0.36021495025098765
14.4705703125 -0.9929913828524475 0.34929489086029664
14.47171875 -0.9785743894236336 0.3630693902101694
14.4728671875 -0.9911622087439922 0.3666587238531056
14.474015625 -0.9986789307497272 0.3649157450812661
14.4751640625 -0.9858146309269051 0.37350667166164214
14.4763125 -0.9814454720777982 0.34426267035431274
14.4774609375 -0.9779463501636793 0.3610904385623765
14.478609375 -0.9803265182020058 0.3668242109879612
14.4797578125 -0.9790965093483106 0.3756251306578781
14.48090625 -0.9715958039617769 0.37606593362970264
14.4820546875 -0.9619320662947105 0.38201292103387885
14.483203125 -0.9533127150435474 0.369754511341118
14.4843515625 -0.9581129365631678 0.3856557201711334
14.4855 -0.9466599423819376 0.37461330437445606
14.4866484375 -0.9472677256008837 0.3747053678742316
14.487796875 -0.94912503904221 0.37315301419158553
14.4889453125 -0.9386190266252475 0.3662510157073816
14.49009375 -0.9332257925595638 0.3617664009887752
14.4912421875 -0.9414650067042356 0.3653938109518427
14.492390625 -0.9484922883316645 0.3694565819618813
14.4935390625 -0.947707469517382 0.36829634851969223
14.4946875 -0.9361308109590439 0.3734355258198087
14.4958359375 -0.9393319341979836 0.3728461825847254
14.496984375 -0.9256307132088283 0.36388039820813245
14.4981328125 -0.9467653201124892 0.3669868007061311
14.49928125 -0.9390213652976445 0.37130831971171285
14.5004296875 -0.9297187962144807 0.3685050536766957
14.501578125 -0.9290512849784694 0.36516282001528216
14.5027265625 -0.9212258900002762 0.36145362730720265
14.503875 -0.9228176585216945 0.3671483552107162
14.5050234375 -0.9212756541695188 0.36884571330564164
14.506171875 -0.9236939158346928 0.3698516088475072
14.5073203125 -0.9160887611866151 0.37143345573731346
14.50846875 -0.9129159944497863 0.36353749557676157
14.5096171875 -0.9206189051412534 0.36434107023074397
14.510765625 -0.921909370067109 0.3608878333293161
14.5119140625 -0.9186796996104277 0.35409691275912786
14.5130625 -0.9205154356219751 0.3570943790168912
14.5142109375 -0.9263184735954744 0.352126275116773
14.515359375 -0.9197737052735813 0.3508393849673153
14.5165078125 -0.9238366044696344 0.3480638725656093
14.51765625 -0.9300735910459154 0.3576094163632024
14.5188046875 -0.9224725041334779 0.3496123323244916
14.519953125 -0.925434853768381 0.3622308820170506
14.5211015625 -0.9275902145619866 0.3671679362292799
14.52225 -0.922789906111954 0.35998642597383596
14.5233984375 -0.9176460928849213 0.3626329291330142
14.524546875 -0.9205222306680636 0.35751468891086324
14.5256953125 -0.9229903668901738 0.34786005207063775
14.52684375 -0.929322402192327 0.36999758290698676
14.5279921875 -0.9345859632558255 0.3553036713483928
14.529140625 -0.9281455447020187 0.3594605088629661
14.5302890625 -0.9338866001129957 0.3538090177908516
14.5314375 -0.9276191639975072 0.35640583376855967
14.5325859375 -0.9314248961646342 0.37507606376602615
14.533734375 -0.9261512320960614 0.36828560759336093
14.5348828125 -0.9084323884025745 0.3692053349982968
14.53603125 -0.912685888416086 0.35075731944661237
14.5371796875 -0.9228901084159743 0.36672736573016673
14.538328125 -0.9106571591066316 0.3523893781562838
14.5394765625 -0.9186741302553347 0.34177080869102533
14.540625 -0.9116189156800145 0.3722456688016046
14.5417734375 -0.9159397388332129 0.3658766999402168
14.542921875 -0.9123350797663348 0.3576388170470823
14.5440703125 -0.9135200525823477 0.34597365931327767
14.54521875 -0.9156972410659994 0.34447781360980795
14.5463671875 -0.9050272329137539 0.3518083859338561
14.547515625 -0.9157033878094871 0.35122212214799375
14.5486640625 -0.8972572938760962 0.3615993129236248
14.5498125 -0.9073824405281606 0.3578102988103255
14.5509609375 -0.9240955354829087 0.3629027563745833
14.552109375 -0.9134896609997067 0.36351783195173215
14.5532578125 -0.9177686044586628 0.37255391711108876
14.55440625 -0.8983876178563764 0.3684106151577233
14.5555546875 -0.9059186633130027 0.3792773825387887
14.556703125 -0.8955051018643604 0.3607449266915463
14.5578515625 -0.8904486276441191 0.369215368705125
14.559 -0.903982713714691 0.3729591811688483
14.5601484375 -0.8940693634907879 0.37018502974803924
14.561296875 -0.8844771799944804 0.3578617640326777
14.5624453125 -0.8904004196505352 0.3584895334192541
14.56359375 -0.8926669525926558 0.36021584891607106
14.5647421875 -0.8948069857744598 0.35163506047676185
14.565890625 -0.8938244122651419 0.34793704558417926
14.5670390625 -0.8975870326437101 0.34862182992883084
14.5681875 -0.884432372323128 0.34690118576607504
14.5693359375 -0.8918084473784991 0.35090480224201936
14.570484375 -0.8930103056197812 0.3561906862971467
14.5716328125 -0.8901115139758435 0.359126241208669
14.57278125 -0.8895498559626877 0.3502681160493451
14.5739296875 -0.885789670273143 0.3463100168452699
14.575078125 -0.8900735361380836 0.3402455127221742
14.5762265625 -0.891656122631489 0.3290826722455079
14.577375 -0.8992878406242633 0.335348637951523
14.5785234375 -0.895373585421782 0.3366788026422411
14.579671875 -0.9062918623920664 0.33221734726369073
14.5808203125 -0.8970362899836367 0.32870655835656015
14.58196875 -0.902498959365852 0.32903195791667483
14.5831171875 -0.9101497384314231 0.321527529176027
14.584265625 -0.9167068866138706 0.3279416312755698
14.5854140625 -0.9230128437738461 0.32931888632720335
14.5865625 -0.9175291584418106 0.3417698353532755
14.5877109375 -0.914729836429807 0.33529456747369596
14.588859375 -0.9198786774822036 0.3419759200982444
14.5900078125 -0.9205962871652796 0.3402623964319692
14.59115625 -0.9251072923119357 0.34459258306239576
14.5923046875 -0.928183479641605 0.3435493734642911
14.593453125 -0.9327791119440291 0.3500436165234361
14.5946015625 -0.9250214649060593 0.3376874136959728
14.59575 -0.9265436658234425 0.333180765460716
14.5968984375 -0.9311155134850914 0.3331578918281235
14.598046875 -0.9378046324693758 0.3467072566632256
14.5991953125 -0.929221637296265 0.34367439823058754
14.60034375 -0.9425480255927626 0.34297613228155244
14.6014921875 -0.9414695094526794 0.3475001426056859
14.602640625 -0.9372520547760196 0.3552565386684234
14.6037890625 -0.9408168115574109 0.356040819063465
14.6049375 -0.9427560598240615 0.3523871759306101
14.6060859375 -0.9398721806756063 0.3509037298373566
14.607234375 -0.9439300034295803 0.36069212118564675
14.6083828125 -0.9395813162471173 0.36183070904566406
14.60953125 -0.9466017054260134 0.36761557286965024
14.6106796875 -0.9461477125814303 0.3731580615819039
14.611828125 -0.9539793174197896 0.35764592017196295
14.6129765625 -0.9405992675497751 0.36723398349708464
14.614125 -0.93521941656346 0.3619679681585737
14.6152734375 -0.9436594676443014 0.37777741733489434
14.616421875 -0.9383874654333489 0.378846516838934
14.6175703125 -0.9292122306347211 0.3837561715348378
14.61871875 -0.93550906923602 0.38674520423210823
14.6198671875 -0.9298135919495575 0.37781404459234325
14.621015625 -0.9139244497227121 0.37315109377783606
14.6221640625 -0.9079634646452222 0.3793151384319066
14.6233125 -0.9283966291564754 0.3761960972759515
14.6244609375 -0.9247818797937547 0.3742775305669884
14.625609375 -0.9273880713616789 0.3572491353939678
14.6267578125 -0.918273358380644 0.39213199266523785
14.62790625 -0.9153817122670234 0.38049150200899867
14.6290546875 -0.9128370197030363 0.38035532782445924
14.630203125 -0.9211120218654741 0.38801447040651516
14.6313515625 -0.9202807809340242 0.3933108699343526
14.6325 -0.918300328850875 0.38817934093275386
14.6336484375 -0.9044702521508157 0.39690430886222217
14.634796875 -0.9039199773498254 0.3958904411964441
14.6359453125 -0.8931478093932423 0.3982883137026097
14.63709375 -0.8968870959885027 0.38925489211367564
14.6382421875 -0.8919887347722603 0.38382502101116456
14.639390625 -0.8916051812113641 0.38345325340616454
14.6405390625 -0.9035474272043476 0.37575694544650007
14.6416875 -0.8806424857970732 0.391452521003227
14.6428359375 -0.8783030243506451 0.3871615863956772
14.643984375 -0.8899463008791474 0.3545889230776518
14.6451328125 -0.882491322341458 0.3737095506824016
14.64628125 -0.880084200993631 0.37688555177900923
14.6474296875 -0.8907385273887864 0.35929681227212057
14.648578125 -0.894695459568944 0.35506001241185425
14.6497265625 -0.9117928518852341 0.3586415640835149
14.650875 -0.8934580083574853 0.36882483697519086
14.6520234375 -0.906113213620745 0.3638180692907297
14.653171875 -0.8944335994004229 0.3585651838799826
14.6543203125 -0.9074592493140226 0.34420989369720156
14.65546875 -0.895922568428225 0.3457723368110768
14.6566171875 -0.884263087328979 0.3766606667761376
14.657765625 -0.8878158865619814 0.3557118692390176
14.6589140625 -0.8858427217919548 0.32997469186337103
14.6600625 -0.8930234655444765 0.33214566440322657
14.6612109375 -0.907412026450101 0.33343636461103954
14.662359375 -0.9165600960459735 0.33940011252198793
14.6635078125 -0.9255251490969635 0.3405642155847306
14.66465625 -0.9214476529694272 0.34701627584381317
14.6658046875 -0.937688385641525 0.35137739137761076
14.666953125 -0.9350328424272811 0.3757931437700972
14.6681015625 -0.9265643819782751 0.3636879474999616
14.66925 -0.9178599919105751 0.3769878101910525
14.6703984375 -0.9133718647250259 0.3654858471636959
14.671546875 -0.9271171719486724 0.3493904263167655
14.6726953125 -0.9195951434561642 0.35034834117403346
14.67384375 -0.9396697896374895 0.3265068740989295
14.6749921875 -0.9364946921524056 0.34195116082007293
14.676140625 -0.9549848491037334 0.34052434240107277
14.6772890625 -0.9412211848486678 0.3268893008122307
14.6784375 -0.958515237914894 0.35409256755835894
14.6795859375 -0.9688012639355246 0.35897982761647484
14.680734375 -0.9551350709347437 0.3663379296004207
14.6818828125 -0.9618316669249459 0.38399471464723484
14.68303125 -0.9539162605138207 0.3976941869197704
14.6841796875 -0.9475353871813353 0.39090136318486074
14.685328125 -0.9382729380890492 0.3922262668918507
14.6864765625 -0.9390363725971953 0.38670018538016815
14.687625 -0.9522753864195346 0.39315091175960415
14.6887734375 -0.9443944245436386 0.38602694898752166
14.689921875 -0.9438840930458613 0.39249249608465697
14.6910703125 -0.9484842864266984 0.3979750057001479
14.69221875 -0.9377123768326661 0.4010366802603569
14.6933671875 -0.9135840158355207 0.3958511409215758
14.694515625 -0.920543633934825 0.3954905657418712
14.6956640625 -0.9204578034328013 0.3826969597162182
14.6968125 -0.9038911303659052 0.36914406882202144
14.6979609375 -0.929531688633641 0.37549777616266067
14.699109375 -0.9263292794916035 0.37287264411806875
14.7002578125 -0.9285962029742911 0.3711209244282929
14.70140625 -0.9283982575160369 0.38420819816732016
14.7025546875 -0.9294563003991947 0.3757908172446818
14.703703125 -0.9231068265006358 0.36738596887065844
14.7048515625 -0.9216906471438332 0.3775999358631671
14.706 -0.9279009699600308 0.36700733559782484
14.7071484375 -0.9222300491779685 0.37085979418313975
14.708296875 -0.9214437441354776 0.3603294219713431
14.7094453125 -0.934846371864148 0.3678719559942657
14.71059375 -0.9353502727892609 0.36524292801379576
14.7117421875 -0.9252008195626338 0.3693822803284486
14.712890625 -0.9324185243923306 0.37705796495111754
14.7140390625 -0.9353590188910812 0.376315586870776
14.7151875 -0.9275949058871271 0.3723899694061982
14.7163359375 -0.9532299870753048 0.3727558805786685
14.717484375 -0.948807503083919 0.3505880281015652
14.7186328125 -0.9295332099730765 0.35982166246615466
14.71978125 -0.9480114352141721 0.3757279220876536
14.7209296875 -0.947994758138501 0.369638537530722
14.722078125 -0.9590817093878589 0.3677315043718762
14.7232265625 -0.9677293279095754 0.39315770867019134
14.724375 -0.9612129208905664 0.3908778266237022
14.7255234375 -0.9542919065871246 0.39528955697189105
14.726671875 -0.9360751599255444 0.38876840671958407
14.7278203125 -0.9557800232453298 0.37532468045829515
14.72896875 -0.939872131798645 0.3810956858160507
14.7301171875 -0.9425351233867313 0.3785648564106783
14.731265625 -0.9527567817362579 0.37500887705863706
14.7324140625 -0.9502744526631464 0.37849915901017706
14.7335625 -0.9529235495314662 0.3832413288510671
14.7347109375 -0.9547886682015468 0.376536542796125
14.735859375 -0.9554504559851984 0.39386865849076635
14.7370078125 -0.9572882122555342 0.4049699916775618
14.73815625 -0.9478598227432353 0.3987342582593083
14.7393046875 -0.9501230880266751 0.39053112375635757
14.740453125 -0.9608748932594622 0.38571316024441293
14.7416015625 -0.9506732822790082 0.40322452535388276
14.74275 -0.954761632750641 0.3953524950178718
14.7438984375 -0.9572684635991101 0.3938624568926927
14.745046875 -0.9610646148326054 0.4031484114373441
14.7461953125 -0.9618308152553413 0.4012761500578656
14.74734375 -0.9682904009414546 0.4141961682508891
14.7484921875 -0.9659096660996908 0.4224966768985863
14.749640625 -0.9663181729404513 0.4324182837253555
14.7507890625 -0.9616834263501652 0.43144744073538405
14.7519375 -0.9535687504173173 0.42814889706343195
14.7530859375 -0.9427946585009458 0.4299463324288439
14.754234375 -0.9476805654030498 0.42913564119115205
14.7553828125 -0.935446924527793 0.43033890235730954
14.75653125 -0.9279936436336682 0.4247905249994552
14.7576796875 -0.9317234935680814 0.40536129720387887
14.758828125 -0.9316865184784471 0.4146340477648329
14.7599765625 -0.9272755521497733 0.40835812875006705
14.761125 -0.9324991203709897 0.4039457056126787
14.7622734375 -0.9307842791857339 0.3978872906418909
14.763421875 -0.9373731845747718 0.3946120731210917
14.7645703125 -0.9440573510582813 0.38689345387157426
14.76571875 -0.9462798025018615 0.39397051815002254
14.7668671875 -0.961436263222229 0.38912392754352426
14.768015625 -0.9557442285047919 0.3954721858999504
14.7691640625 -0.9540651649024388 0.3922059344357821
14.7703125 -0.9590725235982466 0.39632108032972463
14.7714609375 -0.9514568142035542 0.3993549452633499
14.772609375 -0.9552355365592693 0.39983859208406464
14.7737578125 -0.9477793571105926 0.4089875969971095
14.77490625 -0.9452868253193617 0.400063166782791
14.7760546875 -0.9448854284284 0.3967966449067135
14.777203125 -0.9551738551314006 0.387666274970619
14.7783515625 -0.9646789054940454 0.39246911378887656
14.7795 -0.9498989997693156 0.402723138523439
14.7806484375 -0.934037137283907 0.3928349635885825
14.781796875 -0.9487607554743429 0.39023297843356053
14.7829453125 -0.9512080482512356 0.4013762857080472
14.78409375 -0.9571507853875221 0.38751596066814664
14.7852421875 -0.9541944119627511 0.3964498517574845
14.786390625 -0.9606074354952772 0.40002780661400805
14.7875390625 -0.9710786126210369 0.40544136724662666
14.7886875 -0.9578093558361094 0.40263881960762926
14.7898359375 -0.9616675003025255 0.40586769920909604
14.790984375 -0.9575483320036632 0.40061428903071206
14.7921328125 -0.9521074335681318 0.40387267451847275
14.79328125 -0.9517028629923551 0.40284303548380085
14.7944296875 -0.9583839898561962 0.3859136409906337
14.795578125 -0.965110182210388 0.3846857453115742
14.7967265625 -0.9643247207235183 0.3892728835017088
14.797875 -0.9582336031023024 0.3849853755039089
14.7990234375 -0.9757689296114431 0.40065900979702473
14.800171875 -0.9772869136880284 0.3938575102955162
14.8013203125 -0.9634160916652971 0.4032061712676616
14.80246875 -0.9601978367125212 0.39220731823359534
14.8036171875 -0.9695759987891199 0.39152832204065535
14.804765625 -0.9660172061818916 0.39689698700175674
14.8059140625 -0.9815803891785198 0.4052789803393253
14.8070625 -0.9909142283204397 0.4032086481067273
14.8082109375 -0.9925990158578373 0.4163300008409177
14.809359375 -0.9902183871497096 0.4192757310284138
14.8105078125 -0.9767141225267395 0.4146638721013945
14.81165625 -0.9872730828974325 0.42498571594615747
14.8128046875 -0.9958477751638308 0.4318506015760234
14.813953125 -0.9915244093693117 0.4410636597340618
14.8151015625 -0.9878131216522983 0.43220548199655373
14.81625 -0.9836841900568001 0.4489594411751544
14.8173984375 -0.9927971252193971 0.44941640512431436
14.818546875 -0.9914260782998774 0.4610707685750036
14.8196953125 -0.989081078964899 0.4521066675306723
14.82084375 -0.9689240611500858 0.4623777369765098
14.8219921875 -0.986358442940094 0.45864347512285325
14.823140625 -0.9794383541112431 0.46837827668745696
14.8242890625 -0.9845950815059678 0.45971838330551035
14.8254375 -0.9820276690034622 0.46868508118770913
14.8265859375 -0.9812092728022971 0.4736393374700223
14.827734375 -0.9692766303142482 0.48392372993287713
14.8288828125 -0.9657247995823831 0.48100306993256536
14.83003125 -0.9634245396373063 0.48721068838298587
14.8311796875 -0.9575125886726652 0.4789272309770809
14.832328125 -0.9491462056370674 0.4847036163727888
14.8334765625 -0.956072876934404 0.48011120632503046
14.834625 -0.9477726406577057 0.48890104397301276
14.8357734375 -0.957545525938396 0.48559682222583184
14.836921875 -0.9525375719646798 0.48958296792644473
14.8380703125 -0.9350877716269019 0.4910987345916029
14.83921875 -0.9359217731613706 0.4978884194118641
14.8403671875 -0.9432848134424129 0.49749016546796876
14.841515625 -0.926012464886312 0.4907568725009876
14.8426640625 -0.9195488410701853 0.48773912461334834
14.8438125 -0.9181918312184536 0.496245682740531
14.8449609375 -0.9296992623866285 0.48540676324242094
14.846109375 -0.9396812465318756 0.495568402603614
14.8472578125 -0.9272054515054049 0.48462980840716
14.84840625 -0.9364141441675013 0.4719924813762615
14.8495546875 -0.9530158830753234 0.4721265594492837
14.850703125 -0.9241551221833021 0.4760470099596298
14.8518515625 -0.9126734993441993 0.4796558179179642
14.853 -0.9376090876742618 0.4559402602257754
14.8541484375 -0.9193586272535663 0.47268166604775874
14.855296875 -0.918269411997432 0.46204756829409444
14.8564453125 -0.9228704433438489 0.4545563211536713
14.85759375 -0.9173751494048513 0.45272260035145107
14.8587421875 -0.9087718986169138 0.4668444715670148
14.859890625 -0.9376253948487122 0.44678259632720885
14.8610390625 -0.9407909681896008 0.48144072886153355
14.8621875 -0.9540957819396361 0.500988589008493
14.8633359375 -0.9449770775012306 0.4680813735370639
14.864484375 -0.9316222578976721 0.5018077268435148
14.8656328125 -0.9486303775144105 0.47644971468509545
14.86678125 -0.9421833853387105 0.5062309373835354
14.8679296875 -0.9449040704524585 0.49110052009668714
14.869078125 -0.9247175902395994 0.5372201509009057
14.8702265625 -0.8951187342052527 0.5273847548732908
14.871375 -0.9348822355169584 0.5089880074820621
14.8725234375 -0.8979127362564369 0.5232296063587345
14.873671875 -0.9050913927316879 0.5098932763270769
14.8748203125 -0.8915388829427665 0.49491073424569476
14.87596875 -0.9006269702536001 0.5174083414517121
14.8771171875 -0.8752989851115809 0.49754997553017744
14.878265625 -0.8610273294004003 0.49040045188704373
14.8794140625 -0.9086297739165229 0.5160282877374363
14.8805625 -0.8899337439863417 0.5043503863963869
14.8817109375 -0.8649129680559354 0.49476641274076827
14.882859375 -0.8601943776705819 0.5073732479164796
14.8840078125 -0.841194357556148 0.5061076839543033
14.88515625 -0.8327642487292937 0.5011508025728105
14.8863046875 -0.8432673106653137 0.49254637832557935
14.887453125 -0.8396220727627205 0.4300210669344977
14.8886015625 -0.8253250089455173 0.4528740120548407
14.88975 -0.8470391596134041 0.4469525119564719
14.8908984375 -0.8368651256582166 0.461237862505938
14.892046875 -0.8378625173160684 0.4401219190621555
14.8931953125 -0.8202012336703078 0.436471620066595
14.89434375 -0.8029553050498814 0.41655234296373567
14.8954921875 -0.845355870275144 0.42933207101910287
14.896640625 -0.8555287123037518 0.41156746374791875
14.8977890625 -0.843215329819035 0.42080677250828
14.8989375 -0.8471626288893555 0.4264011102492893
14.9000859375 -0.8405700805919609 0.4334464521130319
14.901234375 -0.8503246413986683 0.42010149580495715
14.9023828125 -0.8509071472724683 0.4035717052761434
14.90353125 -0.843675651130604 0.4135632137114382
14.9046796875 -0.8531408119755244 0.40865317106202226
14.905828125 -0.8515108743627546 0.40915141583254355
14.9069765625 -0.8473013696087057 0.41529140990398217
14.908125 -0.8494225326691943 0.39412568833573647
14.9092734375 -0.8618666377470103 0.4036479731536957
14.910421875 -0.8436868619689368 0.40618157747799843
14.9115703125 -0.8187828352467865 0.4000077687191801
14.91271875 -0.8260676390859804 0.3920263308564609
14.9138671875 -0.8212765794904664 0.36708944404087696
14.915015625 -0.8307221201497004 0.36431156759213457
14.9161640625 -0.8293644997688575 0.3537567764664755
14.9173125 -0.8250886342138714 0.3492773081199695
14.9184609375 -0.8292387115403095 0.34467525891408446
14.919609375 -0.8225587287892123 0.3170437186447377
14.9207578125 -0.8307351417586176 0.3000273652491444
14.92190625 -0.8383568994162903 0.29144592477947384
14.9230546875 -0.8472475058037843 0.2749594025063202
14.924203125 -0.857003896654837 0.2547688213240331
14.9253515625 -0.8717517657926396 0.24822830619682235
14.9265 -0.8953134998159963 0.22534459962340803
14.9276484375 -0.908643166868947 0.21387696187975114
14.928796875 -0.930302349852157 0.20721945634617422
14.9299453125 -0.9464761108583214 0.1934487077531577
14.93109375 -0.9638900502937295 0.2057623518877143
14.9322421875 -1.0005366259451558 0.21073564761313934
14.933390625 -1.0222662524069308 0.2069331650828064
14.9345390625 -1.0373830052059219 0.22590184783933298
14.9356875 -1.0587416822938227 0.2393886024128934
14.9368359375 -1.066160811111688 0.24157655360313068
14.937984375 -1.0775039412922829 0.23917413843767976
14.9391328125 -1.0911526947576273 0.25716896157971525
14.94028125 -1.1158319647035262 0.26390330048411503
14.9414296875 -1.133003106480387 0.28593089422952234
14.942578125 -1.127639870509149 0.2883690223258922
14.9437265625 -1.1364273440652817 0.30792119712828026
14.944875 -1.128211183879875 0.33759120629820144
14.9460234375 -1.131963338137593 0.33293226181532243
14.947171875 -1.1629286040616087 0.36534839716357825
14.9483203125 -1.1595810132120619 0.3666799842110078
14.94946875 -1.1498546302318768 0.3820932404294881
14.9506171875 -1.1437834347033207 0.38158918344797965
14.951765625 -1.1305792540532875 0.3965189608036911
14.9529140625 -1.1307625644202797 0.4168683758722178
14.9540625 -1.1354823969332375 0.42055569929093184
14.9552109375 -1.1486698090286758 0.4316495992093288
14.956359375 -1.1498599010074848 0.4408669361788614
14.9575078125 -1.1499152226275966 0.4594014674479699
14.95865625 -1.1389985123292568 0.4655396645658681
14.9598046875 -1.1277306549108224 0.4796350111299733
14.960953125 -1.1215388048434594 0.46711004452239785
14.9621015625 -1.1201934280615242 0.48894842530563315
14.96325 -1.1087358509519076 0.4878733895549654
14.9643984375 -1.1217730326265878 0.4969938652870718
14.965546875 -1.101126297418681 0.4978688414157777
14.9666953125 -1.1187704906661198 0.49869552665213274
14.96784375 -1.0956513405336965 0.5016277368334441
14.9689921875 -1.0907696622691112 0.5117518118371003
14.970140625 -1.1032964567559571 0.5268727367895648
14.9712890625 -1.0952954009778457 0.5328246252741191
14.9724375 -1.0953869091165653 0.5444323451551532
14.9735859375 -1.0867792227179902 0.5569281554882313
14.974734375 -1.0766273324824462 0.5471284929253469
14.9758828125 -1.0637641466434764 0.5570002283930513
14.97703125 -1.05332573844411 0.5738619025315829
14.9781796875 -1.044778631620994 0.5677406368161728
14.979328125 -1.048280297387271 0.5613059804269576
14.9804765625 -1.0558370044329015 0.5525097914721734
14.981625 -1.046735813574654 0.5540183342167798
14.9827734375 -1.0657594619484372 0.55882325715893
14.983921875 -1.0597619250488233 0.5755737809073934
14.9850703125 -1.0549618458989012 0.5816588778245498
14.98621875 -1.0461850175019727 0.5989949061440577
14.9873671875 -1.0438877275809624 0.5825893718201255
14.988515625 -1.0407236547810488 0.5957810356821773
14.9896640625 -1.0235699940620089 0.5877686363227417
14.9908125 -1.019529175171623 0.599922917749758
14.9919609375 -1.0226956294005356 0.5997237096040762
14.993109375 -1.0129779687024985 0.6051913683371354
14.9942578125 -1.004932849110632 0.5819267493339155
14.99540625 -0.9966834736900005 0.5699175933664676
14.9965546875 -1.0253738409796893 0.5576072270320618
14.997703125 -1.0240404644880594 0.5952840998754928
14.9988515625 -1.0331802885166006 0.5775962244099964
15.0 -1.0323801186256518 0.5720109720728521
