! Created with skrf 1.8.0 (http://scikit-rf.org).
# GHz S RI R 50.0 
!freq ReS11 ImS11
0.3 -0.9119489554776676 0.3484610377455689
0.3011484375 -0.9107682550485907 0.3524119627074478
0.302296875 -0.9099114189038708 0.3548437837620196
0.3034453125 -0.9109158799263706 0.356194991584619
0.30459375 -0.9107955456069807 0.3585359488711236
0.3057421875 -0.9109717939873581 0.3591097502629041
0.306890625 -0.9111271743143747 0.3613724740715268
0.3080390625 -0.9115867752908995 0.3626656137515503
0.3091875 -0.9122233432102518 0.36303960488491327
0.3103359375 -0.9108589741688707 0.36414565941244015
0.311484375 -0.9111176069120523 0.36667293042209237
0.3126328125 -0.9094843252720953 0.36595077442959933
0.31378125 -0.910545565480468 0.3679954502193338
0.3149296875 -0.9092656738020235 0.36897182227365855
0.316078125 -0.9095972806651169 0.3711036714522627
0.3172265625 -0.9104691853764754 0.3733138891797012
0.318375 -0.9087497607176929 0.37200358100583075
0.3195234375 -0.9070723758421497 0.3763104128034397
0.320671875 -0.9067704424419498 0.3746073964585326
0.3218203125 -0.9067025901580881 0.375761774178782
0.32296875 -0.9055899694075227 0.37552939866780755
0.3241171875 -0.9051311554936716 0.3803830953993448
0.325265625 -0.9041954196004788 0.38092248625756436
0.3264140625 -0.9052591952697597 0.38224332396679367
0.3275625 -0.9063397866445634 0.3831933632999012
0.3287109375 -0.9029849950021754 0.3833364513548734
0.329859375 -0.9021807910712305 0.3864007650742226
0.3310078125 -0.9025215367382858 0.38683860923178903
0.33215625 -0.9005473055770883 0.38914024805197023
0.3333046875 -0.9013862692157865 0.38642963438907574
0.334453125 -0.9012324030298269 0.3883725429569043
0.3356015625 -0.8990074766193661 0.3923019826314338
0.33675 -0.8994906750337756 0.3924880788066298
0.3378984375 -0.8986157466160203 0.3947816945162661
0.339046875 -0.8980863886232647 0.3951866326358585
0.3401953125 -0.8995937635138052 0.39730317655989955
0.34134375 -0.8970933896335032 0.40020220014834723
0.3424921875 -0.8966826130833081 0.39913960675034266
0.343640625 -0.8939241094151525 0.4020936700928459
0.3447890625 -0.8946479997869896 0.4025998360451095
0.3459375 -0.8977229621350942 0.40036963750604365
0.3470859375 -0.8953295913636937 0.4059769396806401
0.348234375 -0.8966696511219101 0.404752752373414
0.3493828125 -0.8926626453943556 0.4074168969112771
0.35053125 -0.8966683475540264 0.40803069303145056
0.3516796875 -0.8928380610236829 0.41026296262988293
0.352828125 -0.8907720002005785 0.41041458750186466
0.3539765625 -0.8915138495721262 0.41294760917553675
0.355125 -0.8928351479166459 0.4130113586482964
0.3562734375 -0.8915856831156983 0.414472448498559
0.357421875 -0.8904849341016008 0.41714080867724296
0.3585703125 -0.8894464661742766 0.4189183368515666
0.35971875 -0.8883993266679988 0.4198711851351866
0.3608671875 -0.8870271898389546 0.4212178930144953
0.362015625 -0.8869071619771065 0.4231647361168138
0.3631640625 -0.8858557955139736 0.424343049751919
0.3643125 -0.8851699103666418 0.42677724395808414
0.3654609375 -0.8840607705920622 0.42750770540369365
0.366609375 -0.8848957303450995 0.4291114686675312
0.3677578125 -0.8836993803806242 0.4310254842906772
0.36890625 -0.882573198066497 0.4324873235269462
0.3700546875 -0.8811450025171712 0.43381509317639444
0.371203125 -0.8808405489742304 0.436723358261399
0.3723515625 -0.8806451973186049 0.4367953881465355
0.3735 -0.8803356247586365 0.43918305802470275
0.3746484375 -0.8795379617513734 0.4397794977930588
0.375796875 -0.8788211335995246 0.44171993173012425
0.3769453125 -0.8775045799098627 0.44340067352953827
0.37809375 -0.8772755997300428 0.4455232294880384
0.3792421875 -0.876311814016796 0.445826138948952
0.380390625 -0.875273029441796 0.4483059577717858
0.3815390625 -0.8746307402000523 0.4498069441670643
0.3826875 -0.8743401438313274 0.451914370055183
0.3838359375 -0.8740563412689994 0.45330435910770756
0.384984375 -0.8738892937861185 0.4543664097958443
0.3861328125 -0.8735293339070855 0.4554744591567007
0.38728125 -0.8726085335376401 0.4570468512088035
0.3884296875 -0.8721344313145586 0.45856055101444715
0.389578125 -0.8715924638281759 0.4598929703593689
0.3907265625 -0.8704431528975088 0.46115300881298116
0.391875 -0.8696523278127641 0.46365183183109676
0.3930234375 -0.8694747065818842 0.46379499276561176
0.394171875 -0.8686236217653998 0.4653439636950377
0.3953203125 -0.8680978307424643 0.4672045863692662
0.39646875 -0.8671398723040196 0.46841127937476057
0.3976171875 -0.8667909541292158 0.469802715522176
0.398765625 -0.8660842656269998 0.4711529932486079
0.3999140625 -0.8655326134407934 0.4728193772761004
0.4010625 -0.8647143896196452 0.47417245942123637
0.4022109375 -0.8645167295297584 0.4761060648696503
0.403359375 -0.8638222518533905 0.47683486405397135
0.4045078125 -0.8636784846176702 0.47710439842282426
0.40565625 -0.8620412310642899 0.47745273572667174
0.4068046875 -0.8616033132893282 0.47932896389097357
0.407953125 -0.8609668679196761 0.48034226033314276
0.4091015625 -0.8598695187387131 0.48231720864478583
0.41025 -0.8588589143596467 0.4831258564715799
0.4113984375 -0.8584035322874215 0.48400120193120444
0.412546875 -0.8575574623516682 0.48543246010055613
0.4136953125 -0.8575208037173608 0.4861376203671414
0.41484375 -0.8565427263178589 0.4875514611450658
0.4159921875 -0.8559506392189798 0.4892855275339155
0.417140625 -0.8548606032909469 0.4906647776737675
0.4182890625 -0.8544190711379243 0.4917202798321204
0.4194375 -0.8541099266736146 0.49341306858655587
0.4205859375 -0.8530757294267894 0.495193599993688
0.421734375 -0.8516773414530078 0.49557044420810814
0.4228828125 -0.8523956968673945 0.49718013628300134
0.42403125 -0.8509709932911518 0.4985497682471083
0.4251796875 -0.8504668611840737 0.49999361377129936
0.426328125 -0.8496531116624039 0.5017995002238552
0.4274765625 -0.8489277029041891 0.5026835761921805
0.428625 -0.8476302293685734 0.5019210689468625
0.4297734375 -0.8484905067489165 0.505008787380025
0.430921875 -0.8468630622276805 0.5062804803050855
0.4320703125 -0.8452537132613187 0.5061060748368744
0.43321875 -0.8458683341324132 0.5087860067916141
0.4343671875 -0.8444860033641476 0.5074460902497108
0.435515625 -0.8441772732024271 0.5110740138778609
0.4366640625 -0.843102480818128 0.5122502200910732
0.4378125 -0.841798912935783 0.5129557179006746
0.4389609375 -0.8419895362085862 0.5137269183572848
0.440109375 -0.8404650468929544 0.5168951153691332
0.4412578125 -0.8399558438777043 0.5162951005089212
0.44240625 -0.8398467871729194 0.5178273418447391
0.4435546875 -0.8382826467790894 0.5181840842155865
0.444703125 -0.8386993804135019 0.5211797796444182
0.4458515625 -0.8367666935922816 0.5223394393885966
0.447 -0.8359339627782689 0.5258568993114964
0.4481484375 -0.8358093273001992 0.5210122451007086
0.449296875 -0.8349879229843359 0.5253625464475795
0.4504453125 -0.8345447299653154 0.5261206028364631
0.45159375 -0.8337417404330942 0.5263897120883303
0.4527421875 -0.8344702428784246 0.52874444956933
0.453890625 -0.8325999634206134 0.5309218249262326
0.4550390625 -0.832159520906005 0.5317666957157057
0.4561875 -0.8309121600199276 0.531879541627271
0.4573359375 -0.830454769978034 0.5328894218227075
0.458484375 -0.8303131290441388 0.5335340976144927
0.4596328125 -0.830402029765488 0.5344844937290734
0.46078125 -0.8287444535095807 0.5371285788980046
0.4619296875 -0.8273853101248698 0.5382518910845879
0.463078125 -0.8271989398202189 0.5399508945303647
0.4642265625 -0.8265414790236447 0.5401297041829161
0.465375 -0.825723935091614 0.5407013552421374
0.4665234375 -0.8240491199736066 0.5430485312973943
0.467671875 -0.8242308518351279 0.5433727879074245
0.4688203125 -0.822323742063765 0.543822215700928
0.46996875 -0.8226554163936987 0.5458542172467256
0.4711171875 -0.8216576858286199 0.5472527572492479
0.472265625 -0.8210564536249441 0.5483004380625675
0.4734140625 -0.8203514534709085 0.5495490607663074
0.4745625 -0.8195298047622706 0.5495201576751588
0.4757109375 -0.8194754363226646 0.5514189378664917
0.476859375 -0.818790045481038 0.5525334112466344
0.4780078125 -0.8178384728153594 0.5535898333876736
0.47915625 -0.816591745033979 0.5547340399084688
0.4803046875 -0.8164791831741919 0.5557069084357672
0.481453125 -0.8148870858534374 0.5571838483645175
0.4826015625 -0.8141585543570075 0.5580968283787374
0.48375 -0.8132178691797389 0.5599167545670221
0.4848984375 -0.8126213312427786 0.560658295280031
0.486046875 -0.8122320451748348 0.5618964807611087
0.4871953125 -0.8116148452848743 0.5632409003403799
0.48834375 -0.8110409613696921 0.5633934954370383
0.4894921875 -0.8101909592024059 0.5642426266375461
0.490640625 -0.8089591414323256 0.56504924280754
0.4917890625 -0.8079885853375746 0.5656232871182945
0.4929375 -0.8067786198475551 0.5666036984460768
0.4940859375 -0.8054898872462912 0.5679897772939547
0.495234375 -0.8038847072716571 0.5696464904836547
0.4963828125 -0.8029786981380341 0.5716074383195947
0.49753125 -0.8023867730595614 0.5731773421583363
0.4986796875 -0.8014617452646111 0.5740467448120814
0.499828125 -0.8007722255797298 0.5756927702795805
0.5009765625 -0.79978553426949 0.576670481883437
0.502125 -0.798657570314288 0.5781576927242658
0.5032734375 -0.7972716798612214 0.5789055313570495
0.504421875 -0.7974320049219304 0.5811142470367648
0.5055703125 -0.7966677643865643 0.5831235521125067
0.50671875 -0.7953272780768237 0.5833629225696509
0.5078671875 -0.7944279576212931 0.5856239469377841
0.509015625 -0.7936310014101902 0.5865182118373073
0.5101640625 -0.7923514868882473 0.5876368881933198
0.5113125 -0.7917905926824614 0.5895536875869476
0.5124609375 -0.7905679422513074 0.5901513920967602
0.513609375 -0.7902778335646338 0.5916409056871613
0.5147578125 -0.7900724331172742 0.5931641631904467
0.51590625 -0.7889706839070685 0.5935691754321123
0.5170546875 -0.788066870379279 0.5951606109951175
0.518203125 -0.7867247152538248 0.5966197074630443
0.5193515625 -0.7859535321020407 0.5975109559601308
0.5205 -0.7847515109833294 0.5979193867667509
0.5216484375 -0.7839080578468796 0.6004333679522004
0.522796875 -0.7825569201518014 0.6029642537680187
0.5239453125 -0.7814901627995212 0.6039022294293455
0.52509375 -0.7812484166419966 0.6048095032733414
0.5262421875 -0.7806747798492426 0.6053894819758563
0.527390625 -0.7792586281546698 0.6068053711856869
0.5285390625 -0.7784851616527205 0.6081184423946985
0.5296875 -0.7778340858294176 0.6094400861256408
0.5308359375 -0.7767315943750861 0.6106507623279905
0.531984375 -0.7761678128651281 0.6123423791061313
0.5331328125 -0.7751430303186015 0.6132592610752834
0.53428125 -0.7740065842108166 0.6148866741023459
0.5354296875 -0.773236899300203 0.6160571136708761
0.536578125 -0.7725305614251208 0.6172560179830648
0.5377265625 -0.7716446139049216 0.6188637990939683
0.538875 -0.7700913871358346 0.6201127313770165
0.5400234375 -0.7694591907565924 0.6213091571809812
0.541171875 -0.7685442266729139 0.6228149306939411
0.5423203125 -0.7673712581957179 0.6239456022221058
0.54346875 -0.7668638306931028 0.6247456672793494
0.5446171875 -0.766027353798786 0.6266151122940815
0.545765625 -0.7654329961663793 0.6276288472515819
0.5469140625 -0.7643612544685097 0.6285143603594041
0.5480625 -0.7636580823767772 0.6296511604793373
0.5492109375 -0.7624769523557307 0.6311909966098117
0.550359375 -0.7613523259183076 0.6324665090465873
0.5515078125 -0.7604660767190995 0.6333252084875637
0.55265625 -0.7596044013919593 0.6346559614502314
0.5538046875 -0.7582668819006277 0.6355857795820464
0.554953125 -0.7570000254657313 0.6372659501972371
0.5561015625 -0.7561547789144518 0.6385637446368496
0.55725 -0.7551702775806475 0.6396152266458908
0.5583984375 -0.7543878939697131 0.6410053326617211
0.559546875 -0.7531756819972659 0.6425022350744035
0.5606953125 -0.7527319382686259 0.6439536755862048
0.56184375 -0.7517420729206072 0.6448109057411753
0.5629921875 -0.7496700858519433 0.6457604432712629
0.564140625 -0.7493132766845993 0.6471569099698435
0.5652890625 -0.7484093550158557 0.6481862380561998
0.5664375 -0.7468121595029994 0.6495925670858771
0.5675859375 -0.7462590175610202 0.6508281183556508
0.568734375 -0.7450454761496438 0.6515029496245529
0.5698828125 -0.7447312224100533 0.6519242454856273
0.57103125 -0.7430868812188804 0.6543299021642301
0.5721796875 -0.742160495920611 0.6552667645999248
0.573328125 -0.7409492234406874 0.656367073359014
0.5744765625 -0.7399197822920804 0.6574799179273891
0.575625 -0.7388913311906155 0.6592302080424488
0.5767734375 -0.7375515571070193 0.6609063554860193
0.577921875 -0.7367516568003836 0.6621285516647046
0.5790703125 -0.7353475872855002 0.6627592969697794
0.58021875 -0.7342300830234786 0.6639423881697465
0.5813671875 -0.7338017799929387 0.6645907891222282
0.582515625 -0.7320934059735613 0.666286685225363
0.5836640625 -0.7314298361605904 0.6677153189408487
0.5848125 -0.7304301524355458 0.6684118397175833
0.5859609375 -0.7287568728980235 0.6704615302621103
0.587109375 -0.7281378044630333 0.6708595120517327
0.5882578125 -0.7266019489228532 0.6728302188835636
0.58940625 -0.7258764413904807 0.6735861188344378
0.5905546875 -0.7250692985702442 0.6748279849293957
0.591703125 -0.7242143931973535 0.6756195720181633
0.5928515625 -0.7233019115652972 0.6766340783837458
0.594 -0.7222311274337259 0.678028515254957
0.5951484375 -0.7218153173876264 0.679413520391353
0.596296875 -0.7203919198405322 0.6801345873433702
0.5974453125 -0.7192516604645565 0.6810803961576736
0.59859375 -0.7193474372038449 0.6823971681188007
0.5997421875 -0.717077151831585 0.683586806621112
0.600890625 -0.7167318863470036 0.6846774433204472
0.6020390625 -0.7157703437330132 0.685814329199555
0.6031875 -0.7148738122376186 0.6870045665511602
0.6043359375 -0.7140957851382052 0.6881470904861071
0.605484375 -0.7133109619759408 0.6892822618219026
0.6066328125 -0.7124611138725718 0.6901908737030029
0.60778125 -0.7123298065509369 0.6910889115624465
0.6089296875 -0.7116467876631372 0.6912671125262473
0.610078125 -0.7104701752976836 0.6918002335337673
0.6112265625 -0.7089072564050385 0.6928519618014612
0.612375 -0.7073990671725398 0.6943512513262187
0.6135234375 -0.7064919746737548 0.6955268323178054
0.614671875 -0.7053921213027369 0.6963752271164316
0.6158203125 -0.7044533290534782 0.6971545041392427
0.61696875 -0.7034112589758057 0.6978877285297915
0.6181171875 -0.7029734726529134 0.6992325023406472
0.619265625 -0.7018827897615796 0.7004598607892948
0.6204140625 -0.7011539417540829 0.7016006762193318
0.6215625 -0.6995042170414738 0.7024566462839741
0.6227109375 -0.6993252815618336 0.7028968403935558
0.623859375 -0.6981158768315398 0.7042377393259383
0.6250078125 -0.6975217172524969 0.705372960060002
0.62615625 -0.696267439312292 0.7061147635930125
0.6273046875 -0.69557276541937 0.7065182349274914
0.628453125 -0.6950757607057829 0.7079731164566252
0.6296015625 -0.6936179152197979 0.71132997357865
0.63075 -0.6927231101310118 0.7101179439481854
0.6318984375 -0.6917278909218656 0.7113268621144959
0.633046875 -0.6903492940452195 0.7123100480088442
0.6341953125 -0.6875912040444733 0.712747135976204
0.63534375 -0.688204808533973 0.7113487306057606
0.6364921875 -0.687725589037445 0.7144078858910737
0.637640625 -0.6863529653478069 0.7159113329282343
0.6387890625 -0.6843729507672236 0.7149608033260269
0.6399375 -0.684062086056752 0.718037164094497
0.6410859375 -0.6836342695553752 0.718144091663904
0.642234375 -0.6803275183939885 0.7199455825767189
0.6433828125 -0.6795041763187946 0.7216182640745379
0.64453125 -0.6797130398367519 0.7216626837063169
0.6456796875 -0.6786417997268772 0.723396940192415
0.646828125 -0.6776981297387834 0.7230780270563543
0.6479765625 -0.6773374663769579 0.7239885617557497
0.649125 -0.675541818158717 0.7255321459770772
0.6502734375 -0.6743029349758728 0.7268007134218917
0.651421875 -0.6728833381988935 0.7300589887793081
0.6525703125 -0.672770625089163 0.7293483094705878
0.65371875 -0.672378200790999 0.7306162248970534
0.6548671875 -0.6718947358906524 0.7308463050530555
0.656015625 -0.6695101622527826 0.7311405427275175
0.6571640625 -0.6686043096833735 0.7327952091580094
0.6583125 -0.6668418885024128 0.7332802776198131
0.6594609375 -0.667290612962928 0.7351505667843944
0.660609375 -0.6660873535286114 0.7353555751964438
0.6617578125 -0.6638258244203368 0.7369919070170067
0.66290625 -0.6629867154974742 0.7380763417664082
0.6640546875 -0.6619405748721979 0.739740457174194
0.665203125 -0.6611629092270824 0.7405082727520306
0.6663515625 -0.6601661483877074 0.7407553419779057
0.6675 -0.6591395777982929 0.7426040933769533
0.6686484375 -0.6586298689282527 0.7428221341838714
0.669796875 -0.6573487185777187 0.7437309268163017
0.6709453125 -0.6543299591591412 0.7448760665581267
0.67209375 -0.6546416688684112 0.7461573071417933
0.6732421875 -0.6535726561325652 0.7472911897953594
0.674390625 -0.6528154394254089 0.7482719580764341
0.6755390625 -0.651644901761784 0.7489990016506615
0.6766875 -0.6504673974355009 0.7495699428376896
0.6778359375 -0.6495758197746277 0.7507869530731128
0.678984375 -0.6482386985566295 0.7519539772248964
0.6801328125 -0.6469877897864375 0.752595334528617
0.68128125 -0.6458226715348285 0.7537942531714762
0.6824296875 -0.6446308386605164 0.7545903815083564
0.683578125 -0.6438518443889893 0.7560160491490171
0.6847265625 -0.6421160662813792 0.7570204287195323
0.685875 -0.6410645795078737 0.7581380068909485
0.6870234375 -0.6399356293283464 0.7592347991351795
0.688171875 -0.6386430639758148 0.7601875160416638
0.6893203125 -0.6375596101702312 0.7611329309500716
0.69046875 -0.6365321982660959 0.762271371874713
0.6916171875 -0.6353010586868368 0.763165632980875
0.692765625 -0.6339841487019434 0.7641081290089204
0.6939140625 -0.6327922129043471 0.765192452509465
0.6950625 -0.6315362169962786 0.7657281921000799
0.6962109375 -0.6303517258275828 0.7674064558372424
0.697359375 -0.6293128908356578 0.7683164208408435
0.6985078125 -0.6278837949020287 0.7696329840908275
0.69965625 -0.6267010075811036 0.7705151139732184
0.7008046875 -0.6252674830100632 0.7715664535147105
0.701953125 -0.6239160471886637 0.7718729544466711
0.7031015625 -0.6229616481488859 0.7732474527439751
0.70425 -0.621342082725788 0.774361486226002
0.7053984375 -0.6205807194326701 0.774624566766291
0.706546875 -0.619327577413637 0.7768539098647106
0.7076953125 -0.6175374664595601 0.7778611343315731
0.70884375 -0.6167768668599631 0.7790411893301472
0.7099921875 -0.6156808488362987 0.7802891394679901
0.711140625 -0.6148231547744278 0.7805808017325813
0.7122890625 -0.6129289444344876 0.7822591740822953
0.7134375 -0.6112872537361019 0.7829518279508911
0.7145859375 -0.6102153943293673 0.784126422998864
0.715734375 -0.6087929732158184 0.7853263547552293
0.7168828125 -0.6078113877027981 0.7859780780244167
0.71803125 -0.605895970001159 0.7870598603350598
0.7191796875 -0.6053637361946843 0.7871562085536175
0.720328125 -0.6037405356576439 0.7890218835915126
0.7214765625 -0.6024232865378265 0.7894211517094064
0.722625 -0.6012209632556569 0.7907144235972161
0.7237734375 -0.5989628870138438 0.7920502291903998
0.724921875 -0.5987383117789435 0.7925952779824925
0.7260703125 -0.5974937435376615 0.7936582549310247
0.72721875 -0.5960767790049624 0.7947407548391205
0.7283671875 -0.594768066306341 0.7962359023904979
0.729515625 -0.5938244341153534 0.7970554886917246
0.7306640625 -0.592958718840617 0.7983048202473437
0.7318125 -0.5909855087642834 0.7991111616465432
0.7329609375 -0.5900553183151733 0.8000955587613509
0.734109375 -0.5891227996292141 0.8009776843550505
0.7352578125 -0.5877774894455935 0.80210069691056
0.73640625 -0.5865407234953404 0.802566290774101
0.7375546875 -0.5853105167800895 0.8036542360277459
0.738703125 -0.5842023101373774 0.8047029087636066
0.7398515625 -0.5829405620626695 0.8055895729983293
0.741 -0.581457538663636 0.8063923889109392
0.7421484375 -0.5799547762721011 0.8069602347851501
0.743296875 -0.5783705364484512 0.8079512111973876
0.7444453125 -0.5770320795024639 0.8092285042505584
0.74559375 -0.5757493977236271 0.8105687085485215
0.7467421875 -0.5746890043291171 0.8118280886291227
0.747890625 -0.5742195103737229 0.8122850856376559
0.7490390625 -0.573261505870491 0.8129153264359892
0.7501875 -0.5719024634346357 0.8135517524578543
0.7513359375 -0.5707071818027569 0.8141567718196596
0.752484375 -0.5689224498396912 0.8148099942818647
0.7536328125 -0.5676117912659946 0.81557099760486
0.75478125 -0.5665201366397813 0.8162839461945023
0.7559296875 -0.5650990069816897 0.8173747755545087
0.757078125 -0.5636251119221318 0.8180805348006368
0.7582265625 -0.5627847385321888 0.819168761733891
0.759375 -0.5618074067713523 0.820320064781178
0.7605234375 -0.5600690219775017 0.8202450608478384
0.761671875 -0.5579536375254304 0.8207952739683347
0.7628203125 -0.5583404498797303 0.8221751497172344
0.76396875 -0.556632536859415 0.8231942335976936
0.7651171875 -0.5550210309076353 0.8237085867565197
0.766265625 -0.554508338289134 0.8248764251945009
0.7674140625 -0.5525429279754854 0.8261256898968103
0.7685625 -0.5503864671609269 0.8266678057783589
0.7697109375 -0.5498380468440194 0.8268758795719751
0.770859375 -0.5486797326856261 0.8278246006706569
0.7720078125 -0.5476936243168303 0.8282840175290297
0.77315625 -0.5452488723280121 0.8302480880414107
0.7743046875 -0.5448814183931545 0.8309589998172521
0.775453125 -0.5436958247618162 0.8318572603187684
0.7766015625 -0.5418934299641076 0.8311193754982259
0.77775 -0.5416465987449959 0.8333617473933037
0.7788984375 -0.5391533563236139 0.8343433372575149
0.780046875 -0.5378276851660819 0.8352556190190508
0.7811953125 -0.5370446399791488 0.835136532744406
0.78234375 -0.5356029723820805 0.8377136705317152
0.7834921875 -0.5344893128598154 0.8378314060803678
0.784640625 -0.5328077853725872 0.838764547004147
0.7857890625 -0.5321289503218772 0.8392441894059601
0.7869375 -0.5310467159699753 0.8402050721544534
0.7880859375 -0.5301105029383295 0.8406161283858928
0.789234375 -0.5288029208039048 0.8420953775784366
0.7903828125 -0.5270759275821748 0.8436783664355187
0.79153125 -0.5262663082402034 0.843763760786166
0.7926796875 -0.5254687541518029 0.8436420540776828
0.793828125 -0.5239879011198488 0.8454488542006846
0.7949765625 -0.5223040414621785 0.8456009549816854
0.796125 -0.521612403324268 0.8470332815600743
0.7972734375 -0.5207904432197236 0.8479253181168636
0.798421875 -0.5193712618125716 0.8485973995272176
0.7995703125 -0.5179813140902358 0.849742916289064
0.80071875 -0.5171265985738158 0.8500749140739907
0.8018671875 -0.5153216954755417 0.850898944049748
0.803015625 -0.5145390596754892 0.8515022037503541
0.8041640625 -0.512943096694673 0.8518540822543342
0.8053125 -0.5112367867217106 0.8522084135059863
0.8064609375 -0.5092390628606099 0.8536040301107869
0.807609375 -0.5079496845288705 0.8547872487733611
0.8087578125 -0.5071951944541363 0.8566511020940258
0.80990625 -0.5065082635096555 0.8578605758096431
0.8110546875 -0.5065124302908801 0.8583733583193378
0.812203125 -0.5058099985246027 0.8587950481492335
0.8133515625 -0.504856652371566 0.8593159202606696
0.8145 -0.5036729883181783 0.8593536427235962
0.8156484375 -0.5026795775433903 0.8601323821011437
0.816796875 -0.5015531878401457 0.8600321543552731
0.8179453125 -0.5005138373424473 0.8615798244670053
0.81909375 -0.4996935789510145 0.8619257294629726
0.8202421875 -0.49737607147678753 0.8630447575284116
0.821390625 -0.49722823447982234 0.8634150111675025
0.8225390625 -0.49600291196391477 0.8643045969092661
0.8236875 -0.49440235903349206 0.8643888532572372
0.8248359375 -0.49249033316253954 0.8652311090891442
0.825984375 -0.4917032978151348 0.8661542469114977
0.8271328125 -0.49010779450021213 0.8662322797785602
0.82828125 -0.4885532102230472 0.8667091432709625
0.8294296875 -0.4887105614528631 0.8681508453891711
0.830578125 -0.4861398353841366 0.8688006634399614
0.8317265625 -0.48504009638378975 0.8683817258570069
0.832875 -0.4841431131644134 0.8695311361568222
0.8340234375 -0.4823204421135219 0.870891458479579
0.835171875 -0.48034975438771244 0.8708045297779657
0.8363203125 -0.479480208244929 0.871512794551891
0.83746875 -0.4768939598033459 0.8736449808889085
0.8386171875 -0.4763848928608424 0.8724881082241076
0.839765625 -0.4740136020300344 0.8731096103465953
0.8409140625 -0.4724643502682327 0.8741403460294644
0.8420625 -0.47317951618406207 0.8742808292866002
0.8432109375 -0.4708283241234954 0.874950972011078
0.844359375 -0.47023045266434393 0.8771858594074691
0.8455078125 -0.4681799666322971 0.8779600662803281
0.84665625 -0.46724174392420076 0.8773541620893035
0.8478046875 -0.4658911197442964 0.8791551453119335
0.848953125 -0.4639510087187042 0.8792103150985635
0.8501015625 -0.46198294666817236 0.8791830526410799
0.85125 -0.45985894377571324 0.8791781425915711
0.8523984375 -0.45950707657518053 0.881673546350189
0.853546875 -0.4582279938480768 0.8818263258989278
0.8546953125 -0.45716067108170405 0.8839041032655269
0.85584375 -0.4559971279398972 0.8847106186427868
0.8569921875 -0.4542845903241588 0.8852123912355213
0.858140625 -0.453456229917935 0.8876165358635115
0.8592890625 -0.450751945211778 0.8872257616097668
0.8604375 -0.45071544533068125 0.887814144868244
0.8615859375 -0.4485991007681282 0.8877321417484345
0.862734375 -0.4469125634413303 0.8892149209252841
0.8638828125 -0.44596357296941014 0.8904639459848228
0.86503125 -0.444211280264838 0.8910755485451182
0.8661796875 -0.44315468563966065 0.8919828106507113
0.867328125 -0.44030874796138636 0.8926790172079464
0.8684765625 -0.4394031166580496 0.8936360868709273
0.869625 -0.43785816077252426 0.8950625157996747
0.8707734375 -0.4368986677641185 0.895241115649029
0.871921875 -0.43572034238014007 0.8953740043031447
0.8730703125 -0.4342216853050703 0.8966250322348979
0.87421875 -0.4330595397518056 0.8967664292872444
0.8753671875 -0.4307984259467793 0.897565407226969
0.876515625 -0.43012971070805606 0.8982781777394908
0.8776640625 -0.4289165247206726 0.8991932815840096
0.8788125 -0.4281797063491192 0.9005121225017838
0.8799609375 -0.42640990457867334 0.9011004200912932
0.881109375 -0.4253561958349753 0.9014935249991974
0.8822578125 -0.4240541733781338 0.903110669999253
0.88340625 -0.42250716842122 0.9035046776376968
0.8845546875 -0.4215940411944964 0.9039178666397067
0.885703125 -0.4198768544770456 0.9051900485212645
0.8868515625 -0.41839334383358334 0.9053171213803046
0.888 -0.4180309519959568 0.90630921369968
0.8891484375 -0.4171035038079597 0.9071674189327633
0.890296875 -0.41554605731593963 0.9076972353836326
0.8914453125 -0.4143915646501154 0.9076738259555053
0.89259375 -0.4130195382985752 0.908327095584626
0.8937421875 -0.41148158767961385 0.9082791655073258
0.894890625 -0.40998636908684893 0.9091286609161935
0.8960390625 -0.40910246784009774 0.9095457870601276
0.8971875 -0.40739216640756115 0.9101611486772373
0.8983359375 -0.40563454215661954 0.9109888606029244
0.899484375 -0.40483521837892245 0.9112118103804427
0.9006328125 -0.40282470059847353 0.911066756767048
0.90178125 -0.40187949888919583 0.9114671949025405
0.9029296875 -0.40000807365801117 0.9130580498871675
0.904078125 -0.3982439471451117 0.9121380475618514
0.9052265625 -0.39719431984035264 0.913003980948133
0.906375 -0.3961320904019111 0.9132259793452099
0.9075234375 -0.39427340415017276 0.9135284598846836
0.908671875 -0.3927493290978189 0.9139216583090027
0.9098203125 -0.39121286265813915 0.9148563637775357
0.91096875 -0.39015806221936744 0.9159727521373874
0.9121171875 -0.3885392152407423 0.915074435246917
0.913265625 -0.3870875094805477 0.9163842581746663
0.9144140625 -0.3848804779937629 0.9178173101823435
0.9155625 -0.3836294897150525 0.9179094018852206
0.9167109375 -0.38173048365152257 0.9183064150663341
0.917859375 -0.3813492452752916 0.9186796482883488
0.9190078125 -0.37884930024173635 0.919979536299575
0.92015625 -0.37792855502534023 0.9203976410898221
0.9213046875 -0.37682763756375837 0.9216422722157435
0.922453125 -0.3749461108240907 0.9217974413529153
0.9236015625 -0.37352916405788134 0.9216178653878804
0.92475 -0.3716729162655686 0.922092703041783
0.9258984375 -0.37028742219003025 0.9226239715162047
0.927046875 -0.3682612865095771 0.9234515682086678
0.9281953125 -0.36622249225243353 0.9238992817647642
0.92934375 -0.3650367008093189 0.924405282189897
0.9304921875 -0.36395067813948373 0.9246258307111133
0.931640625 -0.3620998014411333 0.9252999558709757
0.9327890625 -0.36048613234127963 0.9260143636907447
0.9339375 -0.3593813747531413 0.9264347663597746
0.9350859375 -0.3577425862548975 0.9265373668646073
0.936234375 -0.3562026314123428 0.9268565089845431
0.9373828125 -0.35430033037626374 0.9271416762113137
0.93853125 -0.3519010605920361 0.9285984512246166
0.9396796875 -0.35051574637370314 0.9291266974643657
0.940828125 -0.3492458857024938 0.9299752216329111
0.9419765625 -0.34818309661293595 0.9303505174101425
0.943125 -0.3464929328853641 0.9307139578690207
0.9442734375 -0.3455155704631305 0.931249893622096
0.945421875 -0.34351154728199884 0.9323210124935347
0.9465703125 -0.3418012989938944 0.9335818594129223
0.94771875 -0.34138493955352933 0.9338395857094157
0.9488671875 -0.3387549520654812 0.9352233929465535
0.950015625 -0.3379765479570557 0.9350929940441206
0.9511640625 -0.3372145266123089 0.9362520013360163
0.9523125 -0.33733937160399496 0.9379034535372635
0.9534609375 -0.3353972944015667 0.9381979925161266
0.954609375 -0.33365628642509143 0.9382848259038297
0.9557578125 -0.333179740358584 0.9395310639078494
0.95690625 -0.3312315946492116 0.9397994948762995
0.9580546875 -0.330536899525003 0.9411888792021372
0.959203125 -0.3291226682985823 0.9418811772164051
0.9603515625 -0.3285057080843429 0.9420472654928171
0.9615 -0.32585585689572866 0.9412263948274968
0.9626484375 -0.32499116528780997 0.9411872940049768
0.963796875 -0.3240740232594551 0.9429323553762593
0.9649453125 -0.3239616538017664 0.9432415100952217
0.96609375 -0.32199180966956076 0.9436158487363024
0.9672421875 -0.31939156311661543 0.9451347159206704
0.968390625 -0.3173894468742446 0.9445876996856544
0.9695390625 -0.31661127226238783 0.945164751205468
0.9706875 -0.3167248091782914 0.946161108993458
0.9718359375 -0.3157922452738185 0.9460156211900119
0.972984375 -0.314161031028218 0.9470826520693242
0.9741328125 -0.3122538097295761 0.9470597989981022
0.97528125 -0.31004159971486644 0.9471166893970292
0.9764296875 -0.30963862821790944 0.947840045551974
0.977578125 -0.3090329376587074 0.9477239500064528
0.9787265625 -0.3085209889286768 0.9471651262182388
0.979875 -0.3069405571986537 0.9473433039326034
0.9810234375 -0.30537165623613527 0.9476926605821545
0.982171875 -0.30339727264790023 0.9476892993596555
0.9833203125 -0.3023512952299601 0.9483587825850897
0.98446875 -0.30067251430488834 0.9485375555422464
0.9856171875 -0.2994974011354376 0.9510761381579038
0.986765625 -0.29753698036417753 0.9507260106242633
0.9879140625 -0.29738108531310076 0.9513483448695049
0.9890625 -0.2950797973645538 0.9520059670622598
0.9902109375 -0.2939546513416803 0.9519643778116559
0.991359375 -0.2926729483642788 0.9511199236539265
0.9925078125 -0.2917047217296326 0.9518889224280511
0.99365625 -0.29030704556800646 0.9518733328960094
0.9948046875 -0.28876184150322426 0.9522279495925647
0.995953125 -0.2867641245924733 0.9531124456044677
0.9971015625 -0.2853025008559897 0.9537142032717507
0.99825 -0.2839621988256859 0.9538340164622073
0.9993984375 -0.2827998056080745 0.9536694864481967
1.000546875 -0.2814684797058276 0.953842648082034
1.0016953125 -0.2799136994417846 0.954528006974136
1.00284375 -0.278658145136134 0.9544402133981321
1.0039921875 -0.2770812096593721 0.9550081871681364
1.005140625 -0.275446106225162 0.9549215922077945
1.0062890625 -0.27289934681528716 0.9550153773702402
1.0074375 -0.2721360164622043 0.9557949181339874
1.0085859375 -0.26977574299363916 0.9560806757109053
1.009734375 -0.26901187221625167 0.9568603222946734
1.0108828125 -0.2671266789647636 0.9570070889724456
1.01203125 -0.26563735514786624 0.9573775927905817
1.0131796875 -0.26453971026903633 0.9580886369143699
1.014328125 -0.26290413279486324 0.9584455293000478
1.0154765625 -0.26135572888748876 0.9588156950197002
1.016625 -0.25997715204652205 0.9594339060223793
1.0177734375 -0.25841108819346004 0.9601878299389877
1.018921875 -0.2575204374846284 0.961698993401759
1.0200703125 -0.2560129089378075 0.9616674915961725
1.02121875 -0.25489456289256296 0.961757654057011
1.0223671875 -0.2528614102060635 0.9628717591977208
1.023515625 -0.2520118549817152 0.9633705286710609
1.0246640625 -0.25055548381219694 0.9643840641811541
1.0258125 -0.24922206000700428 0.9648614606611019
1.0269609375 -0.24790728667130904 0.9649189968285347
1.028109375 -0.2466367771471544 0.9655202329275543
1.0292578125 -0.24477028505409376 0.965730219349026
1.03040625 -0.24348312275805767 0.9652765548989051
1.0315546875 -0.24167733275959077 0.9661997285952868
1.032703125 -0.24125844451567216 0.9653445486665022
1.0338515625 -0.23935003097235966 0.9664430720237873
1.035 -0.2378510002246769 0.9665739063789103
1.0361484375 -0.2366947969977522 0.9677548785453148
1.037296875 -0.2351286706437875 0.9676945976160205
1.0384453125 -0.23295871252067743 0.9674347000372585
1.03959375 -0.23255437853304434 0.9681848200290151
1.0407421875 -0.2315922615561701 0.968940538638381
1.041890625 -0.22980828534918074 0.9693301432954601
1.0430390625 -0.2288303957812211 0.9680262655964105
1.0441875 -0.22661491983040183 0.9689865960547269
1.0453359375 -0.22568639614148878 0.9693843874858287
1.046484375 -0.223995669629675 0.9697676390556015
1.0476328125 -0.22184931785741663 0.9705520489411646
1.04878125 -0.22049117175160937 0.9712636344030954
1.0499296875 -0.21890220981703862 0.9713641459642743
1.051078125 -0.216569257652948 0.9707554609998631
1.0522265625 -0.2158678124338962 0.9719241853962354
1.053375 -0.2129105358159912 0.9723351752731768
1.0545234375 -0.21360231334017915 0.9716095696929752
1.055671875 -0.2116149344388554 0.9727271545964089
1.0568203125 -0.21053566007099916 0.9723362512145575
1.05796875 -0.20863007470789335 0.9727092536300957
1.0591171875 -0.20697114973381142 0.9729552315012516
1.060265625 -0.20570008110792112 0.9729860308142402
1.0614140625 -0.2047402177365852 0.973627577609956
1.0625625 -0.20306506149539236 0.974458004599542
1.0637109375 -0.2013337032802373 0.9737661490432005
1.064859375 -0.19952665158419308 0.973871846887744
1.0660078125 -0.1989457098434666 0.9743653584258297
1.06715625 -0.19736829444839601 0.9748992243845425
1.0683046875 -0.19506958484667092 0.9754662402247378
1.069453125 -0.1932178418735298 0.9748938108793912
1.0706015625 -0.19210032225623558 0.9744460128422506
1.07175 -0.19076526646221736 0.9746741863914514
1.0728984375 -0.18882230673925274 0.9747866036847296
1.074046875 -0.18729204492846535 0.9753354037414169
1.0751953125 -0.18532812935468929 0.9764164968142892
1.07634375 -0.18425066577912705 0.9760900615455727
1.0774921875 -0.18313042285970146 0.9763726326896564
1.078640625 -0.18206032520597618 0.9767328231357033
1.0797890625 -0.17999120829771134 0.9764773797694191
1.0809375 -0.1785523463219708 0.9765918477932065
1.0820859375 -0.1762825126987474 0.9767486582692915
1.083234375 -0.17468061391168344 0.9773363574095406
1.0843828125 -0.17336852360478386 0.9779033420080864
1.08553125 -0.17138921439109037 0.9775855937335977
1.0866796875 -0.17030791421807978 0.9788588541685659
1.087828125 -0.1688730465145749 0.9793367873642277
1.0889765625 -0.16686880905281293 0.9789760630376232
1.090125 -0.16489615315759315 0.9789005946103488
1.0912734375 -0.16385990648762264 0.9800102137180462
1.092421875 -0.16311825395960178 0.9802577101710317
1.0935703125 -0.1615853042383658 0.9811576186791446
1.09471875 -0.15962009308766364 0.9806035628901559
1.0958671875 -0.15908038191551094 0.9818031742997714
1.097015625 -0.15728865538156994 0.9810003494730501
1.0981640625 -0.15548461255928547 0.9815869915885421
1.0993125 -0.15455022138625502 0.9821262003513055
1.1004609375 -0.15214073494820143 0.9822731637156125
1.101609375 -0.15062585043474847 0.9819494627381735
1.1027578125 -0.1494261422066253 0.9814315389034303
1.10390625 -0.14778492772920135 0.9818907416659192
1.1050546875 -0.1457650745234839 0.9816783246845309
1.106203125 -0.14478172814218393 0.9824611132275193
1.1073515625 -0.14321757563823823 0.9829217518821323
1.1085 -0.14207209475314264 0.9825152584341549
1.1096484375 -0.14096473708974033 0.9830922869620848
1.110796875 -0.13950341073508704 0.9833564792348328
1.1119453125 -0.13767479259426513 0.983856780977388
1.11309375 -0.1359369965222949 0.9849031693956825
1.1142421875 -0.13586646055873414 0.9845052529740549
1.115390625 -0.1345170488945987 0.9844367441381523
1.1165390625 -0.1326624577829031 0.9851733259627398
1.1176875 -0.1313344698632537 0.9860490218221232
1.1188359375 -0.12947710024965847 0.9858888257189913
1.119984375 -0.12950416738740225 0.9862380905931448
1.1211328125 -0.12736294154287658 0.9861178760340684
1.12228125 -0.12618416598693055 0.9858821030866457
1.1234296875 -0.12417374813246934 0.9866842139915586
1.124578125 -0.12277868779276471 0.9867391534898284
1.1257265625 -0.12209526578711334 0.9866072829354752
1.126875 -0.12117429508791436 0.9874913926832218
1.1280234375 -0.11947572827482665 0.9873631540514445
1.129171875 -0.11808724625833539 0.9871997584668721
1.1303203125 -0.11694694594160901 0.9868794346042379
1.13146875 -0.11604303616426852 0.9873306289055022
1.1326171875 -0.11446242059092508 0.987083928462622
1.133765625 -0.11308803495462089 0.986936743591527
1.1349140625 -0.11156724579155303 0.9867617999487717
1.1360625 -0.10969399426074769 0.9866797304732887
1.1372109375 -0.10795467238661387 0.9868059933364136
1.138359375 -0.1068619431087004 0.9868063123320768
1.1395078125 -0.10543758923054063 0.9872261470734063
1.14065625 -0.10425702451880545 0.987578799043469
1.1418046875 -0.1024941393755966 0.9877174598415157
1.142953125 -0.10133167379435853 0.9878475931164828
1.1441015625 -0.0997657959088154 0.9872024082626376
1.14525 -0.09822643404666595 0.988457602817426
1.1463984375 -0.09716495222295853 0.9880354374155407
1.147546875 -0.09627628274674885 0.9885089693790602
1.1486953125 -0.09481779577930452 0.989181617542734
1.14984375 -0.09476913145340068 0.9893034585558734
1.1509921875 -0.09251537573965536 0.9892964197859402
1.152140625 -0.091080988657543 0.9890006752037406
1.1532890625 -0.08909176329952892 0.9889071501578808
1.1544375 -0.08797069327759201 0.9891120699899745
1.1555859375 -0.08698582499952784 0.9906512355005642
1.156734375 -0.08591084824350803 0.9905501923146292
1.1578828125 -0.08402630693206478 0.9912249367895515
1.15903125 -0.08287519796523843 0.9903879012125494
1.1601796875 -0.08157812241982061 0.9909494192104012
1.161328125 -0.08076337300175153 0.9903468260491379
1.1624765625 -0.0786976256075605 0.9907640627540066
1.163625 -0.07755865213006337 0.990821180948378
1.1647734375 -0.07676534845775121 0.9903780657177103
1.165921875 -0.07426631703538508 0.9906256361306436
1.1670703125 -0.07252762742475237 0.9911501084838261
1.16821875 -0.07286642568501923 0.9918308379934185
1.1693671875 -0.07086787666715119 0.9906478524249857
1.170515625 -0.0707746879637064 0.9908543495923716
1.1716640625 -0.06803068860689936 0.9898181529655822
1.1728125 -0.06744779005548227 0.9911282331998109
1.1739609375 -0.06627988402776978 0.9906386638396469
1.175109375 -0.06465352459375019 0.9916647533774939
1.1762578125 -0.06252508791345252 0.9908151682823562
1.17740625 -0.06129014203818814 0.9907218939992619
1.1785546875 -0.059647348809331036 0.9908050824355116
1.179703125 -0.058365991341221723 0.9910274596174797
1.1808515625 -0.057689790618422304 0.9894794815203068
1.182 -0.0557981516816318 0.9898859958302142
1.1831484375 -0.053906363090271775 0.9901833013663067
1.184296875 -0.05255539405284171 0.9890152240973675
1.1854453125 -0.05155600719227152 0.9902825736338394
1.18659375 -0.05034737716117155 0.9899654376955465
1.1877421875 -0.04845559168484931 0.9895651042226152
1.188890625 -0.04730047807876375 0.9903347991254244
1.1900390625 -0.046207725142109746 0.9898209909158766
1.1911875 -0.04374487092393134 0.9902131529963834
1.1923359375 -0.04251633735539073 0.9901039272226301
1.193484375 -0.041183951724475615 0.9901086157351517
1.1946328125 -0.039331238158010956 0.9908319794274477
1.19578125 -0.03769048931190069 0.9907105585892841
1.1969296875 -0.03619957636305923 0.990857086976126
1.198078125 -0.035410467443872023 0.990568512794486
1.1992265625 -0.0338395285716212 0.9905582475308775
1.200375 -0.032103474251143044 0.989342050032238
1.2015234375 -0.030340715612071578 0.9892273084483867
1.202671875 -0.02881953195425882 0.9895795581368327
1.2038203125 -0.027564405527178898 0.989563359366768
1.20496875 -0.02500394274762291 0.9891628964266814
1.2061171875 -0.023901030213505814 0.9890434724151719
1.207265625 -0.021815745033408968 0.9896335710729075
1.2084140625 -0.020201501029727703 0.9892705579851144
1.2095625 -0.018917996033824713 0.9890674214921139
1.2107109375 -0.017135293987308953 0.9898908443727001
1.211859375 -0.016060140871513418 0.9898816271574856
1.2130078125 -0.014576809959946285 0.9899726643746486
1.21415625 -0.013207872725510883 0.9900694715394476
1.2153046875 -0.011091914502285416 0.9898109552068991
1.216453125 -0.009106419298223867 0.9896066346015454
1.2176015625 -0.007878464821527653 0.9899272547918889
1.21875 -0.006767207567968142 0.9904697859414023
1.2198984375 -0.005103815559581948 0.9911421561347523
1.221046875 -0.00395405903635801 0.990136519224406
1.2221953125 -0.0026176755859974865 0.9903708025338113
1.22334375 -0.0009333099971717829 0.9896005597199047
1.2244921875 0.0014681408941106255 0.9906720740739424
1.225640625 0.002736716338311296 0.9914740719572874
1.2267890625 0.004131849705517526 0.9902211155369318
1.2279375 0.00512790581268846 0.9916150946423504
1.2290859375 0.006625115431680123 0.9928382443872167
1.230234375 0.008193049942313346 0.9923274412068197
1.2313828125 0.009541232512456477 0.9931438977479738
1.23253125 0.010548031687158732 0.9930403481114628
1.2336796875 0.012278815414741906 0.9922747267697641
1.234828125 0.013742379353280654 0.9918630337009637
1.2359765625 0.015309339755657653 0.9921987508170346
1.237125 0.016097078781339258 0.9918441000247639
1.2382734375 0.017608359109403754 0.9910232228952356
1.239421875 0.01951556076071015 0.9919199448583627
1.2405703125 0.020516131388417375 0.9917581000036353
1.24171875 0.0216813674171865 0.9919941773174908
1.2428671875 0.023667558068942454 0.9919306016516208
1.244015625 0.024628119220922506 0.9915218107162761
1.2451640625 0.02622933540235331 0.9917421109786377
1.2463125 0.027462483188794115 0.9911827246161518
1.2474609375 0.029093747235704473 0.9917298166361619
1.248609375 0.03101357515060306 0.9917875915828601
1.2497578125 0.03193100051940892 0.9916207050770569
1.25090625 0.03325217741040112 0.9919077043869646
1.2520546875 0.03444661651257 0.9913638433374298
1.253203125 0.03591392804847926 0.9913875029505638
1.2543515625 0.036949164475599386 0.9907253107265519
1.2555 0.03815955403353767 0.9910040549208963
1.2566484375 0.039897314812311374 0.9903254561122603
1.257796875 0.041409704647647046 0.9902937801473094
1.2589453125 0.04307099186469976 0.9898770724697342
1.26009375 0.044936331944189986 0.98927776348008
1.2612421875 0.04626429483272247 0.9887915465807098
1.262390625 0.047670600407426746 0.9891036112625214
1.2635390625 0.0487445906239522 0.988674929502188
1.2646875 0.05019329178163527 0.9893321166102236
1.2658359375 0.05214942048454279 0.9893333641030979
1.266984375 0.05402774920599972 0.9893756379060619
1.2681328125 0.0547234692804973 0.9887055550504227
1.26928125 0.056040683755833015 0.9888880850824903
1.2704296875 0.057769182790444136 0.9890389634805723
1.271578125 0.058869890191159915 0.9885777753629827
1.2727265625 0.060646130640338324 0.9890654606952518
1.273875 0.061848321359719974 0.9881930864335201
1.2750234375 0.06309733727749896 0.9885941437163414
1.276171875 0.06451191088084614 0.9877300335229604
1.2773203125 0.06677853103528367 0.9875876462753684
1.27846875 0.06733280265979633 0.98682630499505
1.2796171875 0.06936245031577719 0.9868990427430457
1.280765625 0.07104425777894242 0.9857474235050133
1.2819140625 0.07251528139411421 0.9862842012996228
1.2830625 0.07336825638810024 0.9854473474173195
1.2842109375 0.07430456261453171 0.9856825805224768
1.285359375 0.07565313467068087 0.9853335513128324
1.2865078125 0.07701140309204188 0.9860916799290642
1.28765625 0.07953407630293108 0.9850575845870546
1.2888046875 0.08083075043263155 0.9859782023220296
1.289953125 0.08246873155595294 0.9859417860832692
1.2911015625 0.08395809928996584 0.9843712130237382
1.29225 0.08462689097135853 0.9861416607547524
1.2933984375 0.0864895403704232 0.9852843702103259
1.294546875 0.08805567325226912 0.9847435344091272
1.2956953125 0.08900675549802554 0.9853532270556995
1.29684375 0.09065357676349012 0.9853204965844041
1.2979921875 0.09174593694464174 0.9856842206335426
1.299140625 0.0932339303583726 0.9861109072490394
1.3002890625 0.09348112273910775 0.9852657763702329
1.3014375 0.09562441414373099 0.9853650296863044
1.3025859375 0.0967891827142439 0.9856637271108731
1.303734375 0.09789080941684486 0.9867154772175043
1.3048828125 0.09920354345512568 0.9862454872825862
1.30603125 0.10058190005043215 0.9849956167102234
1.3071796875 0.10271783533932487 0.9842654760779312
1.308328125 0.10335176740159485 0.9851612813518689
1.3094765625 0.10555104586516412 0.9855478720221957
1.310625 0.10700706358217801 0.9847520343621214
1.3117734375 0.1080402829367954 0.9841650800534416
1.312921875 0.10916502145482274 0.9837790678940421
1.3140703125 0.11021119920287147 0.9837459786836912
1.31521875 0.11082127313409798 0.9840259266805266
1.3163671875 0.11217106950545087 0.984074796386221
1.317515625 0.11351673144753244 0.9835267029573238
1.3186640625 0.11500780368500903 0.9839943707004255
1.3198125 0.11647435679377655 0.9832233665331533
1.3209609375 0.11803778526575387 0.9830871611791614
1.322109375 0.11891399925890542 0.9830486794670619
1.3232578125 0.12051145862125193 0.9832446360364457
1.32440625 0.1219874161650733 0.9832576367736738
1.3255546875 0.12312267995932923 0.9829551184154021
1.326703125 0.12433913947386219 0.9824012563963838
1.3278515625 0.12505850283666042 0.9822034090950191
1.329 0.12627722936104446 0.9818721395584593
1.3301484375 0.12788346525620503 0.9812976013276626
1.331296875 0.12957224618772273 0.9810053321400934
1.3324453125 0.13083861222234852 0.9805311788748268
1.33359375 0.1321224340274933 0.9806092316358966
1.3347421875 0.1337887641383088 0.9805328216203555
1.335890625 0.13516916615964497 0.9801337062022505
1.3370390625 0.13625605257658188 0.9793757778733456
1.3381875 0.13772384901324886 0.9792429556130972
1.3393359375 0.13919906910795765 0.9792453427238148
1.340484375 0.14061319317163395 0.9786656459044195
1.3416328125 0.14197472339758826 0.9789005160799156
1.34278125 0.1434879330957114 0.9783085038154127
1.3439296875 0.1446301727277815 0.9778584166340192
1.345078125 0.1451450378435798 0.9781745250018925
1.3462265625 0.14670919589333725 0.977031207389634
1.347375 0.1476299379312065 0.977334537515196
1.3485234375 0.14939924771609397 0.976852760983085
1.349671875 0.1510611209279864 0.9757159173918183
1.3508203125 0.15244914465193604 0.9767549848478015
1.35196875 0.15388639377732932 0.9759407229419501
1.3531171875 0.15548052713558994 0.9749650830901653
1.354265625 0.15640759996449882 0.9755729420906532
1.3554140625 0.1584027475630051 0.9751810183453755
1.3565625 0.16000230143252897 0.9748140846519173
1.3577109375 0.16117696274467508 0.97532726106319
1.358859375 0.16244877825502768 0.9746031408880224
1.3600078125 0.1634895290752133 0.9737726993331508
1.36115625 0.1654605031571953 0.9749707297176352
1.3623046875 0.16677886915738577 0.9742372490093242
1.363453125 0.1677803805971189 0.9737587445971596
1.3646015625 0.1691596695832691 0.9734591413220807
1.36575 0.1705599987389572 0.9743047051827601
1.3668984375 0.1726106471818537 0.9731840900399469
1.368046875 0.1733992567051052 0.972961949666084
1.3691953125 0.174803759275104 0.9733021220071216
1.37034375 0.17675623998573853 0.9719420611068497
1.3714921875 0.1774350203631272 0.9719215798701082
1.372640625 0.17874573873871413 0.9727974849363377
1.3737890625 0.18043708986523818 0.9725666666669335
1.3749375 0.1826650885931025 0.9723338026048024
1.3760859375 0.18386812021161286 0.9720597795698132
1.377234375 0.1840392783403017 0.9714707027252238
1.3783828125 0.18644214934110964 0.9713298966576127
1.37953125 0.1877246442512766 0.9706106293235636
1.3806796875 0.18938537471104694 0.970875934312456
1.381828125 0.19027162598412373 0.9702121646873367
1.3829765625 0.19196844584701467 0.9703785378892374
1.384125 0.1937818005034196 0.9694776681282303
1.3852734375 0.1950057304585563 0.969380256528188
1.386421875 0.1959239774226327 0.9688066400473563
1.3875703125 0.1970968427566108 0.9689837646109689
1.38871875 0.1985280649798714 0.9687257836254918
1.3898671875 0.20014997410475455 0.9681484672637622
1.391015625 0.20138223770649616 0.967795201560003
1.3921640625 0.20251165761492435 0.9677083763726803
1.3933125 0.20394653231667734 0.9671608644303354
1.3944609375 0.205652912715799 0.9669820192243757
1.395609375 0.20704203410155098 0.9671285992341292
1.3967578125 0.20842140018263006 0.966376664663241
1.39790625 0.20964132204825636 0.9660345566890506
1.3990546875 0.21087638167871464 0.9657881938756006
1.400203125 0.21232953010125744 0.9654442371136784
1.4013515625 0.21383633207352265 0.9651972753838365
1.4025 0.2152604303780591 0.9649054036767597
1.4036484375 0.21658006214035658 0.9644875127926421
1.404796875 0.21764592648749792 0.9639186304710925
1.4059453125 0.2191990066286154 0.9635754391946922
1.40709375 0.22065018394351715 0.963315898438537
1.4082421875 0.22222733807831946 0.962849119447648
1.409390625 0.22373456339896625 0.9626702916426525
1.4105390625 0.22507668122002056 0.9623283198413886
1.4116875 0.2264135516040518 0.9618486681032716
1.4128359375 0.22760835838666899 0.9611600739580096
1.413984375 0.22933047122999553 0.9611349770768547
1.4151328125 0.23096938773187276 0.9606685175906151
1.41628125 0.23209608824429684 0.9602520446975946
1.4174296875 0.2335194514591132 0.9600235813920993
1.418578125 0.23453763341242934 0.9599222079617279
1.4197265625 0.2363183841519395 0.959506224307799
1.420875 0.2376102326027251 0.9592724369901764
1.4220234375 0.239374622411956 0.958801291970123
1.423171875 0.2406364446736215 0.9583997123979832
1.4243203125 0.24158525247180743 0.958557250550744
1.42546875 0.24280981562402248 0.9570001029202486
1.4266171875 0.2446444449788312 0.9575432057170401
1.427765625 0.2461577312512656 0.9574115560469412
1.4289140625 0.24799471071490548 0.9563888335227402
1.4300625 0.24867610968198298 0.9561245081489718
1.4312109375 0.2505790257051099 0.95594709831749
1.432359375 0.2513529097949421 0.9553528162125138
1.4335078125 0.2526095048258703 0.9555001191493477
1.43465625 0.2541502094041614 0.9545952417007074
1.4358046875 0.2559155053416701 0.954559179189991
1.436953125 0.25646607506650265 0.9546415162316237
1.4381015625 0.2581082039251543 0.9540828945101416
1.43925 0.25948522552566106 0.952917405431956
1.4403984375 0.26056293567583216 0.9532319362284991
1.441546875 0.2624814883119654 0.9529380759723114
1.4426953125 0.26356202280886276 0.9526575198291198
1.44384375 0.2647637914732346 0.9519503984213974
1.4449921875 0.26553952040938933 0.9521874909195103
1.446140625 0.2675567946020092 0.9513502651489023
1.4472890625 0.26847753400068364 0.9509944046172123
1.4484375 0.27004098498971324 0.9508897782914922
1.4495859375 0.27107569651053526 0.950243203676579
1.450734375 0.2721978982302094 0.949757751712508
1.4518828125 0.2735398059190332 0.9498067224578317
1.45303125 0.2743507311874944 0.949449380212992
1.4541796875 0.27603452020255115 0.9489611680978431
1.455328125 0.2775674053244558 0.9487193420704362
1.4564765625 0.27882239936406217 0.9480351163840955
1.457625 0.2798227853106972 0.947626670091991
1.4587734375 0.28101923680093743 0.9472822408328012
1.459921875 0.28270171831277063 0.9468323279997156
1.4610703125 0.28413599769791187 0.9463240762353001
1.46221875 0.2850836930191191 0.9456802476819473
1.4633671875 0.2862953307396655 0.9454996919832356
1.464515625 0.28787308973836995 0.944510703043313
1.4656640625 0.289081489705523 0.9442490533946053
1.4668125 0.2905080917042889 0.9439310528969456
1.4679609375 0.2917651733191751 0.943197364776966
1.469109375 0.29295571662753483 0.9427015405890984
1.4702578125 0.29403318202924017 0.9423124926525525
1.47140625 0.2955155218662705 0.9418319262870106
1.4725546875 0.2969451554957613 0.9414309072891587
1.473703125 0.2983046187621137 0.9418876938948918
1.4748515625 0.2994135376490971 0.9415712433390482
1.476 0.30069583085739615 0.9404624182321093
1.4771484375 0.3023025870217744 0.9402267408206899
1.478296875 0.3037081414719867 0.9396986858802654
1.4794453125 0.30448939855045487 0.9390445410992156
1.48059375 0.3056947532784751 0.938890406520766
1.4817421875 0.30756705070147156 0.938647112079972
1.482890625 0.3091117037503981 0.9378120013380764
1.4840390625 0.3107045819932406 0.9379300715477816
1.4851875 0.31102878065730255 0.9366870281504492
1.4863359375 0.31324359628945453 0.9367576330338535
1.487484375 0.3136719254613901 0.9354547832391682
1.4886328125 0.31583322518056284 0.9348082135672613
1.48978125 0.3170084848039535 0.9352881755620581
1.4909296875 0.3173167182223664 0.9344001827425659
1.492078125 0.3198523773250532 0.9346585283202435
1.4932265625 0.32173061400215996 0.9345097816337189
1.494375 0.3216172062846933 0.9324779496052502
1.4955234375 0.32356018964890343 0.9327106025006285
1.496671875 0.3253686884050201 0.9327072373080958
1.4978203125 0.3259467518452463 0.9334310415847089
1.49896875 0.3271718211636427 0.9320045253635525
1.5001171875 0.3281554622555462 0.9306370286641066
1.501265625 0.3305940298249189 0.9313922608468922
1.5024140625 0.33097821521769366 0.9299828457690327
1.5035625 0.33274658636931326 0.9295238437504783
1.5047109375 0.334192089694765 0.9290638818030139
1.505859375 0.3357498552335657 0.9296003735936772
1.5070078125 0.3372948109734185 0.9296640443830376
1.50815625 0.3381784495207914 0.9288150398804996
1.5093046875 0.340479139881179 0.9281849539805158
1.510453125 0.3412651673848388 0.9276880594447692
1.5116015625 0.3418961953648406 0.9278151072350105
1.51275 0.3434007932640587 0.9271903393831684
1.5138984375 0.3444720699176217 0.9271467476875177
1.515046875 0.34534419113518267 0.926724744651356
1.5161953125 0.34688154621272804 0.9254524292792852
1.51734375 0.34769083768950326 0.9250760294523934
1.5184921875 0.3492053460495664 0.9248179390105152
1.519640625 0.34980387265788027 0.9244134377535882
1.5207890625 0.3510204327694412 0.9241142022091583
1.5219375 0.3526054941915695 0.9238883913781859
1.5230859375 0.3531759848110468 0.9231788946730575
1.524234375 0.35431259567861395 0.9226136049455881
1.5253828125 0.3554042758898938 0.92230386789587
1.52653125 0.35689625494187444 0.9216400490985959
1.5276796875 0.3580103503645256 0.9208212834700743
1.528828125 0.3595747618168427 0.9203566122519944
1.5299765625 0.3604597442790492 0.9199110612086064
1.531125 0.36186959953731 0.919167540074084
1.5322734375 0.3631600324015224 0.918112420963383
1.533421875 0.36480988997126573 0.9179196755866311
1.5345703125 0.36618977952323517 0.9174101403025187
1.53571875 0.36670419174687197 0.916742741165825
1.5368671875 0.3684484168531538 0.9168836059996638
1.538015625 0.3693115745193553 0.9157047962683011
1.5391640625 0.3706749242903239 0.9148184589330298
1.5403125 0.37202839845361396 0.9147342838381981
1.5414609375 0.3732017100784785 0.9138871817722449
1.542609375 0.37462373203562604 0.9132377761701482
1.5437578125 0.37573353340290916 0.9125115506997354
1.54490625 0.37766539030456137 0.911905742383663
1.5460546875 0.37842536816624917 0.9107287535078301
1.547203125 0.3794980523762227 0.9100416533331152
1.5483515625 0.38158922461284606 0.9100828253665013
1.5495 0.38277609784275635 0.9091236261746701
1.5506484375 0.3838995426564484 0.9083408995504041
1.551796875 0.3854971755241582 0.9073612516617613
1.5529453125 0.3864989295265683 0.9069862521755232
1.55409375 0.3884030037544917 0.9064235982117971
1.5552421875 0.3897637591814196 0.9059466150923479
1.556390625 0.3915423403660193 0.9051193586176463
1.5575390625 0.3923439807666225 0.9037252407059755
1.5586875 0.3942201298954876 0.9038440959433047
1.5598359375 0.395936436660379 0.9026966848320177
1.560984375 0.39734766143452505 0.9026172533549539
1.5621328125 0.39847255441712265 0.9021661429840316
1.56328125 0.4001311829163041 0.9017763523942357
1.5644296875 0.4012629515116495 0.9017619178355957
1.565578125 0.40258750623240497 0.9011040965316202
1.5667265625 0.4043152158146038 0.9005133760457669
1.567875 0.4051549234722882 0.8992958847027378
1.5690234375 0.4062012455032672 0.8993742499883205
1.570171875 0.4087279289459062 0.8988267342752638
1.5713203125 0.4092189353265167 0.898854519840407
1.57246875 0.4106110457725902 0.8978490539184213
1.5736171875 0.41241652847958477 0.8969717235466854
1.574765625 0.4141363142739553 0.8962210488745292
1.5759140625 0.4153913582716882 0.8961683576213304
1.5770625 0.41676346751236526 0.8953623798235839
1.5782109375 0.4184375843688879 0.8955979926925061
1.579359375 0.4195376537386994 0.8949347486718002
1.5805078125 0.42072600783969555 0.8948566899006807
1.58165625 0.4223074886655832 0.8942278399106127
1.5828046875 0.42383954297187376 0.8944345775871161
1.583953125 0.42443571163409183 0.8937425718444658
1.5851015625 0.4257300551184932 0.892894047452061
1.58625 0.4270894539062441 0.8922778949842912
1.5873984375 0.42792315489352767 0.8926524103355193
1.588546875 0.429398946690854 0.8912583729064097
1.5896953125 0.43020466567991683 0.8916652513164356
1.59084375 0.4310863255721177 0.8912828252004594
1.5919921875 0.4328135949959898 0.8904990730030621
1.593140625 0.4335108942259471 0.8898778416804254
1.5942890625 0.43468750352153424 0.8892107809206555
1.5954375 0.4354166829067949 0.8887220970323659
1.5965859375 0.4365310479782664 0.8877955677017799
1.597734375 0.4382064011759843 0.8869932716271582
1.5988828125 0.4382594929293224 0.8864509822141744
1.60003125 0.4392157937050827 0.8865016034689279
1.6011796875 0.4414517222962432 0.8854678814231223
1.602328125 0.44176931616822585 0.8857016901843242
1.6034765625 0.4427830082606879 0.8845251077930864
1.604625 0.44404614239681817 0.8839463927695393
1.6057734375 0.44498759742773264 0.8831793843864686
1.606921875 0.446034803556867 0.8818325856993116
1.6080703125 0.4469491422722204 0.8813909478362124
1.60921875 0.448520119387842 0.8798381814503429
1.6103671875 0.4487122291743155 0.8795942605250044
1.611515625 0.44940038651753234 0.8788937564888301
1.6126640625 0.4514325711354904 0.8786731570670699
1.6138125 0.45268713034377933 0.8771711575067347
1.6149609375 0.4531789914283204 0.8764827769146657
1.616109375 0.4551988524137748 0.8757004189092155
1.6172578125 0.45697756793863 0.8745813553788068
1.61840625 0.45726098263784964 0.874082272131803
1.6195546875 0.4579540922373928 0.8737412167520647
1.620703125 0.45959168506905157 0.8726058966860322
1.6218515625 0.46138469685877614 0.8713891491108205
1.623 0.46210653544309604 0.8702817276223013
1.6241484375 0.46393278211823136 0.8702193326217608
1.625296875 0.4651065023237971 0.8689644572737691
1.6264453125 0.46651080278867185 0.8689664055132198
1.62759375 0.46855380385765677 0.8678287278858708
1.6287421875 0.46987348022503506 0.8671380979410108
1.629890625 0.46997889254371916 0.8667365206952343
1.6310390625 0.47212085199245624 0.8659383613183769
1.6321875 0.4729327409518186 0.865028144293515
1.6333359375 0.47407429863566913 0.8637362454580008
1.634484375 0.47502901220647875 0.8630294316697951
1.6356328125 0.4759766300745886 0.8627473358276097
1.63678125 0.4776973340533784 0.8618121157682004
1.6379296875 0.4793121210684858 0.8612850391830139
1.639078125 0.48052098221024553 0.8602309463880995
1.6402265625 0.48208082940245833 0.8596584626514757
1.641375 0.48311050397252303 0.8583937469715779
1.6425234375 0.4848762637398615 0.8583942310514047
1.643671875 0.48632257495965103 0.857643798716932
1.6448203125 0.4879544782659666 0.8566762674751
1.64596875 0.4898880075124119 0.8564744995216756
1.6471171875 0.4902997917775752 0.8555317212094986
1.648265625 0.4917441998763611 0.8553965070538879
1.6494140625 0.4932627049133939 0.8549944157592012
1.6505625 0.4944752460810554 0.8542008719739123
1.6517109375 0.49558882331924725 0.8533564330032776
1.652859375 0.4959845485403017 0.8528975599707129
1.6540078125 0.49862829695613176 0.8526162934517978
1.65515625 0.500207399081171 0.8519118096942951
1.6563046875 0.5012306976608494 0.8508767379909915
1.657453125 0.50281603245697 0.8503927609493511
1.6586015625 0.5034870122829874 0.8501822224666036
1.65975 0.5048245514538116 0.8501735598769816
1.6608984375 0.5059842583683332 0.8505221645898187
1.662046875 0.5072121130409605 0.8498236266346052
1.6631953125 0.5082771594716032 0.8484767098523784
1.66434375 0.5097642928204683 0.8483792646928491
1.6654921875 0.5109668507222785 0.8483571075766827
1.666640625 0.5117151160302926 0.847647286355421
1.6677890625 0.5128576505596624 0.847063607855852
1.6689375 0.5148899071198884 0.8463993324320961
1.6700859375 0.5149029026534424 0.8461825486357875
1.671234375 0.5159890637305132 0.8452905707762066
1.6723828125 0.5177410047765901 0.8451341713821057
1.67353125 0.5189816497895089 0.8437572125672858
1.6746796875 0.5196850207271799 0.8430433332123016
1.675828125 0.5206652292558179 0.8423922052081074
1.6769765625 0.5215755731351341 0.8413021094713435
1.678125 0.5223322591578525 0.8408574391239216
1.6792734375 0.5234517431470466 0.839080311846738
1.680421875 0.5248847997422428 0.8380527053717598
1.6815703125 0.5252032170192349 0.8382337698427904
1.68271875 0.5265960740934382 0.8369359875697772
1.6838671875 0.5279529387883853 0.8366479543560257
1.685015625 0.529215501660542 0.8357463466171972
1.6861640625 0.5298097844585373 0.8346692874271118
1.6873125 0.5302541965974492 0.8338648727038567
1.6884609375 0.532376848752777 0.8332395700537609
1.689609375 0.5331318875763844 0.832559833270981
1.6907578125 0.5339393436273846 0.8305348985671772
1.69190625 0.5355590094937489 0.8300034050829782
1.6930546875 0.5367139667422912 0.828730250485296
1.694203125 0.5381140364165579 0.8281708194725406
1.6953515625 0.538331704802938 0.8270858322033927
1.6965 0.5397746317101582 0.8265360783335055
1.6976484375 0.5409844185124193 0.8260039507888652
1.698796875 0.5433181355539278 0.8250414317028893
1.6999453125 0.5440087117940829 0.8235866418923402
1.70109375 0.544181051341502 0.8231461126124142
1.7022421875 0.5461824494978652 0.8226585258406933
1.703390625 0.5468954723414033 0.8215380665814225
1.7045390625 0.5491014582301578 0.8207060559000394
1.7056875 0.5497824086007309 0.8194539024449652
1.7068359375 0.5518150758091138 0.8186096424760557
1.707984375 0.5520887035270424 0.8181958995486758
1.7091328125 0.5537648687242 0.8165018238623611
1.71028125 0.5550113137090915 0.8155947469407038
1.7114296875 0.5569670100445231 0.8144765897440415
1.712578125 0.5573051712015018 0.8134918177033698
1.7137265625 0.5593826757687534 0.8136058860798134
1.714875 0.5617778298498921 0.8120420031207002
1.7160234375 0.5619835464131424 0.8113529396593534
1.717171875 0.5638818771475216 0.8104971078232289
1.7183203125 0.5655799274633666 0.8100139208019805
1.71946875 0.566846783347222 0.8092013716387594
1.7206171875 0.5676800708326484 0.8090154637135579
1.721765625 0.568726819005393 0.808108562346513
1.7229140625 0.5703207938172012 0.8068354773923201
1.7240625 0.5715670969355965 0.806616374920963
1.7252109375 0.5728538012537878 0.8058306312258202
1.726359375 0.5746746764416332 0.8046612665018719
1.7275078125 0.5758609769408488 0.8044336390726643
1.72865625 0.5771165609295934 0.804074682322022
1.7298046875 0.5783519787955151 0.8034108858876983
1.730953125 0.580185492255326 0.8036561860008117
1.7321015625 0.5809687059129017 0.801551598265732
1.73325 0.5822435457372703 0.8017972525043616
1.7343984375 0.5832260618847739 0.8011524763366061
1.735546875 0.5838764633729976 0.8002377988030046
1.7366953125 0.5862288413993892 0.799525073076188
1.73784375 0.5863140517451423 0.7992479686476593
1.7389921875 0.5871671996539047 0.7977227495064066
1.740140625 0.5887727674731514 0.7974912884044669
1.7412890625 0.5892364598181355 0.7966637924163134
1.7424375 0.5910308748521075 0.7958384825693993
1.7435859375 0.5919835990914565 0.7951980802116005
1.744734375 0.5932155513621239 0.7935948014941474
1.7458828125 0.594020408647377 0.7935279470140695
1.74703125 0.595181862607818 0.7931902557412578
1.7481796875 0.5971454321591094 0.791779455269067
1.749328125 0.5972641167825745 0.7907445121925964
1.7504765625 0.5978466147618073 0.7899854176575337
1.751625 0.5985760352282798 0.7894658438593829
1.7527734375 0.5998340638335207 0.7878826755224886
1.753921875 0.6010489043156368 0.787543098601842
1.7550703125 0.6018112448179546 0.7863753256784128
1.75621875 0.6025664728222208 0.7860648402066923
1.7573671875 0.6038988633307341 0.7852124000834794
1.758515625 0.6049319371616158 0.7836008977363933
1.7596640625 0.6062391013449715 0.7826276963089644
1.7608125 0.6064978439239984 0.7816020134103085
1.7619609375 0.6073780649444098 0.7803306483446735
1.763109375 0.6082730398650773 0.7798893299342968
1.7642578125 0.6094844403367995 0.7788288220577373
1.76540625 0.6094299925948303 0.778177458557175
1.7665546875 0.6106333210309944 0.7765312711022485
1.767703125 0.6123062603322731 0.776067795594331
1.7688515625 0.6130752901103074 0.7748344049182484
1.77 0.615082578062269 0.7741605617217945
1.7711484375 0.6151463300059309 0.7729647356989054
1.772296875 0.6166930352101502 0.7723402308721214
1.7734453125 0.6170221947686213 0.7715177516024405
1.77459375 0.6187752848765907 0.7708066550896988
1.7757421875 0.6204502539359026 0.7693623235274756
1.776890625 0.621260436490719 0.7673281170267944
1.7780390625 0.6222701439269731 0.7671560064113586
1.7791875 0.6237360782551323 0.7664173982739169
1.7803359375 0.6244899303854613 0.7642443127276917
1.781484375 0.625407957306536 0.7643699349432267
1.7826328125 0.6276418452123007 0.7627490451600913
1.78378125 0.6294203917207659 0.7623315263840782
1.7849296875 0.6291952351521948 0.7611882612045322
1.786078125 0.6307327522259286 0.760702668472124
1.7872265625 0.631496679268194 0.7601804703502748
1.788375 0.6326324506165706 0.7577307515353668
1.7895234375 0.6340416514896916 0.7581554381006484
1.790671875 0.6355378598089938 0.7567577122016419
1.7918203125 0.6361556811356408 0.7558674273389161
1.79296875 0.6382017170520666 0.7552105427029946
1.7941171875 0.6394955581591961 0.7532055825246825
1.795265625 0.6411248635530773 0.754005255765816
1.7964140625 0.6421310075788316 0.7519071846969245
1.7975625 0.6426107974196147 0.7511544432164257
1.7987109375 0.6452678389907404 0.7509140854974525
1.799859375 0.6467294658901349 0.7504249457680696
1.8010078125 0.6464603884100746 0.7490890888483227
1.80215625 0.6472241343410585 0.7486144990285766
1.8033046875 0.6488938831862433 0.7492204289036031
1.804453125 0.6504136831756501 0.7472034587690292
1.8056015625 0.6515796164438571 0.7450523845529453
1.80675 0.6530512975631132 0.7438595847115835
1.8078984375 0.654991392964525 0.7444706366743943
1.809046875 0.6552494901401222 0.7434629897745446
1.8101953125 0.6553983035863478 0.7423028858776299
1.81134375 0.6570759007193478 0.7421089364676681
1.8124921875 0.6581425177349072 0.741614765513775
1.813640625 0.6596623147429155 0.7391176250659052
1.8147890625 0.6596545898731774 0.7393132191818866
1.8159375 0.6603274519219341 0.7391496979391108
1.8170859375 0.6632583152432654 0.7372551050861768
1.818234375 0.6621748321544727 0.7360185535896826
1.8193828125 0.6637418865064559 0.7362391763575322
1.82053125 0.6658418111248808 0.7341386163378405
1.8216796875 0.6655871637907216 0.7328704912411588
1.822828125 0.6666936348491134 0.7335056179047581
1.8239765625 0.6675973963796145 0.7321024011154942
1.825125 0.6679355858907536 0.7307018239020264
1.8262734375 0.6699160825545194 0.7306458646836876
1.827421875 0.6715679916756072 0.7286936891959971
1.8285703125 0.6726687826796596 0.7281170601104214
1.82971875 0.6735998749024038 0.7277637038240522
1.8308671875 0.6738449723311606 0.7262870754287701
1.832015625 0.6748031906085007 0.7253328901543911
1.8331640625 0.6753091879521234 0.7241361733390687
1.8343125 0.676556462557566 0.7235355428380864
1.8354609375 0.6774272599646851 0.7225976797372862
1.836609375 0.6782193216470424 0.7218372461610618
1.8377578125 0.6792854653472002 0.7206342927905913
1.83890625 0.6809005777401191 0.7194778806426054
1.8400546875 0.6819130616627028 0.7178131196500259
1.841203125 0.6830245652858112 0.7169428987998611
1.8423515625 0.6838278662850416 0.7160431687034725
1.8435 0.6850520253852105 0.7149966866449528
1.8446484375 0.6852364962721313 0.7140773752596105
1.845796875 0.6867170609632423 0.7127825279338584
1.8469453125 0.6868172695381224 0.7117652258581204
1.84809375 0.6879239392651828 0.7106444711096175
1.8492421875 0.6895897724380224 0.7098953425683714
1.850390625 0.6905570469534021 0.7089738862733793
1.8515390625 0.691462133704452 0.7076316650458379
1.8526875 0.6927565779489089 0.706599233530234
1.8538359375 0.6942788975267766 0.7053822840514338
1.854984375 0.6949504607788568 0.7034978255936486
1.8561328125 0.6957322395969767 0.7032777550303784
1.85728125 0.6972867585119404 0.7025420066314494
1.8584296875 0.6975390786285497 0.7009849690242766
1.859578125 0.6991541438098642 0.700024039071005
1.8607265625 0.7002100228679828 0.6994787998064006
1.861875 0.7005501297501644 0.6979148157787628
1.8630234375 0.7020495420780503 0.6968902480708405
1.864171875 0.7030224036862089 0.69609869587232
1.8653203125 0.7046049428748109 0.694714237195159
1.86646875 0.7056500418243203 0.693274173791027
1.8676171875 0.706628484012315 0.6929971881772619
1.868765625 0.7083289547548488 0.6918389843375526
1.8699140625 0.7088867656946267 0.6905271339196046
1.8710625 0.7093849354775614 0.6894264817483796
1.8722109375 0.7113627701323698 0.6887219041154388
1.873359375 0.7126661492280546 0.687448124115331
1.8745078125 0.7124526690598626 0.686381416022976
1.87565625 0.7150919666381623 0.6856282946579235
1.8768046875 0.7162114167790055 0.6844070002817981
1.877953125 0.7163147789240499 0.6838448430344523
1.8791015625 0.7173766395526306 0.6830869143454116
1.88025 0.7186483678864852 0.6815166893108303
1.8813984375 0.7193492015906809 0.680682589405657
1.882546875 0.7207920536282265 0.6801041545096773
1.8836953125 0.72117197655759 0.6784102877336411
1.88484375 0.7225552777703317 0.6770899052953442
1.8859921875 0.7225897693620117 0.6756198772138036
1.887140625 0.7241029444375154 0.6749579043152631
1.8882890625 0.7245887907179076 0.6734179528842935
1.8894375 0.7256603488959945 0.6720957072415491
1.8905859375 0.727973618949531 0.6719578184161712
1.891734375 0.728215937465553 0.6710029507773962
1.8928828125 0.7284564828597658 0.6701290091810184
1.89403125 0.7295061540322251 0.6676996206319608
1.8951796875 0.7312613943435984 0.6670518662735081
1.896328125 0.7323701553974763 0.6668209868288069
1.8974765625 0.7331819041008059 0.6654060932470514
1.898625 0.7350464555220753 0.663797881138234
1.8997734375 0.7352696702798575 0.6628514033354056
1.900921875 0.7367171647262069 0.6617148312479684
1.9020703125 0.737546650712503 0.6609437456413427
1.90321875 0.7388572631054138 0.6597782324805113
1.9043671875 0.7396169900773188 0.6586763994007698
1.905515625 0.7402644307422902 0.657560718775267
1.9066640625 0.7420431022099235 0.6564295246079422
1.9078125 0.7431484014965271 0.6553107063590492
1.9089609375 0.7439776796206559 0.6537829629374188
1.910109375 0.7448894990906191 0.6524229992441467
1.9112578125 0.7456639300713038 0.6511222666654377
1.91240625 0.7471367216102887 0.6497676412501043
1.9135546875 0.7484203689058969 0.649233274021528
1.914703125 0.7490213355723007 0.6482663015943686
1.9158515625 0.750303581991052 0.6469031747241405
1.917 0.7510233069701179 0.6455934368011427
1.9181484375 0.7520228261621862 0.6437533139200927
1.919296875 0.7529986494796137 0.6430941191382389
1.9204453125 0.753751383136184 0.6417147504029264
1.92159375 0.7556698396778257 0.6403236388959506
1.9227421875 0.7558066718702243 0.6392576632893627
1.923890625 0.7569069212168926 0.6378223199732578
1.9250390625 0.7586953660945444 0.6361385954271176
1.9261875 0.7603044879361801 0.636176313228099
1.9273359375 0.7608633590563567 0.6348117132589542
1.928484375 0.7614328202645941 0.6334650316713806
1.9296328125 0.7628478782943829 0.632212285722809
1.93078125 0.7636496463262746 0.6307442152994991
1.9319296875 0.7644721406478436 0.6305032985046375
1.933078125 0.7658560149015748 0.6290322477801527
1.9342265625 0.7672799166564029 0.6272295045517507
1.935375 0.7671784872401117 0.6271114988006595
1.9365234375 0.7690317418870267 0.625732840580856
1.937671875 0.7699829865343133 0.6246399162596245
1.9388203125 0.7700883339278575 0.6230474480563468
1.93996875 0.770311085564372 0.6229941357491176
1.9411171875 0.7733859491089867 0.6217362653850268
1.942265625 0.7741438536276608 0.6196571743266823
1.9434140625 0.7739225397886978 0.6186622011310431
1.9445625 0.7760246823671523 0.6174538699113497
1.9457109375 0.7763733300770377 0.6169780423665094
1.946859375 0.7775554555225307 0.6167766557895658
1.9480078125 0.7793674293814075 0.6149526120592064
1.94915625 0.7807014938044239 0.614480519094791
1.9503046875 0.7802166990124977 0.6137397305025533
1.951453125 0.7821954414566055 0.6120609903204871
1.9526015625 0.7841225544845906 0.6112143479572558
1.95375 0.7835887411511953 0.6109498529804823
1.9548984375 0.783763015117973 0.6081353593835847
1.956046875 0.7847521125405174 0.6068560884684157
1.9571953125 0.7862130175369586 0.6068558779436071
1.95834375 0.7864399785196949 0.6052872685071184
1.9594921875 0.7885767931226288 0.6043336189619435
1.960640625 0.7899849445160242 0.6032336414044057
1.9617890625 0.7907521041607389 0.6017458423918478
1.9629375 0.7917457529827894 0.6010285280659243
1.9640859375 0.7911611330658428 0.5995812568907337
1.965234375 0.7920288218320599 0.5980968128675186
1.9663828125 0.793600121047165 0.5973484541411502
1.96753125 0.7948201463787012 0.5966598638198061
1.9686796875 0.7951253828392009 0.5953373173539018
1.969828125 0.7960436731462786 0.5940697150956118
1.9709765625 0.7965750814530351 0.5931040861004249
1.972125 0.7973937197170791 0.5914421325854042
1.9732734375 0.7985096343842555 0.5906531312949073
1.974421875 0.7995790859798746 0.5899330339675366
1.9755703125 0.7998800018390566 0.5887513747478672
1.97671875 0.8006452873015836 0.5871946895610926
1.9778671875 0.8017938922054274 0.5856248342366499
1.979015625 0.8022327081566195 0.5844607505687782
1.9801640625 0.8032336104798549 0.5835651429248159
1.9813125 0.8037190204765201 0.5820694345425539
1.9824609375 0.8051455250373336 0.581023761066534
1.983609375 0.8057623735190845 0.5796581253148412
1.9847578125 0.8064244482129896 0.5785903454962026
1.98590625 0.8076158270313811 0.5772711373942999
1.9870546875 0.8077341186443746 0.5761491758821019
1.988203125 0.8093033333650792 0.5756175444994455
1.9893515625 0.8098558480148377 0.574763011684559
1.9905 0.8109024053499196 0.5732776999926693
1.9916484375 0.8120778641752111 0.5714901489712604
1.992796875 0.8133434727644164 0.5710667306422537
1.9939453125 0.8133352575221878 0.570814861965
1.99509375 0.815673858080996 0.5691270896560082
1.9962421875 0.8153986349254829 0.5678858895185704
1.997390625 0.8162082972373035 0.567058101665811
1.9985390625 0.8170324557731877 0.5655237721592484
1.9996875 0.8175150830868847 0.5643410969427711
2.0008359375 0.8202578434999004 0.5632049185899014
2.001984375 0.8199337187593811 0.5617850606221855
2.0031328125 0.8210544769810927 0.5600956220451497
2.00428125 0.822544611142085 0.5604269768255467
2.0054296875 0.8222783344406286 0.5574870510563863
2.006578125 0.8233581200584159 0.5572883471913803
2.0077265625 0.8242429525639281 0.5551701819925243
2.008875 0.824656953037388 0.555333201861814
2.0100234375 0.8251919931278351 0.5535412899815156
2.011171875 0.8271472505744222 0.5541859986516822
2.0123203125 0.8283738182917082 0.5527809584112477
2.01346875 0.8288014145140143 0.5489325060249926
2.0146171875 0.8293658400090306 0.54944435574225
2.015765625 0.8289255134520306 0.5464629200432459
2.0169140625 0.8314199046025836 0.5456282029141175
2.0180625 0.8311153801938929 0.5449348320903551
2.0192109375 0.8317178121901687 0.5438252907117096
2.020359375 0.8340815881258323 0.5428965230107761
2.0215078125 0.8347395879150377 0.5413606535359825
2.02265625 0.8348363299259839 0.5403962603499967
2.0238046875 0.8363883963838815 0.5389579581957379
2.024953125 0.8366206077110283 0.5394461980537201
2.0261015625 0.8377352461720311 0.5372955648941514
2.02725 0.8372983950897974 0.5351700330496023
2.0283984375 0.83917709174734 0.5343962615719744
2.029546875 0.8389545022316373 0.5329387875968886
2.0306953125 0.839763490100507 0.5321746018256232
2.03184375 0.838850670205288 0.5306597999992343
2.0329921875 0.8407699534703944 0.5290665712431308
2.034140625 0.8424330360372799 0.5274117220505807
2.0352890625 0.8434454289705458 0.5266491901623833
2.0364375 0.8440692202388848 0.5253178711099064
2.0375859375 0.844978157130383 0.5233612097546407
2.038734375 0.8457170145819896 0.522003872422889
2.0398828125 0.8464061892489184 0.521620088604665
2.04103125 0.8466781067599346 0.5200963924678353
2.0421796875 0.8477425472151972 0.5186143949221522
2.043328125 0.8481279163144744 0.5169334238447005
2.0444765625 0.8493357434212241 0.5158932333660496
2.045625 0.8505004764226167 0.5143546276714946
2.0467734375 0.851109641860929 0.5128377871563516
2.047921875 0.85143627678743 0.511559327224841
2.0490703125 0.8522407935542909 0.5102521408761563
2.05021875 0.8529558912976613 0.5088033916237372
2.0513671875 0.8536908165971132 0.5075918839023706
2.052515625 0.8545131466968542 0.5069386262596353
2.0536640625 0.8558473597107439 0.5050963429627982
2.0548125 0.8563181470003944 0.5035923469254536
2.0559609375 0.8570180177498593 0.5027729156365908
2.057109375 0.8577992802270584 0.501947015431959
2.0582578125 0.8582853499272304 0.5002424008839789
2.05940625 0.8590793049553966 0.4988483633322235
2.0605546875 0.8603883610942191 0.4973977358879371
2.061703125 0.8611363429520459 0.4957938802193261
2.0628515625 0.8622985280644313 0.49477221648468545
2.064 0.862655830219669 0.49231739202631214
2.0651484375 0.8633452388940042 0.49038229616533213
2.066296875 0.8656823378843309 0.4887368744628783
2.0674453125 0.865551159455831 0.48781497937306917
2.06859375 0.8656029867069491 0.4865728621881734
2.0697421875 0.8659460864085881 0.48535173370810714
2.070890625 0.8676702922161311 0.48493611110616286
2.0720390625 0.8680069592665064 0.48374901676539
2.0731875 0.870187244406339 0.4817888335992257
2.0743359375 0.8690809398999084 0.4802979884532191
2.075484375 0.8700985343196719 0.47919589408548535
2.0766328125 0.8713052829497413 0.47737661393277736
2.07778125 0.871688855888746 0.47698540170677184
2.0789296875 0.8730398179806318 0.47649170564650273
2.080078125 0.8735592110731161 0.47368135342031586
2.0812265625 0.8747969553473068 0.4721619635521784
2.082375 0.875685516886075 0.47146467049916724
2.0835234375 0.8761959814962549 0.46988641765605305
2.084671875 0.8761595293742728 0.46842733035742457
2.0858203125 0.8772853686881146 0.4663454540359597
2.08696875 0.8788231171874006 0.4655808935171211
2.0881171875 0.8790555080463017 0.4638622320702521
2.089265625 0.8785905879812306 0.4627959768387833
2.0904140625 0.8801366046189161 0.4611052248146023
2.0915625 0.8815578490828553 0.4596590315739209
2.0927109375 0.8813459668899498 0.45841471992869764
2.093859375 0.8815721498417054 0.45692952304861917
2.0950078125 0.8829788669841419 0.4559400531570402
2.09615625 0.8836324906045631 0.4543128620150903
2.0973046875 0.8843553529036388 0.45299379846657994
2.098453125 0.8859970449672672 0.4511472019027398
2.0996015625 0.8862852774453356 0.45008485668968296
2.10075 0.8862924442537318 0.44829644927110296
2.1018984375 0.8871924031571514 0.4468391750957753
2.103046875 0.8880905975995502 0.4460650014366564
2.1041953125 0.8880835013087003 0.44513046961209224
2.10534375 0.8888316190451246 0.443539017289997
2.1064921875 0.889496534813263 0.4420859220898563
2.107640625 0.8903601947513948 0.44082579287874835
2.1087890625 0.8914311116160942 0.4390422156184195
2.1099375 0.892281544863436 0.4384669647351497
2.1110859375 0.8926681428692257 0.43706982345256745
2.112234375 0.8929175775111071 0.4354506622701979
2.1133828125 0.8939745454805084 0.4340393763511799
2.11453125 0.8944019463660045 0.43258939423510473
2.1156796875 0.8957360434441368 0.43188012621299326
2.116828125 0.8965259531259014 0.42976714292286106
2.1179765625 0.8974940842546563 0.4280829007464244
2.119125 0.8973297092393339 0.42731535846290264
2.1202734375 0.8982746090957368 0.42657070366803473
2.121421875 0.8991009641749934 0.4242315568890832
2.1225703125 0.9000218629418789 0.42283117843689555
2.12371875 0.9006581966993586 0.4213409049467393
2.1248671875 0.9016058287037537 0.41956052614827927
2.126015625 0.9014476179980506 0.4184798452707014
2.1271640625 0.9031399172887484 0.4179304463555409
2.1283125 0.9036839937054557 0.4165294821009293
2.1294609375 0.904513578234559 0.4148678026257919
2.130609375 0.9038399331156741 0.41375681415834387
2.1317578125 0.9054288638829888 0.4127983097388478
2.13290625 0.9057089993540135 0.41182150003903517
2.1340546875 0.9082480046971295 0.4097927513069164
2.135203125 0.9091032733070861 0.40974108369276796
2.1363515625 0.9097790178952081 0.4075067529599137
2.1375 0.9104890802468442 0.4053831513186328
2.1386484375 0.9107358647972307 0.40359230990100614
2.139796875 0.9117107929162855 0.4023454803502107
2.1409453125 0.9117530703470289 0.40140901650284516
2.14209375 0.9120090394030511 0.40066891700864715
2.1432421875 0.9131021270475441 0.3973841047824483
2.144390625 0.9143573211909578 0.39803666408214783
2.1455390625 0.9129120410430533 0.3956142828635746
2.1466875 0.914438289884284 0.3932577594556404
2.1478359375 0.9155718497660791 0.3932349354574883
2.148984375 0.915043038100901 0.39115675985568316
2.1501328125 0.9160341394204508 0.39072802312668853
2.15128125 0.9163018021806106 0.3893919282218127
2.1524296875 0.9162882992811798 0.38802029654498926
2.153578125 0.917557350350778 0.3861087720797717
2.1547265625 0.9177086541021636 0.385321783445814
2.155875 0.9180129609320126 0.3841628466346961
2.1570234375 0.9184781313510053 0.3819924732173561
2.158171875 0.9184464348562802 0.3808218995320714
2.1593203125 0.9202179512938904 0.3790333284311122
2.16046875 0.9204317771967007 0.3776345477023241
2.1616171875 0.920515332754742 0.37617269624638017
2.162765625 0.9215074854974139 0.37538550357500927
2.1639140625 0.9217278060716185 0.37326532499643955
2.1650625 0.9227284137728382 0.3721313413445421
2.1662109375 0.9229646002106012 0.3700191766425432
2.167359375 0.9238374798366125 0.3687274529488115
2.1685078125 0.9241656982889186 0.36790907504091586
2.16965625 0.9246042801932547 0.3663641073351788
2.1708046875 0.925228133559711 0.3641898844434062
2.171953125 0.9251672439577314 0.36316512992514466
2.1731015625 0.925690776514284 0.3617984854179677
2.17425 0.927041196612715 0.3606938917856985
2.1753984375 0.927248713493694 0.3592073123220652
2.176546875 0.9281298124862234 0.35808826217720297
2.1776953125 0.9284146372828844 0.35603095092283105
2.17884375 0.9284364896804518 0.3544437473406465
2.1799921875 0.9290558539102205 0.3539186461443978
2.181140625 0.9300350991840818 0.35200241014939315
2.1822890625 0.9302790334969346 0.3501929006822238
2.1834375 0.9305036821230357 0.34843430510820805
2.1845859375 0.930989511858971 0.34654962322899635
2.185734375 0.9320324474927209 0.3459050542475103
2.1868828125 0.9317844157438477 0.34439733780737053
2.18803125 0.9329801638123647 0.34323374960254516
2.1891796875 0.9345180782399833 0.341401392972177
2.190328125 0.9349777186995147 0.33994347725532115
2.1914765625 0.9341142809375028 0.337888794233244
2.192625 0.9354294151715998 0.3370661878970679
2.1937734375 0.9363982058264412 0.33616804363659025
2.194921875 0.9367901384800563 0.33451627422308255
2.1960703125 0.937597010146038 0.33283169697503456
2.19721875 0.9370920426519118 0.33142992352574
2.1983671875 0.9404620256796987 0.3311552195218719
2.199515625 0.9387762094113763 0.329185655852931
2.2006640625 0.9401551850733476 0.32611024226225976
2.2018125 0.9408139192225257 0.32446144717562686
2.2029609375 0.9409028417280368 0.3241764824845059
2.204109375 0.9427913846988237 0.32275082449049947
2.2052578125 0.9443749327987995 0.32163057857646615
2.20640625 0.9436380234067514 0.32041705319384395
2.2075546875 0.9441838000250112 0.31899017777623506
2.208703125 0.9437039823880061 0.3169583470185312
2.2098515625 0.9444889730144983 0.3183367716625574
2.211 0.9447405202628016 0.3165968323262633
2.2121484375 0.9456857368811971 0.3147139696154434
2.213296875 0.9473191065219758 0.3123423962454494
2.2144453125 0.9462101828710481 0.3126248730560314
2.21559375 0.9469811439791878 0.3107482062595507
2.2167421875 0.9462118913366129 0.3082337629959466
2.217890625 0.9479382906678813 0.30860142158504306
2.2190390625 0.9475166852829581 0.3089861582029066
2.2201875 0.9482831071075138 0.3069496460001079
2.2213359375 0.9493429410320542 0.30422142914149086
2.222484375 0.9502038364031915 0.30280146434592736
2.2236328125 0.9499266112878155 0.30140651045903905
2.22478125 0.9491684191920244 0.30024169106524523
2.2259296875 0.9494892709242274 0.29924127839501347
2.227078125 0.9503768721335469 0.29800707633482443
2.2282265625 0.95029499659893 0.29588888816184244
2.229375 0.9512408920146467 0.2941961164952265
2.2305234375 0.9512494532462921 0.29278486332997383
2.231671875 0.9514289753423996 0.2905324410651861
2.2328203125 0.9523537568052689 0.2895675749695848
2.23396875 0.9525498739377917 0.28814684483980463
2.2351171875 0.9532661533231401 0.28707742527061064
2.236265625 0.95269468922184 0.2856595472012341
2.2374140625 0.9533462059259694 0.28279629811708473
2.2385625 0.9534296867235188 0.28137520957475515
2.2397109375 0.9532143458047463 0.28021684576474204
2.240859375 0.9537931489152609 0.2781610811297362
2.2420078125 0.954891111449312 0.2766204779798719
2.24315625 0.9551943487625443 0.27513283229092084
2.2443046875 0.9556817026790569 0.27376179216502217
2.245453125 0.9558274991439724 0.2716791205034241
2.2466015625 0.9559726586603055 0.27034622066953184
2.24775 0.9564283656954717 0.26882687821468465
2.2488984375 0.9570644582319917 0.26710960959755
2.250046875 0.956870093593051 0.2657517271717815
2.2511953125 0.9577257586088237 0.26487299550783605
2.25234375 0.9587598814407614 0.26266879093911955
2.2534921875 0.9599891126549758 0.26066338780314946
2.254640625 0.9593011191257863 0.259192383756148
2.2557890625 0.9594279779543451 0.2575262749675583
2.2569375 0.9602349586946693 0.2566176388163637
2.2580859375 0.9608122287660629 0.25448525556147666
2.259234375 0.9615499627068247 0.2533053480567798
2.2603828125 0.9616139158947348 0.25096980443210803
2.26153125 0.9623336426381773 0.24961511028812122
2.2626796875 0.9620460279497726 0.24749470131060608
2.263828125 0.9631983011292926 0.2460015167905155
2.2649765625 0.9640388911287738 0.24472250212188212
2.266125 0.9634743360340822 0.24330584787399417
2.2672734375 0.964644918945339 0.24194731351050267
2.268421875 0.965804058919134 0.23985315036023827
2.2695703125 0.9666555582390266 0.2381370794264408
2.27071875 0.9671311852745985 0.23671797233045413
2.2718671875 0.9682500092635618 0.23427826103732097
2.273015625 0.9693379399526971 0.23342241783080878
2.2741640625 0.9695510275738782 0.2319271281881428
2.2753125 0.9691058744219628 0.2308675744340368
2.2764609375 0.9707018239255667 0.2289904219898915
2.277609375 0.970986201921923 0.22756258473908766
2.2787578125 0.971734771591815 0.226304532160726
2.27990625 0.9698513485237867 0.2261613025297266
2.2810546875 0.9716647808192183 0.22372733021927982
2.282203125 0.9729978327093587 0.22306147416801997
2.2833515625 0.9725706506627726 0.22260497464031728
2.2845 0.9714671029765356 0.2200725801958239
2.2856484375 0.9716502641570194 0.21907191550737348
2.286796875 0.9735843693071072 0.21841098120697933
2.2879453125 0.9731492149189201 0.21726813026353042
2.28909375 0.9734952275920156 0.21522154442745856
2.2902421875 0.9733629229249833 0.21396850430362807
2.291390625 0.9747309275937963 0.21320170246186598
2.2925390625 0.9739501044808954 0.2121923139606982
2.2936875 0.974559527438858 0.20979683237879618
2.2948359375 0.9754099564324061 0.20932099915109548
2.295984375 0.9748284282144607 0.20813098460653748
2.2971328125 0.9750678134590135 0.20618989322550924
2.29828125 0.9751824569475671 0.20562343955697282
2.2994296875 0.9749719098196816 0.20432731496615908
2.300578125 0.9763120745916363 0.20247017241091206
2.3017265625 0.9755328032400616 0.2004674154519798
2.302875 0.9758200157184579 0.19898962269398165
2.3040234375 0.9755989275663075 0.19814740604860365
2.305171875 0.9756978844844062 0.19684471848093124
2.3063203125 0.9760826456066355 0.19436346188827935
2.30746875 0.9755746895034381 0.19273735938903558
2.3086171875 0.9756107707184485 0.1920064514452548
2.309765625 0.9757415221660828 0.1902539525211095
2.3109140625 0.9764019307830263 0.18910100147542902
2.3120625 0.9760093132701066 0.18760412012484112
2.3132109375 0.9764941541700543 0.18596403442649848
2.314359375 0.9765251704542299 0.1837441817335994
2.3155078125 0.9772397195060344 0.1826819799507851
2.31665625 0.9771108676417183 0.1815821031472965
2.3178046875 0.976462249481771 0.1794606878413664
2.318953125 0.9763328677346738 0.17846498119320164
2.3201015625 0.9772320510947367 0.17679342524017863
2.32125 0.9781550680285129 0.1751625013160545
2.3223984375 0.97793367321671 0.17339095258336273
2.323546875 0.976953645499332 0.1718259935428415
2.3246953125 0.9773032591806505 0.17048683016085273
2.32584375 0.9777994665962204 0.16784243895927203
2.3269921875 0.9779257625385336 0.16757333766105853
2.328140625 0.9781630963082055 0.16493262690908406
2.3292890625 0.9789681108009016 0.16328907344341675
2.3304375 0.9782145889034295 0.16314825341265488
2.3315859375 0.9797249567277804 0.15973190305853072
2.332734375 0.9803347053165281 0.15866655200105206
2.3338828125 0.9811776236432019 0.15621131402584246
2.33503125 0.9806572457556293 0.15654317604545442
2.3361796875 0.9800453233840989 0.15333592608811894
2.337328125 0.9816563677044114 0.1525941434733702
2.3384765625 0.9812365451880718 0.14952128958887417
2.339625 0.9822704184238191 0.14955618583236702
2.3407734375 0.981719688360219 0.14840365900250418
2.341921875 0.9824015885145636 0.14597827681192155
2.3430703125 0.9844549009411458 0.14429950008712106
2.34421875 0.9835940053082799 0.1419174531930658
2.3453671875 0.9836338614873359 0.14020199068938433
2.346515625 0.9864593604013059 0.13965555047153436
2.3476640625 0.9865924186209196 0.13780221976339946
2.3488125 0.9870618338056497 0.1360298908100417
2.3499609375 0.9863933302086385 0.1358718840116223
2.351109375 0.985191756587755 0.1345519557559185
2.3522578125 0.9886573656578308 0.13223643926648082
2.35340625 0.9888017899957097 0.13230870474480852
2.3545546875 0.989394498956433 0.13061762406930247
2.355703125 0.988818045207715 0.12917037528281294
2.3568515625 0.9885458853991851 0.12747587014211795
2.358 0.9908282335628021 0.12690849927939304
2.3591484375 0.9905611851699547 0.12545026693907238
2.360296875 0.9901821913740491 0.12397905773338891
2.3614453125 0.9904064782316924 0.12164345003344723
2.36259375 0.9913647544544657 0.1203590572073257
2.3637421875 0.9914661231968283 0.11975062504065603
2.364890625 0.9910048110329088 0.11856102817284314
2.3660390625 0.992317191348972 0.11708309286805363
2.3671875 0.9922031911321512 0.11655096103738163
2.3683359375 0.9920562158437978 0.11532123687997692
2.369484375 0.9922199345745301 0.1135596026563725
2.3706328125 0.9931621251465101 0.1122755880328582
2.37178125 0.993357771818111 0.11037499843726639
2.3729296875 0.9923326193593263 0.10882452189307598
2.374078125 0.9922832214490866 0.10757812486018062
2.3752265625 0.9930008848115897 0.10524285711403136
2.376375 0.9945585961705639 0.1040914243373286
2.3775234375 0.9951518030351938 0.1023209687688243
2.378671875 0.9942988154707526 0.10036065529350868
2.3798203125 0.9935380118928718 0.09872316332705725
2.38096875 0.9936653999114928 0.0984794048748382
2.3821171875 0.9925271608928117 0.09801418723735722
2.383265625 0.9926775417726723 0.09589893866016186
2.3844140625 0.9924508745255268 0.09444915845977067
2.3855625 0.9931996548124401 0.09314011669748665
2.3867109375 0.9934876912082458 0.0909284057302982
2.387859375 0.9924956719524687 0.08928647221460642
2.3890078125 0.993151920003984 0.0876880250529675
2.39015625 0.9923745589548743 0.08624353851684502
2.3913046875 0.9914303788793509 0.0853594192472367
2.392453125 0.9919658433348075 0.08341053850953081
2.3936015625 0.9920463295002966 0.08142707429808
2.39475 0.9926848150400048 0.08055689897234289
2.3958984375 0.9922574535945791 0.07817129212914628
2.397046875 0.9923763792288008 0.07662500517069687
2.3981953125 0.9933776824841893 0.07597962206957914
2.39934375 0.9921787913027225 0.07340134230686207
2.4004921875 0.9931236830923864 0.0717842239332879
2.401640625 0.9920970703723858 0.0712897456776446
2.4027890625 0.991733666102783 0.06886202781146433
2.4039375 0.9930012030621128 0.06638897671655267
2.4050859375 0.9937852185440651 0.06477768441222687
2.406234375 0.9932482736979715 0.06295205734089351
2.4073828125 0.9945806324060845 0.06045833485502192
2.40853125 0.9948897953224276 0.059551041069145216
2.4096796875 0.9946872344177259 0.05678377073559576
2.410828125 0.9957933109964556 0.0551233942122078
2.4119765625 0.9958865692207328 0.05537945541573672
2.413125 0.9943452569008143 0.05214462077625712
2.4142734375 0.992065965675561 0.052693717546917096
2.415421875 0.9935815330403076 0.051187284880515244
2.4165703125 0.9943920171889572 0.04809627506714992
2.41771875 0.9953993418606017 0.04633212790066665
2.4188671875 0.9954275675161354 0.04540037473662406
2.420015625 0.9948309886130642 0.04385209126437256
2.4211640625 0.9939597419800265 0.04261112193001304
2.4223125 0.9944431379725557 0.0400568457354524
2.4234609375 0.9955053353725862 0.04050428992466654
2.424609375 0.9965268478251521 0.037720138742680376
2.4257578125 0.9973380515803698 0.03563329001403659
2.42690625 0.9966016546929252 0.03402342816348852
2.4280546875 0.9979973660942963 0.033919614226707556
2.429203125 0.9989104750140889 0.03263193338737769
2.4303515625 0.9983513241730816 0.029373644056581605
2.4315 0.9978294899603251 0.029694959299862822
2.4326484375 0.9972159447188168 0.027552711606486313
2.433796875 0.999242223268047 0.025618693918738278
2.4349453125 0.9979340239749043 0.02496610258172552
2.43609375 0.9984421483840585 0.023092871132314202
2.4372421875 0.997989027291481 0.021091670383085875
2.438390625 0.9979388328393173 0.02060635072107464
2.4395390625 0.998517380174659 0.01908243857654046
2.4406875 0.9972119288616696 0.018540137567735898
2.4418359375 0.9982719500098312 0.017413010443344187
2.442984375 0.9973424755994902 0.014825292729773537
2.4441328125 0.9982785985087353 0.014543187626006829
2.44528125 0.9974014982349515 0.012933543764150748
2.4464296875 0.9975887433832015 0.012028934648152384
2.447578125 0.9976896830173657 0.01125717004435299
2.4487265625 0.9991829147093799 0.009047627711171624
2.449875 0.9987078506159702 0.0077199756965627975
2.4510234375 0.9986619850221928 0.006418249894804051
2.452171875 0.9985902085460693 0.005456409611608912
2.4533203125 0.9985654853668378 0.0040845913504728715
2.45446875 0.9976326844658371 0.0016707435347414618
2.4556171875 0.997445851566406 0.00017026277735196493
2.456765625 0.9984368749162702 -0.001240994759014749
2.4579140625 0.9976432730616007 -0.0032891791789726454
2.4590625 0.9966352602910932 -0.0032066427092415084
2.4602109375 0.9965119668435438 -0.00546282323485589
2.461359375 0.9977355390041397 -0.007748606234308952
2.4625078125 0.9958443385548688 -0.008542059191462725
2.46365625 0.9956330639434156 -0.010175209877896843
2.4648046875 0.9968636964182856 -0.011425167544582074
2.465953125 0.9964370306985846 -0.0131025017979962
2.4671015625 0.9971132406752768 -0.014456612360337517
2.46825 0.9972721576997647 -0.016080064147431135
2.4693984375 0.9965411693609374 -0.01625031392373099
2.470546875 0.9951518423601136 -0.0166381955883034
2.4716953125 0.9962720992924337 -0.01934456664626897
2.47284375 0.995163324242964 -0.02196461406002191
2.4739921875 0.9942798738891788 -0.022550581020679812
2.475140625 0.9934279662559624 -0.023932075056333615
2.4762890625 0.9932788784992908 -0.026271744388404475
2.4774375 0.9938805147930597 -0.026867925856715373
2.4785859375 0.9955715895762739 -0.02975214111145731
2.479734375 0.9942594390953587 -0.031546231220824075
2.4808828125 0.9935824311298759 -0.03295248507979309
2.48203125 0.9930237573345297 -0.03425794874679189
2.4831796875 0.9938015907306337 -0.036449596325040065
2.484328125 0.9932749302990962 -0.03893794670458245
2.4854765625 0.9938358147093667 -0.04111732790129721
2.486625 0.9952011285985531 -0.04249168608063149
2.4877734375 0.9949377319446168 -0.04416961633038691
2.488921875 0.9942370340418428 -0.04449074449815249
2.4900703125 0.9946128484189789 -0.046480831962509975
2.49121875 0.994215102879311 -0.0484518214253714
2.4923671875 0.993883374064692 -0.050388334314524885
2.493515625 0.9946878612919259 -0.05176640087179703
2.4946640625 0.9930502237910059 -0.05285568189076817
2.4958125 0.9937245225948604 -0.05360237524534256
2.4969609375 0.993441769910162 -0.05522380518488898
2.498109375 0.9947726809010978 -0.0582657988426577
2.4992578125 0.9946166129720573 -0.0583843250350128
2.50040625 0.9954311992084649 -0.060913458055114514
2.5015546875 0.9957473022771769 -0.06227851068990049
2.502703125 0.9946512213346204 -0.06394075829247364
2.5038515625 0.9943202894436819 -0.06483429261138243
2.505 0.9942187101890749 -0.06704672466224142
2.5061484375 0.9944565535258606 -0.06899670670046959
2.507296875 0.9941648670062129 -0.06987942159438496
2.5084453125 0.9942353986455085 -0.07216701398092545
2.50959375 0.9947825059231561 -0.07363413095731086
2.5107421875 0.994936724791754 -0.07484607914396868
2.511890625 0.9952276668875066 -0.07579694699799927
2.5130390625 0.9961045653574139 -0.07668758258853367
2.5141875 0.9955139040110346 -0.07758764757193104
2.5153359375 0.9959123215294646 -0.07943633522462018
2.516484375 0.9946880673369856 -0.08088377296568433
2.5176328125 0.9960657495637253 -0.08145103153742672
2.51878125 0.9957182246942413 -0.08229448571477088
2.5199296875 0.994704386011314 -0.08429754371570924
2.521078125 0.9932081334845769 -0.08666506643823729
2.5222265625 0.9933910616147146 -0.08848178981607338
2.523375 0.9941089950491335 -0.08869538361712023
2.5245234375 0.9942317626309358 -0.0904786562555647
2.525671875 0.9931627065948998 -0.09172604863482328
2.5268203125 0.9928500857628171 -0.09409328157161778
2.52796875 0.9929053088138147 -0.094821553103207
2.5291171875 0.9920912390054984 -0.09525788250103304
2.530265625 0.9922770220492599 -0.09834442001471722
2.5314140625 0.9926601665060665 -0.09937848587891093
2.5325625 0.9925387137957774 -0.09977347619689761
2.5337109375 0.9910200368752633 -0.10183684945175892
2.534859375 0.9909122651075624 -0.10299503859596815
2.5360078125 0.9905637545412163 -0.10481411113385475
2.53715625 0.990394961744831 -0.10581014534916895
2.5383046875 0.9894958346356801 -0.1073354226379451
2.539453125 0.9902538926554822 -0.11022827896152404
2.5406015625 0.9910633742025778 -0.10954190068641834
2.54175 0.9897546226203165 -0.11148123815747363
2.5428984375 0.9893162390276389 -0.11156481061592324
2.544046875 0.9892098683831441 -0.11317921804898964
2.5451953125 0.9892017051518479 -0.11547587962054084
2.54634375 0.9886772465092585 -0.11630325311626097
2.5474921875 0.9878434787886048 -0.11888777692932649
2.548640625 0.9865779102944718 -0.12044551088832373
2.5497890625 0.9877460814975206 -0.12257185809119947
2.5509375 0.9868051963377067 -0.12253799472760321
2.5520859375 0.9870843113699737 -0.1245386921823067
2.553234375 0.986879696665935 -0.1264991663292053
2.5543828125 0.9873939749089937 -0.1275035129328559
2.55553125 0.9861399162516109 -0.12849044217878922
2.5566796875 0.9860117191229071 -0.13034313244773524
2.557828125 0.9871405278283247 -0.13365362321044347
2.5589765625 0.9881789484609067 -0.13477231224173977
2.560125 0.9875824985018856 -0.13644983577852698
2.5612734375 0.9861021777178044 -0.1370319184258387
2.562421875 0.9859626363908729 -0.13934408617059452
2.5635703125 0.9859602578802972 -0.14120594205093073
2.56471875 0.9844964141687986 -0.1419807130150877
2.5658671875 0.9851136913900023 -0.14355033741071646
2.567015625 0.9851710044827819 -0.1445874934973875
2.5681640625 0.985168435760708 -0.14684761472734292
2.5693125 0.9853183104066979 -0.1479511347898328
2.5704609375 0.9847716562868458 -0.1488520624151925
2.571609375 0.9842544531194338 -0.15029349648267676
2.5727578125 0.9843680956476215 -0.15112709793364548
2.57390625 0.9843087166435165 -0.15327766858141692
2.5750546875 0.9842814750928688 -0.15453877323168141
2.576203125 0.9839765971644729 -0.15609934934149
2.5773515625 0.984017884547564 -0.1585421125764307
2.5785 0.9827270920067027 -0.15968574843192457
2.5796484375 0.9831098012235295 -0.16010638944396988
2.580796875 0.9824369312869197 -0.16269992505419395
2.5819453125 0.9826344316463668 -0.16382962084635486
2.58309375 0.9825046230738239 -0.16637281176333674
2.5842421875 0.9829482103910975 -0.1670329301693021
2.585390625 0.9826740837262722 -0.16867079028774362
2.5865390625 0.9832904517419597 -0.16938519977053207
2.5876875 0.9825902585210103 -0.17196849002331285
2.5888359375 0.9831768760634497 -0.17165633750835962
2.589984375 0.9831012467784279 -0.17289777564076103
2.5911328125 0.9820957751374426 -0.17583528937975962
2.59228125 0.9824003175870484 -0.1778097246668231
2.5934296875 0.98161214377317 -0.17891973627644273
2.594578125 0.9807844928581384 -0.17970215718281687
2.5957265625 0.9804841329054763 -0.18178586333084312
2.596875 0.979976464740136 -0.182495856623097
2.5980234375 0.9788680365101737 -0.18366831130435135
2.599171875 0.9793238902111783 -0.18485757962833582
2.6003203125 0.9787677481444471 -0.18596649654966171
2.60146875 0.9780693621421956 -0.1884499178468223
2.6026171875 0.9780878474655614 -0.19040190472565988
2.603765625 0.9769996409611745 -0.19181698890054208
2.6049140625 0.9770301256697085 -0.19142129957162535
2.6060625 0.9763676526334493 -0.19273330078223766
2.6072109375 0.9765414413038987 -0.19548833393677195
2.608359375 0.9765729585131475 -0.19499488676822735
2.6095078125 0.9750862010137908 -0.19672081508836628
2.61065625 0.9752284540200006 -0.19832804994791986
2.6118046875 0.9760416988847249 -0.19966109077769034
2.612953125 0.975146157876092 -0.20205098748832198
2.6141015625 0.9754044998037404 -0.20305981096489537
2.61525 0.976060893319439 -0.2047456538644758
2.6163984375 0.9757241321189845 -0.20577278885496506
2.617546875 0.9743174890127321 -0.20748115045129506
2.6186953125 0.9742268110226512 -0.2084797728461434
2.61984375 0.9750844704193946 -0.20981250061739432
2.6209921875 0.9737573438792276 -0.21072340885580956
2.622140625 0.9744007140019888 -0.21312862649844283
2.6232890625 0.9739607792477569 -0.2144467388989406
2.6244375 0.973826569868671 -0.21611012770210292
2.6255859375 0.9723321149084032 -0.2180913157017949
2.626734375 0.9721903405163794 -0.21987620083507492
2.6278828125 0.9727572983913906 -0.22086288195040082
2.62903125 0.9709072279923061 -0.22321240183937752
2.6301796875 0.9711384505333046 -0.2243703897769918
2.631328125 0.9711040119044626 -0.22579012274698212
2.6324765625 0.970453432322016 -0.22802537916737606
2.633625 0.9699103080395775 -0.2295141626518356
2.6347734375 0.9696523104979957 -0.23076030264967057
2.635921875 0.9688937272439335 -0.23078380446937993
2.6370703125 0.9689962465411915 -0.23327317762699418
2.63821875 0.9681661198980916 -0.2335504360605009
2.6393671875 0.967652580746798 -0.23549019418811062
2.640515625 0.9676102286949179 -0.2364462291559492
2.6416640625 0.9675010123110264 -0.23722793267681963
2.6428125 0.9672838014599202 -0.23885227094456685
2.6439609375 0.9671114553937528 -0.2404847044259891
2.645109375 0.9666399518769065 -0.24212017652675893
2.6462578125 0.9657761835834727 -0.24316116521029035
2.64740625 0.9654618578422463 -0.244613437146249
2.6485546875 0.9653006457151135 -0.24705239458161268
2.649703125 0.9642182991077836 -0.2486556123934449
2.6508515625 0.9655303621768475 -0.24957179407804897
2.652 0.9649734795876609 -0.2510806998230975
2.6531484375 0.9652853938019346 -0.25319099296568115
2.654296875 0.9643022629468068 -0.25430708821014925
2.6554453125 0.9650185747000702 -0.2553613831273941
2.65659375 0.9644027163084474 -0.2579985845442001
2.6577421875 0.9631585419207146 -0.2579902969056712
2.658890625 0.9639487113779552 -0.25966429420703296
2.6600390625 0.9634927668678435 -0.26068776754462797
2.6611875 0.9625720740871492 -0.26247344065095635
2.6623359375 0.9613828050341443 -0.2653979278305347
2.663484375 0.9618337082038096 -0.2654374145366846
2.6646328125 0.9612959254618103 -0.26763058256424466
2.66578125 0.95997015580032 -0.26854364268796443
2.6669296875 0.959480446750261 -0.27051659759691016
2.668078125 0.9592424167657214 -0.2717513032150638
2.6692265625 0.9582559338032777 -0.2736032473457485
2.670375 0.9597588353208355 -0.27365088149569916
2.6715234375 0.9588474795719147 -0.275100992925391
2.672671875 0.9587301614550711 -0.2763324877378673
2.6738203125 0.9586649296553571 -0.2777175827521269
2.67496875 0.9577216277057693 -0.28053734893498045
2.6761171875 0.9571815324421148 -0.281717679664734
2.677265625 0.9561652949879437 -0.2819991292101239
2.6784140625 0.956361686590947 -0.28405310416287055
2.6795625 0.9572600070333479 -0.28366263748836684
2.6807109375 0.9572297292719509 -0.2853784503324315
2.681859375 0.9562174783637307 -0.287260353923922
2.6830078125 0.9555790125854329 -0.28799527910405903
2.68415625 0.9548124380364398 -0.28936810659000556
2.6853046875 0.9544984047006593 -0.290358326093777
2.686453125 0.9539185032123996 -0.2931273849519092
2.6876015625 0.9536512621184483 -0.2941911135557124
2.68875 0.9531765044894671 -0.2954640664477835
2.6898984375 0.9524983170411151 -0.2973774633826067
2.691046875 0.951375817657435 -0.29857479649164065
2.6921953125 0.9508384983572945 -0.29971664362262773
2.69334375 0.9509440776526941 -0.3014740989584738
2.6944921875 0.9507129495319067 -0.30215994229768695
2.695640625 0.949811581631729 -0.30434057207990084
2.6967890625 0.9493751843382348 -0.30538679572129473
2.6979375 0.9492672819529318 -0.3068979080813163
2.6990859375 0.948501769358945 -0.3076748151510694
2.700234375 0.948115473263929 -0.3090297251431633
2.7013828125 0.9475743353867278 -0.3103089269119879
2.70253125 0.9470665428666665 -0.31266591180470243
2.7036796875 0.9479040390312234 -0.31285662713828755
2.704828125 0.9471211878962487 -0.31390787491736816
2.7059765625 0.9460950614459052 -0.3157036309896158
2.707125 0.9459188714337329 -0.3167345356240811
2.7082734375 0.9457459983788982 -0.3174226379568108
2.709421875 0.9459513348368563 -0.3190853776644653
2.7105703125 0.9460724991021635 -0.31992342020995906
2.71171875 0.945034728697207 -0.3206885617680793
2.7128671875 0.9443090978487036 -0.32229251344404275
2.714015625 0.9435208504578444 -0.323686164204779
2.7151640625 0.9436215910889937 -0.32422654284604613
2.7163125 0.9431727594262702 -0.32623532146813017
2.7174609375 0.9424492056297279 -0.32725440839786335
2.718609375 0.9422708684800197 -0.3288043144996466
2.7197578125 0.9419863449754574 -0.33030322813929636
2.72090625 0.9414271147740986 -0.3316983945281138
2.7220546875 0.940997367323927 -0.3332823972360409
2.723203125 0.9402841944980342 -0.33450453643493194
2.7243515625 0.9401775452963105 -0.3363426439764524
2.7255 0.9383331601940909 -0.3355957546342333
2.7266484375 0.9388641029481922 -0.33847600127885236
2.727796875 0.938288007352808 -0.3381744072522647
2.7289453125 0.9372377082501998 -0.3414011875718622
2.73009375 0.9363855674181117 -0.3434556390044434
2.7312421875 0.9367409860612427 -0.344302015816006
2.732390625 0.9361388995724272 -0.34542989739525976
2.7335390625 0.9354553681559797 -0.3446471721946858
2.7346875 0.9344316274289091 -0.3467535910036753
2.7358359375 0.9348511152644607 -0.34878208389799376
2.736984375 0.9336620325447431 -0.35077980238429274
2.7381328125 0.9338883236383975 -0.35335673534119794
2.73928125 0.9337806821367098 -0.35314036569597007
2.7404296875 0.9332013926701332 -0.3548658789902778
2.741578125 0.9323511553616404 -0.35556409615411205
2.7427265625 0.9302792345381942 -0.3568840499643088
2.743875 0.9300211578007213 -0.3578069426314121
2.7450234375 0.9293211811045355 -0.3600133779338032
2.746171875 0.9279286451005 -0.3608359583803019
2.7473203125 0.9289112946557052 -0.36255526223902323
2.74846875 0.9286713754263837 -0.3648739797347127
2.7496171875 0.9277194017566689 -0.36588685110976715
2.750765625 0.9276445819042626 -0.36657755923438173
2.7519140625 0.9265992344264449 -0.36852318933810685
2.7530625 0.9254156589599142 -0.3701288769924904
2.7542109375 0.9246111755242113 -0.37183924924292544
2.755359375 0.924044340848547 -0.37388173332465946
2.7565078125 0.9243986026033724 -0.3749787093267538
2.75765625 0.9235227080471333 -0.3765511732689471
2.7588046875 0.9224299347266612 -0.37688867524006175
2.759953125 0.9223182058860505 -0.37820002102038824
2.7611015625 0.9212794141866719 -0.3797015471054222
2.76225 0.9211741310044615 -0.38123447106186414
2.7633984375 0.9197935171314658 -0.3824235312392097
2.764546875 0.9189512471271548 -0.38350216324532194
2.7656953125 0.9188047131153445 -0.38501167775121936
2.76684375 0.9184891741836629 -0.3867462650567518
2.7679921875 0.9176932369856378 -0.38787462631037617
2.769140625 0.9174382021919903 -0.3882388694977864
2.7702890625 0.9162197878309979 -0.38958941616964315
2.7714375 0.9159928495898393 -0.39070558511987286
2.7725859375 0.91564180958123 -0.3919200576546014
2.773734375 0.9158492899664359 -0.39408329552990856
2.7748828125 0.9149988073239779 -0.3951777339510268
2.77603125 0.9143202831270492 -0.3962381469399959
2.7771796875 0.9136712527453922 -0.39729285974045236
2.778328125 0.9129901270644482 -0.3990589517594624
2.7794765625 0.9132307169829896 -0.3996526196632175
2.780625 0.9121192305678972 -0.40102647987212725
2.7817734375 0.9115559843073875 -0.40279786378750404
2.782921875 0.9114738732032673 -0.4032986053324562
2.7840703125 0.9109044166181203 -0.40472744511098985
2.78521875 0.9103660169196593 -0.4057897717910656
2.7863671875 0.9107386202296516 -0.4066813203344649
2.787515625 0.9104418995630994 -0.4076264249143906
2.7886640625 0.9096390115178474 -0.4091104705439213
2.7898125 0.9105405050762752 -0.410124960558386
2.7909609375 0.9095766428569244 -0.4122625535397463
2.792109375 0.9093869294733763 -0.41308034494974544
2.7932578125 0.9090830110441183 -0.41500694808554617
2.79440625 0.9078279613502328 -0.4158445904753045
2.7955546875 0.9071489527285894 -0.4174664171925171
2.796703125 0.9073964326246412 -0.4188339075278438
2.7978515625 0.9063403307704772 -0.4191866120067652
2.799 0.9066199370822452 -0.42162286127716464
2.8001484375 0.9057072481458811 -0.42282710912136084
2.801296875 0.9051594053643123 -0.423928435925373
2.8024453125 0.9052102998483389 -0.4253811501599415
2.80359375 0.9047964524262667 -0.4272491614983176
2.8047421875 0.9045304925786753 -0.42843682615703943
2.805890625 0.9040141332652607 -0.43027100656018885
2.8070390625 0.9037536900442775 -0.4322455739594121
2.8081875 0.9032587151163332 -0.4329117679688381
2.8093359375 0.9021545141195919 -0.43424166358281074
2.810484375 0.9019163037909474 -0.43538010323423143
2.8116328125 0.9013133800514461 -0.4374264821799487
2.81278125 0.900755410955747 -0.43904505375851755
2.8139296875 0.8999362476767365 -0.440289591838423
2.815078125 0.8989815565448427 -0.44185705029425526
2.8162265625 0.8983221423896057 -0.4433230245559728
2.817375 0.8970659559456794 -0.44503383424528975
2.8185234375 0.8960916920349222 -0.4467135566858344
2.819671875 0.8953284704015212 -0.4478915227670679
2.8208203125 0.894639125423127 -0.4493997053221209
2.82196875 0.89391307551134 -0.4509995161639111
2.8231171875 0.8930041567812613 -0.4525926877652081
2.824265625 0.8917859436992499 -0.4537614690235448
2.8254140625 0.8911580961449103 -0.45499597730619995
2.8265625 0.8909121935802287 -0.45629187962227774
2.8277109375 0.8900422576267778 -0.45750191433812726
2.828859375 0.8885075809881859 -0.45858423750397104
2.8300078125 0.8879719058405507 -0.4605731411259824
2.83115625 0.8868670321400819 -0.46152887674435794
2.8323046875 0.8860491001955575 -0.4630431424066239
2.833453125 0.8853647782678559 -0.46401882016207385
2.8346015625 0.884667828589927 -0.4645612971692878
2.83575 0.8837023203045216 -0.4663001570168425
2.8368984375 0.8828050448979151 -0.46750851857466175
2.838046875 0.881953905924815 -0.46918837728723983
2.8391953125 0.881835354163016 -0.46968470165155174
2.84034375 0.8813048258171942 -0.471365576067483
2.8414921875 0.8804926206114972 -0.47227853729599506
2.842640625 0.879847358797372 -0.4735559514381156
2.8437890625 0.8791508224924854 -0.4748286143041406
2.8449375 0.878285496019503 -0.4770149049321077
2.8460859375 0.8774780828777154 -0.47711447463416656
2.847234375 0.878168672437805 -0.4782904681335091
2.8483828125 0.8766409829838416 -0.4793903497805298
2.84953125 0.8761627101638716 -0.4803387096267344
2.8506796875 0.874885288756639 -0.481746441347977
2.851828125 0.8752062486871194 -0.48351419934201667
2.8529765625 0.8739512420414504 -0.48530396272202553
2.854125 0.8732638274340215 -0.48537808558679585
2.8552734375 0.8734169073826064 -0.48571940405619923
2.856421875 0.8724395061251582 -0.48940523535736363
2.8575703125 0.8710409433692575 -0.48951507242190656
2.85871875 0.8708827374791952 -0.4902133370386951
2.8598671875 0.8705748035106372 -0.4916574743617479
2.861015625 0.8712985709496305 -0.4923771343458601
2.8621640625 0.8698051181595945 -0.49349502176205745
2.8633125 0.8680757449537456 -0.4962074614392123
2.8644609375 0.8677007017688753 -0.4969497684891449
2.865609375 0.8670708988810473 -0.4967725607746497
2.8667578125 0.8659317595478272 -0.49698973946130703
2.86790625 0.8653807183029497 -0.4990659759009121
2.8690546875 0.8641799068356911 -0.5006748624607483
2.870203125 0.8640828911192605 -0.5015146433621197
2.8713515625 0.8643977678867436 -0.5033946276168
2.8725 0.8633631824660555 -0.5036605285864022
2.8736484375 0.8630387639178306 -0.505825004153559
2.874796875 0.861666460873756 -0.5073011661598521
2.8759453125 0.8604797930098277 -0.5082249541731064
2.87709375 0.8596802516129709 -0.5092189867112722
2.8782421875 0.8594228398878045 -0.5104830162908958
2.879390625 0.8585127861771875 -0.5121312661656259
2.8805390625 0.8578152342459272 -0.5140025244279476
2.8816875 0.8567122903252691 -0.5144379931380214
2.8828359375 0.8558113219200649 -0.5153299626711562
2.883984375 0.8551627178109488 -0.5165774868880304
2.8851328125 0.8549514505671962 -0.5175767608879502
2.88628125 0.8542166176982355 -0.5191938811848593
2.8874296875 0.8531640135978374 -0.5204472335655941
2.888578125 0.852062965890603 -0.521818810008613
2.8897265625 0.8518657040988725 -0.5233310028803283
2.890875 0.8511320499671755 -0.5238721580620955
2.8920234375 0.850381875280258 -0.5248652841279796
2.893171875 0.8500565671927707 -0.5264145987251644
2.8943203125 0.8496770552510412 -0.5274966624819655
2.89546875 0.8488947420462248 -0.5286591488610495
2.8966171875 0.8475874269605423 -0.5298815409800749
2.897765625 0.8467948764707065 -0.5314246935129723
2.8989140625 0.8460660243636859 -0.5322817110975926
2.9000625 0.8449541482086113 -0.5333311024612387
2.9012109375 0.8441167544675272 -0.5345624441869625
2.902359375 0.8439780223859997 -0.5359166691711102
2.9035078125 0.8435239414361654 -0.5369979569768459
2.90465625 0.8425410467009091 -0.5385660104791841
2.9058046875 0.8415667405184163 -0.5395584748788099
2.906953125 0.8405280837182333 -0.5408169845994633
2.9081015625 0.8395289791602638 -0.5418211788419776
2.90925 0.8388864983282669 -0.5429151833028486
2.9103984375 0.8380397133822794 -0.5442796266639872
2.911546875 0.8379381396015342 -0.5454022971889787
2.9126953125 0.8376741083492354 -0.5458195117216036
2.91384375 0.8359348185630481 -0.5472506233684435
2.9149921875 0.8350575326932139 -0.548909638317096
2.916140625 0.8358890166124138 -0.5501470638369623
2.9172890625 0.8342439530631534 -0.5517980263669069
2.9184375 0.8326882160808315 -0.553118642213215
2.9195859375 0.8318777344249375 -0.5539552977974557
2.920734375 0.8308334040320405 -0.5551795445333406
2.9218828125 0.8307722841503192 -0.5565323028420208
2.92303125 0.8303604618411271 -0.5566640918650327
2.9241796875 0.8296184294839117 -0.5580409861615453
2.925328125 0.8282672221086834 -0.5600112717162526
2.9264765625 0.8277974087468709 -0.5606118744407629
2.927625 0.8269670773053748 -0.5616159492344603
2.9287734375 0.8261517300433743 -0.563440152163564
2.929921875 0.8258840753111771 -0.5639884352850448
2.9310703125 0.8245925319115024 -0.5651092248188376
2.93221875 0.8246154843490686 -0.5670864468113941
2.9333671875 0.8234266267881064 -0.5680177418867584
2.934515625 0.8229829583955853 -0.5687739881791113
2.9356640625 0.8217182137225156 -0.570294783970354
2.9368125 0.8208072479505519 -0.5712391026374423
2.9379609375 0.8209680597528385 -0.5724578942211154
2.939109375 0.8198707476716278 -0.5730691288221721
2.9402578125 0.8188831313792516 -0.5746247061432581
2.94140625 0.8174695820232504 -0.5754123913160805
2.9425546875 0.8165074237495159 -0.5770040724378455
2.943703125 0.8155672519215552 -0.5773104718703412
2.9448515625 0.8146340717421497 -0.5782924129630436
2.946 0.814062653824779 -0.5797869646787153
2.9471484375 0.8132640167837737 -0.5812828987893022
2.948296875 0.8131427933619759 -0.5824093997416869
2.9494453125 0.8121016313466292 -0.58386973923804
2.95059375 0.8107503660361992 -0.5853469782393979
2.9517421875 0.8101526481911178 -0.585893815624098
2.952890625 0.8094478726025024 -0.5865114978731066
2.9540390625 0.8088721106827134 -0.5882958412344085
2.9551875 0.8081974370383422 -0.5895449587273067
2.9563359375 0.8074862998218479 -0.5903461252993392
2.957484375 0.806700215060746 -0.5913626940210767
2.9586328125 0.8056068951195711 -0.5927378797768152
2.95978125 0.804351855258839 -0.5941191602507824
2.9609296875 0.8038614332905928 -0.5957262676539339
2.962078125 0.8033133350967506 -0.5965765508519192
2.9632265625 0.802922471966744 -0.5974387196550274
2.964375 0.8025661897020855 -0.5987607580118635
2.9655234375 0.8007985777238691 -0.5996845071556608
2.966671875 0.7999976649697731 -0.6016928725333806
2.9678203125 0.7988008861762732 -0.6024044115839801
2.96896875 0.7981082934364676 -0.6030004990706297
2.9701171875 0.7982139757536743 -0.6043438746359188
2.971265625 0.7973430181737828 -0.6054961163022625
2.9724140625 0.7961027602648522 -0.6073518711446075
2.9735625 0.7952208034554602 -0.607895503043093
2.9747109375 0.7941938684233978 -0.6098958300096817
2.975859375 0.793080576296066 -0.6107613621973625
2.9770078125 0.7926215943246052 -0.6125699803294989
2.97815625 0.7919318910244149 -0.6135274333505152
2.9793046875 0.7910294793432813 -0.6142547088433947
2.980453125 0.7901106385128588 -0.6154620834660176
2.9816015625 0.7902783398612453 -0.6161879227819497
2.98275 0.7890147495882027 -0.617725556090163
2.9838984375 0.7875690524893366 -0.6187354181364867
2.985046875 0.7871430681151811 -0.6193048895684652
2.9861953125 0.78633117350309 -0.6205310590518995
2.98734375 0.7857780147752261 -0.6213424567331627
2.9884921875 0.7848510464997036 -0.62390981190741
2.989640625 0.7840473319130834 -0.6247953221604441
2.9907890625 0.782887687492096 -0.6256574861711064
2.9919375 0.7826084080297352 -0.6276490522849348
2.9930859375 0.7816461690285003 -0.6287334815822048
2.994234375 0.7808778598155617 -0.6290554968165978
2.9953828125 0.780294002991776 -0.6304456670757345
2.99653125 0.7789751807233067 -0.6310489400486056
2.9976796875 0.7789774336100103 -0.6326589976801636
2.998828125 0.7773662544361697 -0.6344147107053703
2.9999765625 0.7765872732597485 -0.6350402499515375
3.001125 0.7754536695494672 -0.6354169178483186
3.0022734375 0.7748199680379928 -0.636807343853183
3.003421875 0.7745628837839149 -0.6378430386048188
3.0045703125 0.7733348443931536 -0.6393272106465602
3.00571875 0.7726786263909751 -0.6403292306134784
3.0068671875 0.7717754911957238 -0.6408475303711146
3.008015625 0.7703133705038511 -0.6416585071485792
3.0091640625 0.769430979452679 -0.6425580697844767
3.0103125 0.7686754641813712 -0.6439679120765714
3.0114609375 0.7683934979584804 -0.6449278552917288
3.012609375 0.7670034768926953 -0.6458708455484032
3.0137578125 0.7659026922213249 -0.6475691074788158
3.01490625 0.7648176407683736 -0.6487526573883995
3.0160546875 0.763992305709879 -0.6493355446858917
3.017203125 0.7624312215514532 -0.6501701964729557
3.0183515625 0.7618023983911596 -0.651622997249187
3.0195 0.7608659815356416 -0.652620778783707
3.0206484375 0.7599042041236262 -0.6538968052192894
3.021796875 0.7586575200638559 -0.6551079707634856
3.0229453125 0.7578011564275202 -0.6549413615564638
3.02409375 0.756696727940036 -0.6565742197607033
3.0252421875 0.7564906411393645 -0.6581007057646445
3.026390625 0.7555310905047543 -0.6594898011505614
3.0275390625 0.7550106338448069 -0.660167871078147
3.0286875 0.7546881513660784 -0.6616193120340129
3.0298359375 0.7525011968189289 -0.6622886890327917
3.030984375 0.7518153145968198 -0.663197327403351
3.0321328125 0.7505089473977677 -0.6646639418965452
3.03328125 0.7499756749806666 -0.6660766720104937
3.0344296875 0.7488830821423614 -0.6674161718102001
3.035578125 0.7479589466180437 -0.6688807878490037
3.0367265625 0.746496598331456 -0.6704104591760073
3.037875 0.7460868346873136 -0.6714544177792016
3.0390234375 0.7442211507407734 -0.6732130522266475
3.040171875 0.744565034036205 -0.6733416077391139
3.0413203125 0.7431866452160243 -0.6749885015008484
3.04246875 0.7426794715034429 -0.6767473898595746
3.0436171875 0.7402416610284546 -0.6780838877144125
3.044765625 0.7393986983686269 -0.6788905721230342
3.0459140625 0.738879159665423 -0.6799262779595857
3.0470625 0.7382244204354864 -0.6794590682304268
3.0482109375 0.7368343368970514 -0.6812924300819162
3.049359375 0.7365524161291923 -0.6826294969317441
3.0505078125 0.7359748225745062 -0.6831665969968238
3.05165625 0.7357125249871167 -0.6855279493691806
3.0528046875 0.7350509400429812 -0.6867796676453582
3.053953125 0.7334929087738044 -0.6876906233891188
3.0551015625 0.7323114874244713 -0.687835005213206
3.05625 0.7313209254470169 -0.6898204109836618
3.0573984375 0.7312677324195889 -0.6895846293464711
3.058546875 0.7288001716731871 -0.6917250960932182
3.0596953125 0.728748201139531 -0.6931813649124224
3.06084375 0.727211201786687 -0.6936246486375689
3.0619921875 0.725630673668328 -0.6938503465767184
3.063140625 0.7255826703219108 -0.6954737374199091
3.0642890625 0.723755698478967 -0.6968923568907639
3.0654375 0.7230821468398071 -0.6977635793518034
3.0665859375 0.723072103132723 -0.6981022706041686
3.067734375 0.7224235297276453 -0.7003462495297506
3.0688828125 0.7209255434208408 -0.7018582036876002
3.07003125 0.7198617087426136 -0.702611738386445
3.0711796875 0.7193224110956712 -0.7037772144406188
3.072328125 0.7188790326941262 -0.705949369214472
3.0734765625 0.7175870464612926 -0.7057273418193909
3.074625 0.7169881105671738 -0.7063708566593321
3.0757734375 0.7150442029906406 -0.7074055387958221
3.076921875 0.7144906381169018 -0.7076035843356717
3.0780703125 0.7134797497666145 -0.7092172436325089
3.07921875 0.7123629005977504 -0.7097410302655028
3.0803671875 0.711537367633397 -0.7112599819253534
3.081515625 0.710434675513149 -0.7120545939966165
3.0826640625 0.7092715893478194 -0.7133055256914029
3.0838125 0.7085250489692747 -0.7138606947130591
3.0849609375 0.7073947792385902 -0.7147755041137954
3.086109375 0.7063474925406156 -0.7155585816815708
3.0872578125 0.7059638514751883 -0.7167872547581343
3.08840625 0.7033956131712151 -0.7173360805224627
3.0895546875 0.703047570066871 -0.7182310095996378
3.090703125 0.7018192231750363 -0.7188584949860795
3.0918515625 0.7012988010048136 -0.7200886147764266
3.093 0.6998395554484012 -0.7216251993726
3.0941484375 0.6987181714112257 -0.722292264368062
3.095296875 0.6979025531705144 -0.7230139242360036
3.0964453125 0.6976685509016106 -0.7243357767778607
3.09759375 0.69638016228632 -0.7262166614811211
3.0987421875 0.6949395440474095 -0.7261987202624385
3.099890625 0.6932663473996489 -0.7273346545659374
3.1010390625 0.6923419150599655 -0.7296523519974862
3.1021875 0.6912649443629943 -0.730048537289706
3.1033359375 0.6902344558795033 -0.7320900492277413
3.104484375 0.6893661069606687 -0.7327717367002092
3.1056328125 0.6872573825561233 -0.7337649414842136
3.10678125 0.6869170474682734 -0.7344072830185155
3.1079296875 0.6854878175658978 -0.7358331549166428
3.109078125 0.6843649704649045 -0.7374506587237832
3.1102265625 0.6829824287756117 -0.738935059467494
3.111375 0.6814868342007718 -0.7389975794729763
3.1125234375 0.6814424656436796 -0.7400140018534356
3.113671875 0.6788337498901607 -0.7405433255850088
3.1148203125 0.6789989101530971 -0.7425235831023463
3.11596875 0.6771726604084677 -0.7429563230497026
3.1171171875 0.6757397372153707 -0.7429914532924093
3.118265625 0.6753567351478253 -0.7435240696774849
3.1194140625 0.6742599906333564 -0.7454105033418497
3.1205625 0.6733785952464496 -0.7461610200976985
3.1217109375 0.6728525122265335 -0.7477708545643191
3.122859375 0.672103155542473 -0.7491209998389694
3.1240078125 0.6707754042109322 -0.7501936965296714
3.12515625 0.6683981726470107 -0.7518490923678499
3.1263046875 0.6688318437551698 -0.7522043755604
3.127453125 0.6675190722924015 -0.7527504214442784
3.1286015625 0.6665711782580177 -0.7544314523117142
3.12975 0.6650712557858196 -0.7551060062840337
3.1308984375 0.6637731457720637 -0.7556472185543688
3.132046875 0.6631537297349536 -0.7567756502237476
3.1331953125 0.6612840521976424 -0.7574357971939228
3.13434375 0.660475446655751 -0.7578055918526025
3.1354921875 0.6593349408519482 -0.758503334688298
3.136640625 0.6576405247256405 -0.7601035832341466
3.1377890625 0.6576040424296062 -0.7609989262475317
3.1389375 0.655773665646286 -0.7623350480908648
3.1400859375 0.6554090101394436 -0.763400307125812
3.141234375 0.6547565153374285 -0.7638782176583614
3.1423828125 0.654392831649583 -0.7650476057737441
3.14353125 0.6525122677683586 -0.7664596923925339
3.1446796875 0.6518121472704222 -0.7680973219306158
3.145828125 0.650464601760459 -0.7681456516949704
3.1469765625 0.6491018363994516 -0.7686728688581335
3.148125 0.6486342716741217 -0.7690309007084011
3.1492734375 0.6472762731082702 -0.7703565099054367
3.150421875 0.6457686208330939 -0.7713566971561194
3.1515703125 0.6448757218406307 -0.7717987938528761
3.15271875 0.6436364052748138 -0.7733761867643484
3.1538671875 0.6421638387809687 -0.7750285362580862
3.155015625 0.642328387324396 -0.7755823071188351
3.1561640625 0.641225056518149 -0.7765052327671367
3.1573125 0.6395071496122671 -0.7769548205576747
3.1584609375 0.6381902224422112 -0.778096891555263
3.159609375 0.6363631440285129 -0.7786564231195294
3.1607578125 0.6349814689300736 -0.7799586368288717
3.16190625 0.634546409077967 -0.7804836914988027
3.1630546875 0.6336172660846247 -0.7810517187479601
3.164203125 0.6326710845434119 -0.7829830541105874
3.1653515625 0.631183819540423 -0.7836587822889993
3.1665 0.6300041641042594 -0.7838165459683225
3.1676484375 0.6293786797803674 -0.784218491705443
3.168796875 0.6288218210080775 -0.7860358185923018
3.1699453125 0.6276417523009219 -0.7865980456252502
3.17109375 0.6263521561602151 -0.7881644781713834
3.1722421875 0.6257388268089332 -0.7892481086739536
3.173390625 0.6241508330551742 -0.7901940083921984
3.1745390625 0.6230428503065608 -0.7904590367736833
3.1756875 0.622117590643331 -0.7915252638181576
3.1768359375 0.6215650698401243 -0.7920248528895081
3.177984375 0.6206829343643451 -0.7932117997509271
3.1791328125 0.6187433693559039 -0.7938247647078251
3.18028125 0.6175449171265639 -0.7957183166695543
3.1814296875 0.6164096050269161 -0.7961956628289494
3.182578125 0.6146017089877807 -0.797447688491284
3.1837265625 0.6133890225419054 -0.7985501522185829
3.184875 0.61272633775425 -0.7985703591440588
3.1860234375 0.6111690699381415 -0.8000383497192849
3.187171875 0.6091571119114276 -0.8007520056802027
3.1883203125 0.6086656259121647 -0.8025211135966195
3.18946875 0.6067157684720226 -0.801661643573453
3.1906171875 0.6062967226804918 -0.8047049122683613
3.191765625 0.6050483611610792 -0.8050771888756412
3.1929140625 0.6048639676086707 -0.8055878159820543
3.1940625 0.6034591206692295 -0.8068707815266907
3.1952109375 0.6018401031806088 -0.8082770115045799
3.196359375 0.6008880221573283 -0.8096024694548519
3.1975078125 0.6000039292533861 -0.8091807454708806
3.19865625 0.5986230547811395 -0.811201601269978
3.1998046875 0.5970025463785938 -0.8123680936249008
3.200953125 0.5953369031913702 -0.8132137049634
3.2021015625 0.5946498417473108 -0.8138607481154954
3.20325 0.5927575419555401 -0.8149649940112096
3.2043984375 0.5922453936031438 -0.815042630313633
3.205546875 0.5910879523469954 -0.8156254683879613
3.2066953125 0.5895802179489729 -0.8165992035585101
3.20784375 0.5887605346754081 -0.8171760787242223
3.2089921875 0.5880523807840088 -0.8185448224195778
3.210140625 0.5873150088439466 -0.819307764721031
3.2112890625 0.585878649466016 -0.820687685060983
3.2124375 0.5843159699718277 -0.8217158036024393
3.2135859375 0.583375777654473 -0.8216994141591746
3.214734375 0.582405198462296 -0.822570908734134
3.2158828125 0.5818750268033958 -0.8232062274843839
3.21703125 0.5809163531961608 -0.8241934629340572
3.2181796875 0.5789378937699482 -0.8257522534899445
3.219328125 0.5783470393150292 -0.8256757333868491
3.2204765625 0.5768868333985523 -0.8263178710575405
3.221625 0.5755866827694985 -0.8279740160405286
3.2227734375 0.5738383541826827 -0.8286524335780612
3.223921875 0.573096763813989 -0.8294751103262883
3.2250703125 0.5715912576217312 -0.8292838822760578
3.22621875 0.5701126810111693 -0.8297299951912894
3.2273671875 0.5692389880840647 -0.8315395185215855
3.228515625 0.5684006931120088 -0.8334628362314314
3.2296640625 0.5664572950813829 -0.8333083696723428
3.2308125 0.5649487025900151 -0.8339619483215652
3.2319609375 0.5641530241949431 -0.8347692359807248
3.233109375 0.5633676820366144 -0.8374846524675983
3.2342578125 0.5630265956224354 -0.8372889263200866
3.23540625 0.5611940833381817 -0.8382267962260055
3.2365546875 0.5593839811088415 -0.8389102915182939
3.237703125 0.5581567698857385 -0.8389591342312359
3.2388515625 0.5578528932569375 -0.8399006090352993
3.24 0.5565586544712706 -0.8422448424498761
3.2411484375 0.5549968574016377 -0.8424196706178558
3.242296875 0.5541804124743032 -0.8436557912232253
3.2434453125 0.5530787952427803 -0.844700651992967
3.24459375 0.5513339603293326 -0.8448470040433254
3.2457421875 0.5497966874999966 -0.8445971404729874
3.246890625 0.549520171723695 -0.8460020827480054
3.2480390625 0.5475205827619675 -0.8468227458071463
3.2491875 0.5460310320239133 -0.8469626366256539
3.2503359375 0.5449723185416608 -0.848543020763071
3.251484375 0.5431639936529375 -0.8488080820333922
3.2526328125 0.5422654759483707 -0.8499062027815011
3.25378125 0.5412003519516064 -0.8506045010534643
3.2549296875 0.539504526374416 -0.8506484686036944
3.256078125 0.5387034873603646 -0.8514346797438556
3.2572265625 0.5379569201917439 -0.8521730803248697
3.258375 0.5369856818606442 -0.8533944712166426
3.2595234375 0.5350520525029927 -0.8539155524510539
3.260671875 0.533667978154511 -0.854978824358963
3.2618203125 0.5321841762711241 -0.8554503263191292
3.26296875 0.5312596232157528 -0.8563399331915263
3.2641171875 0.5304257976570979 -0.8567536678933102
3.265265625 0.5290722689326305 -0.8571842640191685
3.2664140625 0.52762296101936 -0.858836371284064
3.2675625 0.5255914156923464 -0.8593472612170536
3.2687109375 0.524237610200686 -0.8608952595036465
3.269859375 0.5234234620129861 -0.8615141060273542
3.2710078125 0.5223019046629525 -0.8616097531912587
3.27215625 0.5197221960166568 -0.8616374029809228
3.2733046875 0.5192089967981129 -0.8625075050502503
3.274453125 0.5181783708979657 -0.863963029064145
3.2756015625 0.5166440264642548 -0.8642698536109154
3.27675 0.5152572976781142 -0.8645049713035308
3.2778984375 0.5143266331986729 -0.8655209837233646
3.279046875 0.5130143057082175 -0.8663305177765399
3.2801953125 0.511541928149985 -0.866263432730481
3.28134375 0.5113269167110607 -0.8672417058263223
3.2824921875 0.5097056655116892 -0.8682463978705851
3.283640625 0.5078431334123407 -0.8693926071871257
3.2847890625 0.5066051554977178 -0.8695408916380827
3.2859375 0.5057156748254265 -0.8704889644928198
3.2870859375 0.5051756371400107 -0.8718107275039173
3.288234375 0.5033755398661828 -0.8717767401668661
3.2893828125 0.5021026170987014 -0.8730969704433333
3.29053125 0.5010073954235994 -0.8746496922568091
3.2916796875 0.4997394402384764 -0.8748030405645492
3.292828125 0.4981714314558493 -0.8758796834048129
3.2939765625 0.4967249988796728 -0.8764787932902667
3.295125 0.49475453269816355 -0.8772326248515664
3.2962734375 0.4932415504463547 -0.8776100673227198
3.297421875 0.4928623103925419 -0.8788220573431376
3.2985703125 0.4919688333554046 -0.8794633406116411
3.29971875 0.49012823786880916 -0.8799090042727976
3.3008671875 0.48856451559528574 -0.8809254142860001
3.302015625 0.4876357683030372 -0.8817073796294359
3.3031640625 0.4862528724726678 -0.8821196376751047
3.3043125 0.4848322233517259 -0.8832656751768323
3.3054609375 0.4826568690928288 -0.8838428427959217
3.306609375 0.4819753544410988 -0.8851366267105553
3.3077578125 0.47993822523307617 -0.8858017641089024
3.30890625 0.4793624766778395 -0.8862301863273582
3.3100546875 0.47847433851546584 -0.8873219565361079
3.311203125 0.4766312407110255 -0.8880385873807656
3.3123515625 0.4753915174588417 -0.8881990509698519
3.3135 0.47386690839127793 -0.8892072993949635
3.3146484375 0.4724449631344504 -0.8902261689209754
3.315796875 0.4714203600818093 -0.890846873529318
3.3169453125 0.47027294758242233 -0.8908720415461104
3.31809375 0.46904913399092424 -0.891260325121286
3.3192421875 0.46727805165539027 -0.892656243794665
3.320390625 0.465935383053607 -0.8931939317928261
3.3215390625 0.46489420683308386 -0.8939321582169302
3.3226875 0.463137661054001 -0.8939457999340767
3.3238359375 0.46264074283766193 -0.896215526757302
3.324984375 0.4615229633092962 -0.8971590529107174
3.3261328125 0.4592248559355743 -0.8980823325413554
3.32728125 0.45846540564123667 -0.898887104140518
3.3284296875 0.4575537406874669 -0.8990379191463825
3.329578125 0.4560376181521251 -0.8996738484741666
3.3307265625 0.45401928343597886 -0.9011861111656415
3.331875 0.4527003481189355 -0.9020389637148608
3.3330234375 0.45191383145847125 -0.9027421699477225
3.334171875 0.4511958803474747 -0.902904551382188
3.3353203125 0.44977803317951004 -0.9031403754747002
3.33646875 0.4480067075152097 -0.9041298743917103
3.3376171875 0.4465914720849582 -0.9040095403472317
3.338765625 0.4452044836584969 -0.904899079087153
3.3399140625 0.44371605782506834 -0.9055771976092062
3.3410625 0.4432757588719571 -0.9056688695103425
3.3422109375 0.441148539748243 -0.9070987823410205
3.343359375 0.4397825605602883 -0.9080946819899672
3.3445078125 0.4391278342730116 -0.9083791123161166
3.34565625 0.4378532990002859 -0.9088623096965458
3.3468046875 0.43587946354781776 -0.9086486981605183
3.347953125 0.4344047810747622 -0.908874602261627
3.3491015625 0.433508991176271 -0.9098274314932158
3.35025 0.4320329532032308 -0.9103781886270754
3.3513984375 0.43113190799385276 -0.9112226512395578
3.352546875 0.42861669827056653 -0.9117087010179099
3.3536953125 0.4277035563499136 -0.9132509193042666
3.35484375 0.42642582394545525 -0.9134559525091912
3.3559921875 0.4254844540201624 -0.9139774458916622
3.357140625 0.42400755085696423 -0.9153952258344807
3.3582890625 0.42348060578256086 -0.9158396740588772
3.3594375 0.422342104080623 -0.9170105109055801
3.3605859375 0.4211017146988539 -0.9178153665233906
3.361734375 0.41876131499298097 -0.9182261295005563
3.3628828125 0.4174202634271589 -0.9186791889567079
3.36403125 0.4168651426402097 -0.9191821759167136
3.3651796875 0.4154265611184407 -0.9206087735576117
3.366328125 0.41345011648648405 -0.9211972491616277
3.3674765625 0.41152687724767373 -0.9212355760403811
3.368625 0.4099600415856158 -0.9217886421966363
3.3697734375 0.40811585040519316 -0.9227432337867778
3.370921875 0.40761078214443924 -0.9236081264385779
3.3720703125 0.4062772740723657 -0.9239092261977867
3.37321875 0.40494276901685294 -0.9233563002825632
3.3743671875 0.40383602919235695 -0.9239455654991365
3.375515625 0.40279083442116165 -0.9247953392701328
3.3766640625 0.4011806224387611 -0.9255487545745171
3.3778125 0.39942694913566124 -0.926117997482606
3.3789609375 0.3980690749277358 -0.9262746047577949
3.380109375 0.3963101124729994 -0.9271478015765853
3.3812578125 0.39508974245928685 -0.9276855143337852
3.38240625 0.39361103687712173 -0.9278754952226316
3.3835546875 0.3928761122742435 -0.928889995591218
3.384703125 0.39088927431452486 -0.9296064848709986
3.3858515625 0.38959396804161617 -0.9301703552303778
3.387 0.38888518034526137 -0.9310712377213756
3.3881484375 0.3874020565423879 -0.9314935158867129
3.389296875 0.38643988877233015 -0.9325991436488745
3.3904453125 0.384676713941114 -0.9338518004629932
3.39159375 0.3831415011769391 -0.9333978783787961
3.3927421875 0.38111860438444817 -0.9342663748886159
3.393890625 0.38003209429415674 -0.9351154444763369
3.3950390625 0.37840881238544194 -0.9356821426246537
3.3961875 0.3778037185685271 -0.936002975200586
3.3973359375 0.3769397977216428 -0.9367102134865941
3.398484375 0.3755523578727634 -0.9373176112205264
3.3996328125 0.37403331064210943 -0.9374673891486012
3.40078125 0.37238921862828167 -0.93769937582694
3.4019296875 0.3711292973399767 -0.9386867490437786
3.403078125 0.3694023087590056 -0.9389483315887708
3.4042265625 0.3679778194282045 -0.9389287819868323
3.405375 0.3674562704268221 -0.9395959202034101
3.4065234375 0.36566027635730747 -0.9413739428201029
3.407671875 0.36397164694916306 -0.9411210020181837
3.4088203125 0.3626024176692684 -0.9414628833031843
3.40996875 0.36159939936541124 -0.9419129994452542
3.4111171875 0.3604566518557442 -0.9427376267014813
3.412265625 0.35918993396496557 -0.9431726708140651
3.4134140625 0.357110172584031 -0.9435250652349257
3.4145625 0.3564183346151635 -0.9433993952811538
3.4157109375 0.3549935839943651 -0.9438708809497258
3.416859375 0.35235924902955196 -0.9451362473618021
3.4180078125 0.3514860631289043 -0.9450185159372718
3.41915625 0.3501151709000727 -0.9456038831664324
3.4203046875 0.3487426200012318 -0.9463686769681594
3.421453125 0.34692409740301067 -0.9468861704911161
3.4226015625 0.3458149623985516 -0.9459014053120528
3.42375 0.34448515537396207 -0.9467136261808146
3.4248984375 0.3429925088081404 -0.9476309610985485
3.426046875 0.34155245854514416 -0.948555116173664
3.4271953125 0.33959557530162676 -0.9493144123046626
3.42834375 0.3383169345576304 -0.949550948823583
3.4294921875 0.33650667604047846 -0.9502624359925685
3.430640625 0.3350036696417953 -0.9507407537649569
3.4317890625 0.3336465413161821 -0.9513411178207056
3.4329375 0.3325876923759761 -0.9520271853922561
3.4340859375 0.33073559846971023 -0.9521978441234592
3.435234375 0.3303272963419179 -0.9532807393918792
3.4363828125 0.3275474878572248 -0.9534693886970623
3.43753125 0.3271793951268512 -0.9535169705268904
3.4386796875 0.3257693157070545 -0.9543804787808092
3.439828125 0.3246353093051787 -0.9542312135465556
3.4409765625 0.32374305961016675 -0.9554695960875221
3.442125 0.3220899851589117 -0.9552442661263651
3.4432734375 0.3186726424807641 -0.9557294012071846
3.444421875 0.3194970429028169 -0.9564233102332649
3.4455703125 0.31813484367789224 -0.9567717172435701
3.44671875 0.3170012856394564 -0.9573977867430952
3.4478671875 0.3152739016408775 -0.9582004676432926
3.449015625 0.31307673475231257 -0.9588536973940307
3.4501640625 0.31225102202244204 -0.9587143584226681
3.4513125 0.31004858333963653 -0.9585456043106378
3.4524609375 0.30893500886745373 -0.9598711674809743
3.453609375 0.30789826010182064 -0.9600185753661603
3.4547578125 0.30625413365623616 -0.9608905063228941
3.45590625 0.3041559919560511 -0.9612188194441639
3.4570546875 0.3028067983892547 -0.9609534713793685
3.458203125 0.3016980166976502 -0.9618745885073943
3.4593515625 0.30050618873239154 -0.9626568817788043
3.4605 0.2985540407235546 -0.9631628103533173
3.4616484375 0.29744334988171056 -0.9635505236354008
3.462796875 0.2954461712188754 -0.9643578069431967
3.4639453125 0.29390878990914154 -0.9648260327046629
3.46509375 0.29234770577101776 -0.9653465942396079
3.4662421875 0.29082161585016836 -0.965702047871872
3.467390625 0.28950611558634987 -0.9660247778273764
3.4685390625 0.28776693708150036 -0.9662988765125202
3.4696875 0.2860589814826275 -0.966640643935152
3.4708359375 0.28472830689892703 -0.9666339440219434
3.471984375 0.2832640074505287 -0.9672138599919551
3.4731328125 0.2818487027018272 -0.967467157587727
3.47428125 0.2797918818108829 -0.9678602687249579
3.4754296875 0.27870841068345653 -0.9683471460633071
3.476578125 0.27741427516731343 -0.9679215479039975
3.4777265625 0.2758144360027927 -0.9690691729940936
3.478875 0.27419199907882996 -0.9698943855797686
3.4800234375 0.27290543006760704 -0.970337555103006
3.481171875 0.2712394376995355 -0.9702750854000813
3.4823203125 0.27043789688369235 -0.9702995027217687
3.48346875 0.269653640210231 -0.9706355990095954
3.4846171875 0.26758237225686715 -0.9710093017498875
3.485765625 0.2663128338594031 -0.9713283458901372
3.4869140625 0.2642575094430104 -0.9717365529955062
3.4880625 0.2630386658368425 -0.9722069316938038
3.4892109375 0.2606986922388338 -0.9725167381784072
3.490359375 0.26032049702093646 -0.9726562886432317
3.4915078125 0.25846454418895093 -0.9731797830645209
3.49265625 0.2569604629319859 -0.9738819239761185
3.4938046875 0.2550668488738236 -0.9738149545070146
3.494953125 0.2544039699078757 -0.9741843058702473
3.4961015625 0.25268813637640536 -0.9750398270420088
3.49725 0.25046893872343706 -0.975384816931494
3.4983984375 0.24936224135277876 -0.9758186615079367
3.499546875 0.24755693676343613 -0.9752922604982028
3.5006953125 0.24619745650653763 -0.9764265631516931
3.50184375 0.2450937072077329 -0.9767264375065612
3.5029921875 0.2437419639865277 -0.9776129109797362
3.504140625 0.2421437334785646 -0.9784986877266479
3.5052890625 0.24075392015877972 -0.9787121624720542
3.5064375 0.23881435727317848 -0.9780775729485727
3.5075859375 0.23725291153653222 -0.9790197266038241
3.508734375 0.23605447518906789 -0.9793054989331853
3.5098828125 0.23469095862447525 -0.9791451498850701
3.51103125 0.2330002693003374 -0.9798670418856774
3.5121796875 0.23111890869371485 -0.9802136502379215
3.513328125 0.23006266621804422 -0.9806182456610804
3.5144765625 0.22862535245865018 -0.9808488000401032
3.515625 0.22622610760510783 -0.9810918797791882
3.5167734375 0.22493519023673142 -0.9814801202456793
3.517921875 0.22452340871110688 -0.9814220593595894
3.5190703125 0.22277429473983124 -0.9816089245447246
3.52021875 0.2211712193153656 -0.982340063462322
3.5213671875 0.22027906209050693 -0.9820000114580678
3.522515625 0.21820317480864299 -0.982036090826401
3.5236640625 0.21630225939071374 -0.9829997156276321
3.5248125 0.2150393185267594 -0.9832231053627942
3.5259609375 0.21368111692421693 -0.9834498564461958
3.527109375 0.21227175609120752 -0.9839058696782212
3.5282578125 0.2105025360019462 -0.984080348842281
3.52940625 0.20920069443426262 -0.9844807779899533
3.5305546875 0.20837611625780297 -0.9846331699831529
3.531703125 0.2066290017021857 -0.985130106180684
3.5328515625 0.20496099195145537 -0.9851081796604844
3.534 0.2037644337890063 -0.9852627733741169
3.5351484375 0.20238451905466362 -0.9860411260448807
3.536296875 0.20104656134524845 -0.9863762560415517
3.5374453125 0.19942334860748967 -0.9863174451367088
3.53859375 0.1976909191308773 -0.9862683726740894
3.5397421875 0.19615195681500702 -0.9861089324580821
3.540890625 0.1952059275380365 -0.9863268341704083
3.5420390625 0.19352606249351983 -0.9868180862216264
3.5431875 0.1922418276738047 -0.987050373752219
3.5443359375 0.19091142196583535 -0.9872946326272046
3.545484375 0.18987926493733132 -0.9878868688926894
3.5466328125 0.18840094363603002 -0.988279546235065
3.54778125 0.18648413498257232 -0.9887725010214181
3.5489296875 0.18502129844422277 -0.988720464504942
3.550078125 0.18288822616933142 -0.9886204963239442
3.5512265625 0.18199368514289938 -0.9892087286682077
3.552375 0.18070841837866222 -0.9888569676395901
3.5535234375 0.17954387975294336 -0.9895920100921516
3.554671875 0.17822187179411772 -0.9896601182797001
3.5558203125 0.17727498785486961 -0.9897181059822241
3.55696875 0.17544166875828576 -0.9900108673130643
3.5581171875 0.1737500666932303 -0.9900650572718719
3.559265625 0.17291661179143075 -0.9906158925533641
3.5604140625 0.17147972939870354 -0.9912047215579142
3.5615625 0.16964059230625816 -0.991383272519133
3.5627109375 0.1690474038790264 -0.9922930620355601
3.563859375 0.16729319839940449 -0.992248657721671
3.5650078125 0.16563287130405732 -0.9919776009616484
3.56615625 0.1639562910986031 -0.9928077953792577
3.5673046875 0.1628415849145091 -0.9931526960373058
3.568453125 0.1610976673418161 -0.9933673236987667
3.5696015625 0.16022778375031071 -0.9934690879241473
3.57075 0.1573762467298294 -0.9929296199339233
3.5718984375 0.15592511891555141 -0.9937211020356094
3.573046875 0.15559771516273765 -0.9940504092659409
3.5741953125 0.1530493635474055 -0.9949484165825404
3.57534375 0.15231141456364775 -0.994578895293957
3.5764921875 0.14974926504194164 -0.994191430821224
3.577640625 0.14982538025285866 -0.9943479757109663
3.5787890625 0.14818452618198108 -0.9954954580537297
3.5799375 0.14578985867879846 -0.9945849030638728
3.5810859375 0.1452194717604048 -0.9953473479567809
3.582234375 0.14314884696798189 -0.995801407841329
3.5833828125 0.14116886326167233 -0.9959272437350173
3.58453125 0.13988682628396687 -0.9954937041700275
3.5856796875 0.13885970437821327 -0.9962854285197771
3.586828125 0.13742425326177876 -0.9970533105790457
3.5879765625 0.13575083794947707 -0.9974192687211627
3.589125 0.1340625121986982 -0.9981640945546081
3.5902734375 0.1320440786117264 -0.9982042380288677
3.591421875 0.1312666294555272 -0.9983920840551521
3.5925703125 0.12911355573948236 -0.9980948983934158
3.59371875 0.12737125124997345 -0.9979583287563524
3.5948671875 0.12577960633673535 -0.9977040929248796
3.596015625 0.12445351685578493 -0.9980052397886914
3.5971640625 0.12296310493309942 -0.9985671392084583
3.5983125 0.1214274287594902 -0.9987831153655479
3.5994609375 0.11944598439286103 -0.9986816572658587
3.600609375 0.11895534466477897 -0.9982444877453931
3.6017578125 0.11666624333894682 -0.9986058397849178
3.60290625 0.11554540627127047 -0.9984373457037906
3.6040546875 0.11400091392012068 -0.9987155008067586
3.605203125 0.11239261603818834 -0.9997742550561894
3.6063515625 0.11059246152029245 -1.0000381465268011
3.6075 0.10948880718038595 -1.0001684155229926
3.6086484375 0.10836618784021051 -1.000519088536001
3.609796875 0.10692409551908705 -1.000892539092776
3.6109453125 0.1053215088740092 -1.0013561256744588
3.61209375 0.10364144751318194 -1.0016836680132974
3.6132421875 0.101819779641174 -1.0014373353881043
3.614390625 0.10036794211662381 -1.0015598633960978
3.6155390625 0.09858158541484097 -1.0020255238651208
3.6166875 0.09718486399696646 -1.0027569271068926
3.6178359375 0.09549076308227089 -1.0025476218185396
3.618984375 0.09392944246532231 -1.0022837541031946
3.6201328125 0.09233994263810236 -1.0020111456010663
3.62128125 0.09037784528602827 -1.002843856507749
3.6224296875 0.08933907036932182 -1.0024510756097023
3.623578125 0.08780955115639921 -1.0019554461054792
3.6247265625 0.08562092964028112 -1.002288650776015
3.625875 0.0841979335579977 -1.0018087773145359
3.6270234375 0.08268688083494458 -1.0014619653474524
3.628171875 0.08149099123143033 -1.00148954318762
3.6293203125 0.07988775581440488 -1.0020951743109834
3.63046875 0.0787977473566343 -1.0010867947772166
3.6316171875 0.07766308315650827 -1.0021917924946018
3.632765625 0.07593857621614936 -1.002704330690941
3.6339140625 0.07415966741321278 -1.002844498329814
3.6350625 0.07201902185860742 -1.0022069383499255
3.6362109375 0.07040412487242576 -1.0023584057244315
3.637359375 0.06921129150504113 -1.0018459641230517
3.6385078125 0.06796826450312324 -1.0011305426321933
3.63965625 0.06681751729621066 -1.0018422302880992
3.6408046875 0.06488099110502876 -1.00162402024098
3.641953125 0.06394598428426629 -1.0015667340253587
3.6431015625 0.06252797844730212 -1.0015255834677783
3.64425 0.06100865410696535 -1.0008635775239294
3.6453984375 0.059410993739323736 -1.0009867166225155
3.646546875 0.05777360011460245 -1.0010686225731062
3.6476953125 0.05600898055699399 -1.0012354848694254
3.64884375 0.05482626175962693 -1.0011700967331845
3.6499921875 0.05319691677750765 -1.0005724547563226
3.651140625 0.051499578094981235 -1.0008255340295844
3.6522890625 0.0505660786515543 -1.0009608749545642
3.6534375 0.04919913012072455 -1.0010040346343758
3.6545859375 0.047310187982704865 -1.0005021870628101
3.655734375 0.04620510209228157 -1.0007573242659653
3.6568828125 0.044602385655382465 -1.0011307981047204
3.65803125 0.04278327637917059 -1.0013670201043454
3.6591796875 0.041061050859086345 -1.001286514575683
3.660328125 0.03975187431035901 -1.001783983529213
3.6614765625 0.038462315036175046 -1.0011187182027699
3.662625 0.036508316214677844 -1.0009775723741754
3.6637734375 0.03489646162718052 -1.0006701746861388
3.664921875 0.03430527082917635 -1.0008713222603085
3.6660703125 0.032418770795005256 -1.0008915663611035
3.66721875 0.030910995069716285 -1.0005977366889707
3.6683671875 0.0296680374645564 -1.000873729973584
3.669515625 0.028001005479128413 -1.0011623929051636
3.6706640625 0.026877369718151238 -1.0012806632096
3.6718125 0.025304622634394494 -1.0012234299926674
3.6729609375 0.023967939896842733 -1.000857632214492
3.674109375 0.022215078259775173 -1.001330508185331
3.6752578125 0.020551268789697597 -1.00158576543436
3.67640625 0.019495487290390814 -1.0019274524053716
3.6775546875 0.018245309710962165 -1.0018240423907199
3.678703125 0.01678457856639736 -1.0020926965962298
3.6798515625 0.0148265221652621 -1.002115198810499
3.681 0.013672038822844575 -1.00250138394581
3.6821484375 0.011864009102831002 -1.002528976950795
3.683296875 0.0105817745275993 -1.002941751029001
3.6844453125 0.009089146814230786 -1.003250862725808
3.68559375 0.007239315177592923 -1.003519201269287
3.6867421875 0.006383598519729097 -1.0039659236045864
3.687890625 0.004652429978177754 -1.003935864233549
3.6890390625 0.0025974974000263495 -1.0040734083319078
3.6901875 0.001608285378419008 -1.003191675414235
3.6913359375 0.0005042655462511383 -1.003042326066732
3.692484375 -0.001241130776223072 -1.0025915745655736
3.6936328125 -0.0032784998826278916 -1.0037564833534547
3.69478125 -0.004321020096310718 -1.0038328075865537
3.6959296875 -0.006309734440047621 -1.003856907880135
3.697078125 -0.008015852155919795 -1.0031084777869184
3.6982265625 -0.009166007427261112 -1.0031824874673572
3.699375 -0.0102575206034399 -1.0024377685213897
3.7005234375 -0.012280325616183845 -1.0023972864811441
3.701671875 -0.012455098422983691 -1.0021734193944285
3.7028203125 -0.013838930501417476 -1.0017903414749376
3.70396875 -0.015809175261912563 -1.0022356288519267
3.7051171875 -0.0169006691533315 -1.0020804534398828
3.706265625 -0.01885483331649338 -1.0022085581844165
3.7074140625 -0.020948995553654714 -1.0020292931963792
3.7085625 -0.021626957727322406 -1.0014370004018636
3.7097109375 -0.023191911752842284 -1.0013349216917284
3.710859375 -0.024272757447697652 -1.0012495480607817
3.7120078125 -0.025591110949572053 -1.0015094237820619
3.71315625 -0.027448217775490544 -1.0013054863364828
3.7143046875 -0.028520277849472725 -1.0009881101295606
3.715453125 -0.03032453159892378 -1.000731013060607
3.7166015625 -0.0307592866600621 -1.0003215807024206
3.71775 -0.03234625248852059 -1.0001522628599484
3.7188984375 -0.03498213805639756 -0.9997170710658505
3.720046875 -0.03620456966359309 -0.9999417008104413
3.7211953125 -0.03804872890517555 -0.9999151788357442
3.72234375 -0.03908674762183832 -0.9993926763911573
3.7234921875 -0.040253583417711125 -0.9995533722077077
3.724640625 -0.0417645584911549 -0.9997347813079404
3.7257890625 -0.04312687601285492 -0.9995677832388837
3.7269375 -0.04460023997118888 -0.9989145094543527
3.7280859375 -0.045977462794713486 -0.9990649222529083
3.729234375 -0.048231541478611695 -0.9984941019153126
3.7303828125 -0.050014969599255776 -0.9990037362210777
3.73153125 -0.05117080370171262 -0.9988521204340183
3.7326796875 -0.053111238353015344 -0.9997120435784088
3.733828125 -0.054559504520861224 -0.9993784871636611
3.7349765625 -0.05607123894417354 -0.9993231364965721
3.736125 -0.05706093417998864 -0.9990740970196346
3.7372734375 -0.058961634805094115 -0.9991437090588493
3.738421875 -0.06076036262233586 -0.9988240732785423
3.7395703125 -0.062274828621733 -0.9984338776884083
3.74071875 -0.063595298099093 -0.9979473782135615
3.7418671875 -0.06508095089445451 -0.9982767660292426
3.743015625 -0.06717039731228028 -0.9985618362293096
3.7441640625 -0.06901355496989653 -0.9983825908198812
3.7453125 -0.07023949966658963 -0.9985411178009636
3.7464609375 -0.07157272649702301 -0.9980044593867017
3.747609375 -0.07378558083796272 -0.9983877235054872
3.7487578125 -0.0753065122789626 -0.9971837809611299
3.74990625 -0.07689201404048124 -0.9971125292904343
3.7510546875 -0.07874916917831562 -0.9977354471556841
3.752203125 -0.07983209200766653 -0.997140648403957
3.7533515625 -0.08196134946950037 -0.9971315247722539
3.7545 -0.0833920154346941 -0.9976585952099439
3.7556484375 -0.08510593556270363 -0.9967389207731353
3.756796875 -0.08602127743853005 -0.9968821477145431
3.7579453125 -0.08737496137709877 -0.9971286645865416
3.75909375 -0.08936949814063344 -0.9969581661690194
3.7602421875 -0.09001251647043504 -0.9980143736359196
3.761390625 -0.09174402810537793 -0.9971789993780782
3.7625390625 -0.09291499450512078 -0.9975258793672575
3.7636875 -0.09394309283642727 -0.9972621494643896
3.7648359375 -0.09535236801304531 -0.9978716120041342
3.765984375 -0.09613235444017443 -0.9973854257784265
3.7671328125 -0.09730965432007471 -0.9965033271964714
3.76828125 -0.09971743762251684 -0.9961528778719719
3.7694296875 -0.09988403525292189 -0.9957786712876477
3.770578125 -0.10067524167435499 -0.9960906360361136
3.7717265625 -0.103500813691519 -0.9956359081155115
3.772875 -0.1043490961681619 -0.9952102332195284
3.7740234375 -0.10597389845598779 -0.9948969774656617
3.775171875 -0.10749223660510698 -0.994801569373826
3.7763203125 -0.1088420052602691 -0.9950571383253236
3.77746875 -0.10966163378316751 -0.9952764087023075
3.7786171875 -0.11091876875921813 -0.9950906677032597
3.779765625 -0.11263532221328287 -0.9949695464139294
3.7809140625 -0.11392499434775905 -0.9930789041008219
3.7820625 -0.11421399938960125 -0.9941061723138647
3.7832109375 -0.1166952675681639 -0.9939510331416241
3.784359375 -0.11780272907900319 -0.9937649046185117
3.7855078125 -0.11974000336529869 -0.9934426965926756
3.78665625 -0.12000209798260464 -0.992611304296759
3.7878046875 -0.12206757395442974 -0.9928819350749449
3.788953125 -0.12326111630638253 -0.9928746902959626
3.7901015625 -0.12491546767241143 -0.993642245079034
3.79125 -0.12642148101721237 -0.9925046291040941
3.7923984375 -0.12851897170027926 -0.9916459310243904
3.793546875 -0.12991224679663382 -0.9912972510367984
3.7946953125 -0.13152290459581167 -0.9906422315641473
3.79584375 -0.13277277536323984 -0.9904280212544246
3.7969921875 -0.13442082636199115 -0.9901265850719323
3.798140625 -0.13651973690565528 -0.9898614208605876
3.7992890625 -0.13720539159987574 -0.9894999389359684
3.8004375 -0.1391160661611806 -0.9891497571352186
3.8015859375 -0.14067624865289058 -0.9889490492720898
3.802734375 -0.14178775413571326 -0.9900781449230047
3.8038828125 -0.14326951711281588 -0.9895153709192964
3.80503125 -0.14474019636811397 -0.9881955714962818
3.8061796875 -0.14602083176783487 -0.9881899030325308
3.807328125 -0.1482711319329909 -0.9880192940496664
3.8084765625 -0.14964198010003193 -0.9885316078139837
3.809625 -0.1510537475954982 -0.9880171065879959
3.8107734375 -0.15265375324557956 -0.9879328398715899
3.811921875 -0.1542630702854611 -0.9874150900260315
3.8130703125 -0.15563367737595205 -0.9871927305358008
3.81421875 -0.15711041398200296 -0.9862552808786917
3.8153671875 -0.15879757381186263 -0.9866462988521358
3.816515625 -0.16056684850986994 -0.9854758939060745
3.8176640625 -0.1618920668276413 -0.9857798230433221
3.8188125 -0.16360862044951718 -0.9848102020721492
3.8199609375 -0.16514794944936134 -0.9849438743925378
3.821109375 -0.16666535953228667 -0.9850660896775449
3.8222578125 -0.16875116562297665 -0.9843317508110251
3.82340625 -0.17050160363022576 -0.9840472277042593
3.8245546875 -0.17149541758071762 -0.9840697990315457
3.825703125 -0.1734705897227747 -0.9847375977509081
3.8268515625 -0.174636901959944 -0.9846844604699763
3.828 -0.17571133777161904 -0.9837579940175238
3.8291484375 -0.17706422804738708 -0.9831881618058163
3.830296875 -0.17944369915769545 -0.9836251117406949
3.8314453125 -0.1808602159150177 -0.9827129042262351
3.83259375 -0.1815217031661379 -0.9837300709006658
3.8337421875 -0.18217530701511533 -0.9828634833773404
3.834890625 -0.18449121149886044 -0.9826707562345124
3.8360390625 -0.18636393828813924 -0.9824763935342915
3.8371875 -0.18734068396633038 -0.9819661206380637
3.8383359375 -0.1885793533696982 -0.9817977178966784
3.839484375 -0.19031963442786115 -0.9821443565282748
3.8406328125 -0.19189090033492878 -0.9806895834843857
3.84178125 -0.1926249627518083 -0.98100274103239
3.8429296875 -0.19380118667947902 -0.9806674762606571
3.844078125 -0.1949811870961609 -0.9798344413429926
3.8452265625 -0.1958781726677934 -0.9804967149356933
3.846375 -0.19764047348710154 -0.9801450629916612
3.8475234375 -0.1985333147757615 -0.9795760112380514
3.848671875 -0.19937518170621618 -0.9788767436915936
3.8498203125 -0.20082806451334348 -0.9783384840089401
3.85096875 -0.20343570676301348 -0.9780761521041896
3.8521171875 -0.20446989606272378 -0.9783053305990916
3.853265625 -0.20582582029452132 -0.9775419465694479
3.8544140625 -0.20640488669551538 -0.9764565017488738
3.8555625 -0.20762972797779566 -0.9768092948384404
3.8567109375 -0.20880134393063227 -0.9770175815514107
3.857859375 -0.21067757110125124 -0.9771250051947579
3.8590078125 -0.2117591864573842 -0.9762271775100756
3.86015625 -0.21305553710874847 -0.9758343005188954
3.8613046875 -0.21481321272663478 -0.976063983591148
3.862453125 -0.21540549898063321 -0.9759593715442916
3.8636015625 -0.21775746584277475 -0.9751978020323961
3.86475 -0.22047004891478114 -0.9744693880050797
3.8658984375 -0.22098733403775567 -0.9738319982584696
3.867046875 -0.223285901485506 -0.9732206928610279
3.8681953125 -0.22434700408462396 -0.9736232013883308
3.86934375 -0.22635465619582068 -0.9727689631275307
3.8704921875 -0.22785814642080582 -0.971521644311443
3.871640625 -0.22964281514788687 -0.9713101853306171
3.8727890625 -0.2316085177201252 -0.9713491600876097
3.8739375 -0.23299917913797297 -0.9706023196416297
3.8750859375 -0.23362840116330247 -0.9704741601368885
3.876234375 -0.23585234416257403 -0.970050500653894
3.8773828125 -0.23683468419178066 -0.9690935947829246
3.87853125 -0.23846663298237103 -0.9691798425089637
3.8796796875 -0.23900874363410896 -0.9683122850305622
3.880828125 -0.24129874403471285 -0.9678656711756755
3.8819765625 -0.2425899459642383 -0.9673636468985012
3.883125 -0.24361082728458305 -0.9660522005854629
3.8842734375 -0.24520340376496885 -0.9666398433793338
3.885421875 -0.24687746204613714 -0.9653417229091824
3.8865703125 -0.2487206894583151 -0.9658026749027788
3.88771875 -0.24975646707053728 -0.9644673589180977
3.8888671875 -0.2510061637393504 -0.964178770147191
3.890015625 -0.252803310431146 -0.9643440710617899
3.8911640625 -0.25390592044229243 -0.9637764438051474
3.8923125 -0.2558531962046129 -0.9628097032035644
3.8934609375 -0.25743984771548567 -0.9628489479483231
3.894609375 -0.2586789257144963 -0.9634295912676591
3.8957578125 -0.259359095681827 -0.9622833044120311
3.89690625 -0.26128086830018327 -0.9623408255373473
3.8980546875 -0.2619114069110314 -0.9624681495052712
3.899203125 -0.26388232070862166 -0.9624723762143974
3.9003515625 -0.2646953703099561 -0.9614127177409473
3.9015 -0.2658313617883007 -0.9609329751205646
3.9026484375 -0.2675844969388609 -0.9609671446920274
3.903796875 -0.2690140805931015 -0.9604628508826606
3.9049453125 -0.27003476586321895 -0.9597300111976187
3.90609375 -0.2709638740774142 -0.9601160586247547
3.9072421875 -0.27266654181013183 -0.9597964324162318
3.908390625 -0.2740774932803385 -0.9592025168732992
3.9095390625 -0.27588982973397613 -0.9600967019489115
3.9106875 -0.27741586862017115 -0.9580471051060643
3.9118359375 -0.2780005529471327 -0.9579824361016667
3.912984375 -0.27893474159410103 -0.9582037871731895
3.9141328125 -0.2806822016064901 -0.9583662293643842
3.91528125 -0.28211528320800694 -0.9573717066033327
3.9164296875 -0.28334370956371646 -0.9571059869243407
3.917578125 -0.284525566162217 -0.9562023188092026
3.9187265625 -0.2859598410041956 -0.9556396258897935
3.919875 -0.2876190487579344 -0.9553715727645247
3.9210234375 -0.28846068397419067 -0.9554358192132404
3.922171875 -0.289831435658453 -0.955206541169823
3.9233203125 -0.2903547870008706 -0.9539212855502466
3.92446875 -0.2923564887361704 -0.9543798345613612
3.9256171875 -0.29274825314941155 -0.9529548504212205
3.926765625 -0.29482443509400347 -0.9519327241232391
3.9279140625 -0.295656375162497 -0.9521107046907666
3.9290625 -0.29714582420436453 -0.9514454649902062
3.9302109375 -0.2980787755961291 -0.9507867183159843
3.931359375 -0.29953632839636063 -0.9512426607855052
3.9325078125 -0.30117574397536473 -0.9500319708142432
3.93365625 -0.3026210950074045 -0.9499443986106818
3.9348046875 -0.304183256617226 -0.9492508252007824
3.935953125 -0.30580988835947465 -0.9486066883058084
3.9371015625 -0.3066136610138214 -0.9479803495140149
3.93825 -0.3080740056258101 -0.9475842404401169
3.9393984375 -0.3084086466741528 -0.947676832171038
3.940546875 -0.3102288727278927 -0.9468383653720618
3.9416953125 -0.3114051661739464 -0.9467973867095192
3.94284375 -0.31227309562393346 -0.9454938905200914
3.9439921875 -0.3135541819960409 -0.9450295744877417
3.945140625 -0.3148030662003447 -0.9447951542875035
3.9462890625 -0.316553972782137 -0.9439079450880757
3.9474375 -0.3179962325353589 -0.9433133013274502
3.9485859375 -0.3199901028187575 -0.9425692647519159
3.949734375 -0.3215917028361394 -0.9416761455344794
3.9508828125 -0.3223578909192054 -0.9408477378217219
3.95203125 -0.3244148133668898 -0.9416975179846304
3.9531796875 -0.32584128970507326 -0.9397026091713563
3.954328125 -0.327464356297684 -0.9395723457128755
3.9554765625 -0.32884572212635127 -0.9391301209565004
3.956625 -0.33085742915038946 -0.9391568021758575
3.9577734375 -0.33215664195422057 -0.9386638568411699
3.958921875 -0.33318413819213916 -0.9377429041201759
3.9600703125 -0.33483433496779663 -0.9377040971325388
3.96121875 -0.3362139980029731 -0.9367092323259276
3.9623671875 -0.3373559675389712 -0.9364652741913442
3.963515625 -0.33928917413278226 -0.9360893929850003
3.9646640625 -0.3419421730260641 -0.934922316794946
3.9658125 -0.3420149768960291 -0.9345566342770495
3.9669609375 -0.3431631924590953 -0.9342070400538576
3.968109375 -0.3445760718581635 -0.9339307448126954
3.9692578125 -0.3458717075133211 -0.9331293602561865
3.97040625 -0.3478755421618808 -0.9328628305427106
3.9715546875 -0.3487313585182815 -0.9311239848516218
3.972703125 -0.34992220216806746 -0.9311499374415657
3.9738515625 -0.35086332887163735 -0.9307660777792239
3.975 -0.3531856158284902 -0.9305980081216587
3.9761484375 -0.35386634692343943 -0.9316327042318608
3.977296875 -0.35512710871905434 -0.9301711884995774
3.9784453125 -0.35700539704584605 -0.9297145052643183
3.97959375 -0.35772638763702436 -0.9291767266622185
3.9807421875 -0.3590985714046755 -0.9281918983255902
3.981890625 -0.3607477598605955 -0.9284406549643668
3.9830390625 -0.36198545454863107 -0.9280759023364049
3.9841875 -0.36307907822769714 -0.9264114345483307
3.9853359375 -0.36466262913293446 -0.9266387609575009
3.986484375 -0.36527922502158455 -0.9263642663411278
3.9876328125 -0.36742130608616447 -0.9255235061600946
3.98878125 -0.3682552326612991 -0.9244629654737964
3.9899296875 -0.37048352131986817 -0.924285305564494
3.991078125 -0.3719025457360474 -0.9238393471987216
3.9922265625 -0.3729419951002919 -0.9235577981160596
3.993375 -0.37444360603739 -0.923020389394114
3.9945234375 -0.3753613643974536 -0.9226981597563269
3.995671875 -0.37697335044149244 -0.9225298815305607
3.9968203125 -0.3781039955923057 -0.9219682455664063
3.99796875 -0.37952721923679894 -0.9214020924835753
3.9991171875 -0.38073337231822446 -0.9217515000992769
4.000265625 -0.3817617520214306 -0.920551418207821
4.0014140625 -0.38342373423094434 -0.9200204532966787
4.0025625 -0.3849750152943514 -0.9193087519917105
4.0037109375 -0.38577415070625043 -0.919027929944214
4.004859375 -0.3869396628824958 -0.9191030653944794
4.0060078125 -0.3879560082279821 -0.9178090015958908
4.00715625 -0.38932380087328766 -0.9165529324291759
4.0083046875 -0.3904002158948689 -0.9156658791115382
4.009453125 -0.39179804755565195 -0.9158682577803798
4.0106015625 -0.39284221647399276 -0.9151898765347348
4.01175 -0.39449992315079496 -0.9144235980617784
4.0128984375 -0.3956053660929278 -0.9141469441425822
4.014046875 -0.3966632901217673 -0.913756686646795
4.0151953125 -0.3985400593680581 -0.9127938273651777
4.01634375 -0.3998574757031265 -0.9130155761030254
4.0174921875 -0.40162499381109584 -0.9120558989471641
4.018640625 -0.4023924853105499 -0.9103650451574613
4.0197890625 -0.4042537135604404 -0.9107066961796061
4.0209375 -0.4049149951460131 -0.9098452468552729
4.0220859375 -0.40584753870063894 -0.9097166547602178
4.023234375 -0.40818873094450836 -0.9097204153275659
4.0243828125 -0.40939743529665545 -0.9085875937970951
4.02553125 -0.4106361442442219 -0.9082004033932154
4.0266796875 -0.4112522119342789 -0.9064407007793858
4.027828125 -0.413061618945503 -0.9062183361847274
4.0289765625 -0.4145476158289717 -0.9057312169290693
4.030125 -0.4154550084107755 -0.905006064593769
4.0312734375 -0.417523853214962 -0.9043581790382361
4.032421875 -0.41818591055531834 -0.9037036849285127
4.0335703125 -0.419124597776952 -0.9033260745388694
4.03471875 -0.42116155643325337 -0.9033252052757629
4.0358671875 -0.42148654866678653 -0.9023065479652064
4.037015625 -0.42257027700648114 -0.9011863570375931
4.0381640625 -0.4245784039298693 -0.9000903767102282
4.0393125 -0.42579882010431447 -0.8996564857707394
4.0404609375 -0.4275463628053008 -0.9000430356106485
4.041609375 -0.4285618302070098 -0.8994066381527931
4.0427578125 -0.43009585487167296 -0.898055009988519
4.04390625 -0.43112282287304293 -0.8984257251504693
4.0450546875 -0.43204220520362635 -0.8978293027026335
4.046203125 -0.4338070544515935 -0.8971762569341128
4.0473515625 -0.4343573187450428 -0.8968037356759546
4.0485 -0.43554526095156515 -0.8960333297069263
4.0496484375 -0.4372156007285784 -0.896282152169078
4.050796875 -0.4389426378531067 -0.8949720195237123
4.0519453125 -0.4398710013822561 -0.8945867984232041
4.05309375 -0.44133836764909284 -0.893151218702923
4.0542421875 -0.4421371065521338 -0.8931384936944124
4.055390625 -0.4433305109046614 -0.8920985508073316
4.0565390625 -0.44444972665773597 -0.8905901431879755
4.0576875 -0.44570637141280706 -0.8907947392372366
4.0588359375 -0.4474711811363266 -0.8909694806307691
4.059984375 -0.44818036731643573 -0.8898340987724533
4.0611328125 -0.4501736660624459 -0.8892437814018983
4.06228125 -0.45139480146522526 -0.8884719910433837
4.0634296875 -0.45268525910032953 -0.8879805420997234
4.064578125 -0.4532340297837403 -0.8876799741614441
4.0657265625 -0.4538063976996816 -0.8864254401956058
4.066875 -0.45555191432183906 -0.8859675800755676
4.0680234375 -0.45734691022051494 -0.8849965362212275
4.069171875 -0.45999011285856606 -0.8855440601351101
4.0703203125 -0.45998952725706255 -0.8849979653864699
4.07146875 -0.4614825961068657 -0.8842235888284176
4.0726171875 -0.46292170816301514 -0.8837212568896482
4.073765625 -0.463716369444755 -0.8823927334714738
4.0749140625 -0.46453387124819845 -0.8821496483432191
4.0760625 -0.4661780412608954 -0.8823531570647059
4.0772109375 -0.4683053897229936 -0.8808513094456991
4.078359375 -0.4688160013241778 -0.8808944227685691
4.0795078125 -0.4703043410822682 -0.8794299339678627
4.08065625 -0.4707887147077249 -0.8789853897929729
4.0818046875 -0.47277543153060597 -0.8775493870517113
4.082953125 -0.47375569781521676 -0.8768026439962837
4.0841015625 -0.4739678269863967 -0.8765601466615208
4.08525 -0.47504489837835523 -0.8758260269088327
4.0863984375 -0.4769042320368321 -0.8749187868184056
4.087546875 -0.4781357158525963 -0.8745330331485219
4.0886953125 -0.4793189433869123 -0.8725613974394435
4.08984375 -0.47960708279652287 -0.8719229333025125
4.0909921875 -0.4808254544609422 -0.8716873790717591
4.092140625 -0.4828940925654306 -0.8707954734065843
4.0932890625 -0.4847146229844927 -0.8698749443593727
4.0944375 -0.4857519839735378 -0.8695080022117974
4.0955859375 -0.48657199465329265 -0.8695300057221377
4.096734375 -0.48680213873650935 -0.868879898149529
4.0978828125 -0.4885082568079278 -0.8676606479365472
4.09903125 -0.49016972460373087 -0.86661522615191
4.1001796875 -0.49110702351861496 -0.8665497529821878
4.101328125 -0.4924695134545362 -0.865633758193585
4.1024765625 -0.4939897960507025 -0.865431428329787
4.103625 -0.4948382041045886 -0.8641237226234779
4.1047734375 -0.49670238158846225 -0.8633648419887636
4.105921875 -0.4975494915702623 -0.8632267727800285
4.1070703125 -0.4987304433016612 -0.8622041647743068
4.10821875 -0.5006152257151626 -0.8609435095406197
4.1093671875 -0.5019190410895598 -0.8598658520074769
4.110515625 -0.5028108999096715 -0.8593477285748077
4.1116640625 -0.5037831587398381 -0.8592442683293197
4.1128125 -0.5052359951530833 -0.8591314963970357
4.1139609375 -0.5065979949011288 -0.8576973434403797
4.115109375 -0.5079142571932899 -0.8566274889992778
4.1162578125 -0.5088805039701237 -0.8562958651502124
4.11740625 -0.5100628324105635 -0.8550715721616613
4.1185546875 -0.5109897993201024 -0.854513758523804
4.119703125 -0.5112355552704049 -0.8533124047684991
4.1208515625 -0.5127033146990004 -0.8526134717548881
4.122 -0.5139266254997186 -0.8525207387045255
4.1231484375 -0.515190515345113 -0.8514406658441642
4.124296875 -0.5173123937113753 -0.8510389268576452
4.1254453125 -0.5181875534783523 -0.849409375226311
4.12659375 -0.5192461925910449 -0.8486452104503688
4.1277421875 -0.5203334804375916 -0.8477441198701692
4.128890625 -0.5212670327479285 -0.8482940320186065
4.1300390625 -0.5231401454598419 -0.8474921253965375
4.1311875 -0.5242404905677388 -0.8460536492418755
4.1323359375 -0.5254716355652354 -0.8448231224863922
4.133484375 -0.5269497420517574 -0.8447767250014575
4.1346328125 -0.527722844500697 -0.844463098295661
4.13578125 -0.5290271480147082 -0.8431940970989498
4.1369296875 -0.5299036295008175 -0.842154951189099
4.138078125 -0.5311724125446237 -0.8412809300435663
4.1392265625 -0.5323125105214882 -0.8405733174934317
4.140375 -0.5334210691092295 -0.840681244607573
4.1415234375 -0.534531374293236 -0.8390519092669647
4.142671875 -0.5361322694098164 -0.8381581510586998
4.1438203125 -0.5373846010016055 -0.8374471949873767
4.14496875 -0.5377925518726877 -0.8377463367321747
4.1461171875 -0.5394863323878887 -0.836362373878708
4.147265625 -0.5406176037362791 -0.8349563173366936
4.1484140625 -0.541355877025888 -0.8351051195217302
4.1495625 -0.5426655113861609 -0.8337244618195951
4.1507109375 -0.543105353488867 -0.8332005849633868
4.151859375 -0.544954999140383 -0.8323217658827553
4.1530078125 -0.545734320179627 -0.8314882350336135
4.15415625 -0.5466652109732099 -0.831258872648232
4.1553046875 -0.5478900622994858 -0.8305965206664784
4.156453125 -0.5483286332042805 -0.8293044383604947
4.1576015625 -0.550097402567239 -0.8286717051713501
4.15875 -0.5513930471783453 -0.8276606880342805
4.1598984375 -0.552494596884578 -0.8272443484099051
4.161046875 -0.55306723336371 -0.8263019221038145
4.1621953125 -0.553923970075276 -0.8255265535090164
4.16334375 -0.5554626041753472 -0.825096419236587
4.1644921875 -0.5568364196827349 -0.824288673954833
4.165640625 -0.5575327509236326 -0.8233430985763925
4.1667890625 -0.559417923245435 -0.8228094263922421
4.1679375 -0.560403990571006 -0.8221556788735594
4.1690859375 -0.5613835421785991 -0.8206984933405643
4.170234375 -0.5630148360376421 -0.820260404811817
4.1713828125 -0.5642074704454975 -0.819437170333351
4.17253125 -0.5651871582637331 -0.818705803437951
4.1736796875 -0.5664807167785144 -0.8180593696178518
4.174828125 -0.5678744078733826 -0.8174075222253808
4.1759765625 -0.5689540616990941 -0.8166915048024705
4.177125 -0.5699688327786723 -0.8163281972155476
4.1782734375 -0.5715565619735373 -0.815367470850774
4.179421875 -0.5724231983985685 -0.815012003921747
4.1805703125 -0.5729013986891522 -0.8139114978531764
4.18171875 -0.5751241816429736 -0.8129875929433484
4.1828671875 -0.5766873647652121 -0.8118757384382985
4.184015625 -0.5762285614983936 -0.8119184231160514
4.1851640625 -0.5785020199964278 -0.8107187260408149
4.1863125 -0.5796274003350503 -0.8103549762798785
4.1874609375 -0.5800715324368936 -0.8101422196353039
4.188609375 -0.5812644122985723 -0.8090803304412373
4.1897578125 -0.5828118638674314 -0.8080916158531044
4.19090625 -0.5839996478016009 -0.8081513928542008
4.1920546875 -0.5839949442455478 -0.8073525360204548
4.193203125 -0.5852663924545572 -0.8065758217831605
4.1943515625 -0.5867628382444909 -0.8065382257668537
4.1955 -0.588160416348257 -0.8050003137079524
4.1966484375 -0.588684399201443 -0.8046554767519789
4.197796875 -0.5896054334466032 -0.8040210665436015
4.1989453125 -0.59159127795686 -0.8031149019632577
4.20009375 -0.5923721171504136 -0.8019945674668937
4.2012421875 -0.5940598651403901 -0.801802171117286
4.202390625 -0.5937858856766998 -0.8003704736303495
4.2035390625 -0.5946326606018568 -0.7989964509234802
4.2046875 -0.5973661241627117 -0.7974490176558028
4.2058359375 -0.5987066007498035 -0.7965545356312209
4.206984375 -0.6001424505105211 -0.7956656204433643
4.2081328125 -0.602302323821556 -0.7945406206949028
4.20928125 -0.6018624821216274 -0.7947225090755768
4.2104296875 -0.6032204574932493 -0.7932538598814125
4.211578125 -0.6055366256081827 -0.7921622045485451
4.2127265625 -0.6065937399597189 -0.7925594403272909
4.213875 -0.6053862447041387 -0.7926861124003448
4.2150234375 -0.6076201650199298 -0.7909324622081606
4.216171875 -0.607907066463855 -0.7910629814669584
4.2173203125 -0.6087605028357684 -0.7905090371655089
4.21846875 -0.6100691707966414 -0.7894309082881272
4.2196171875 -0.6123767498188247 -0.7883318482694333
4.220765625 -0.613445993192975 -0.7885463837018425
4.2219140625 -0.6144497194521621 -0.7869017821035377
4.2230625 -0.6152594132667444 -0.7867449283768322
4.2242109375 -0.6154956878159663 -0.7858377224869482
4.225359375 -0.6162254970869973 -0.7845109194603023
4.2265078125 -0.618463295810567 -0.7836047097583732
4.22765625 -0.6184257498024424 -0.7836528972276435
4.2288046875 -0.6195894368686615 -0.7821043771931133
4.229953125 -0.6207647734861388 -0.7807468956430947
4.2311015625 -0.6218713313368847 -0.7800165643045992
4.23225 -0.6221171889435214 -0.7788812953465594
4.2333984375 -0.6242270623585386 -0.7780940336544376
4.234546875 -0.625283267613704 -0.7781037494004229
4.2356953125 -0.6267561614007254 -0.7771767611701723
4.23684375 -0.6288151298123548 -0.7764995540791246
4.2379921875 -0.6303014251365735 -0.7742001325737397
4.239140625 -0.6317683271728983 -0.7727622166425367
4.2402890625 -0.6326164367714613 -0.7727658305964656
4.2414375 -0.6334911768612446 -0.7727722455840986
4.2425859375 -0.6339215308104866 -0.771822118976033
4.243734375 -0.6343068343193115 -0.7718003441913117
4.2448828125 -0.6357637291362831 -0.7713198896205369
4.24603125 -0.6373668240650159 -0.7694249307745618
4.2471796875 -0.6386640891855702 -0.7687245091612653
4.248328125 -0.6396400620021869 -0.7688638104095707
4.2494765625 -0.6404686146931352 -0.767888204055507
4.250625 -0.6416769784318571 -0.7671627188325545
4.2517734375 -0.6424956897262621 -0.7663250475093878
4.252921875 -0.6429093036117739 -0.7658362741228222
4.2540703125 -0.6432597083894753 -0.7650371949862078
4.25521875 -0.6458207288061165 -0.7635740782346513
4.2563671875 -0.6464296439963846 -0.7626550390500215
4.257515625 -0.6471421257760015 -0.7625887105938737
4.2586640625 -0.649132371051204 -0.7620645634157319
4.2598125 -0.6499410728018311 -0.7611028203876804
4.2609609375 -0.6506532430726899 -0.760237536085225
4.262109375 -0.6524539328668382 -0.7592845815807138
4.2632578125 -0.654202492814076 -0.7578256291905969
4.26440625 -0.6564309010989591 -0.7558566188516259
4.2655546875 -0.6566597748996847 -0.7559748295047171
4.266703125 -0.657561159131044 -0.7543610348118449
4.2678515625 -0.6586784862010967 -0.7537493368744558
4.269 -0.6593987392717928 -0.7527478644514849
4.2701484375 -0.6603410448212002 -0.7526588464609536
4.271296875 -0.6631345305866644 -0.7494337738241275
4.2724453125 -0.6636908846026355 -0.7490627563470637
4.27359375 -0.6647979842666134 -0.7469915613811833
4.2747421875 -0.665819578411321 -0.7462029064376057
4.275890625 -0.6669301183419992 -0.7456721664389689
4.2770390625 -0.666948595605853 -0.7457950315501681
4.2781875 -0.6693319822102483 -0.7449080115763123
4.2793359375 -0.6703838280337973 -0.744799420057843
4.280484375 -0.6712482481334011 -0.7435151041883569
4.2816328125 -0.6731886322060469 -0.7420880731443837
4.28278125 -0.6734900800870541 -0.7407617784258698
4.2839296875 -0.6739235466030493 -0.7411444448594903
4.285078125 -0.6768171689858162 -0.7386478674392505
4.2862265625 -0.6762128507630133 -0.7382136805089807
4.287375 -0.6776637731602628 -0.7373376181708617
4.2885234375 -0.6799646830377849 -0.7344789803569449
4.289671875 -0.6804400956514475 -0.7349498408909484
4.2908203125 -0.6810207200245617 -0.7349729841948683
4.29196875 -0.6827027291447909 -0.7337911263521428
4.2931171875 -0.682945648551087 -0.7326395263154503
4.294265625 -0.683350600435097 -0.731679126884428
4.2954140625 -0.6850989870834517 -0.7295013779759146
4.2965625 -0.6857293854291446 -0.7300250186719047
4.2977109375 -0.6872933891385344 -0.7288991082187641
4.298859375 -0.6884910738562635 -0.7266134586418078
4.3000078125 -0.6889810440619328 -0.7262598230042537
4.30115625 -0.6890009521396632 -0.725479394356007
4.3023046875 -0.691223737367032 -0.7231677814931318
4.303453125 -0.6915997077380809 -0.7220457508336289
4.3046015625 -0.6923752322669743 -0.7215480813707064
4.30575 -0.6945640245967711 -0.7206314632839532
4.3068984375 -0.6946995137215605 -0.7204386554387816
4.308046875 -0.695244361185841 -0.7198020275172801
4.3091953125 -0.696844930775247 -0.7186853251257899
4.31034375 -0.6981657714094225 -0.717763097222428
4.3114921875 -0.6978932684550391 -0.7167644645356118
4.312640625 -0.6996017774211017 -0.7158697264307038
4.3137890625 -0.700258680243246 -0.7152442999496704
4.3149375 -0.7011117832120641 -0.71518398208919
4.3160859375 -0.7039145362852594 -0.714150428677531
4.317234375 -0.7037360350206461 -0.7129572408547598
4.3183828125 -0.7053429256753191 -0.7129341341939547
4.31953125 -0.7076555655219569 -0.7114105896182151
4.3206796875 -0.7078139238280239 -0.7108086855007241
4.321828125 -0.7090839688216863 -0.7096763680953292
4.3229765625 -0.7108538414927739 -0.7072340482330887
4.324125 -0.7117061721384743 -0.7081869770441589
4.3252734375 -0.7120440484470304 -0.7073484442499969
4.326421875 -0.713270543148558 -0.7053814198123998
4.3275703125 -0.7127931091336485 -0.7042516659768003
4.32871875 -0.7137310931057406 -0.7032222002202566
4.3298671875 -0.7163062297379046 -0.7021813260078815
4.331015625 -0.7159800380967395 -0.7012083796131332
4.3321640625 -0.7160822040407467 -0.7012578222501793
4.3333125 -0.7183322031542725 -0.6992592370066855
4.3344609375 -0.7189612222845322 -0.6981770671620093
4.335609375 -0.7194670627896969 -0.6976158244591033
4.3367578125 -0.7210563794353363 -0.6962719537832457
4.33790625 -0.7212849025503902 -0.6955522920970707
4.3390546875 -0.7223607228247406 -0.6945293558503363
4.340203125 -0.7233862319539486 -0.6934332594290865
4.3413515625 -0.7240494552642414 -0.6919637291008134
4.3425 -0.7253053603070961 -0.6913646455377529
4.3436484375 -0.7259770895141726 -0.6893743291779231
4.344796875 -0.7283920025698647 -0.688069822180453
4.3459453125 -0.7293631565792467 -0.6869912385871733
4.34709375 -0.7287882414944573 -0.6878031575000287
4.3482421875 -0.7316216916229575 -0.6856999269167977
4.349390625 -0.7320866323916424 -0.6849554275300731
4.3505390625 -0.7318533287154749 -0.6854637777327329
4.3516875 -0.7340679095705328 -0.683679007444846
4.3528359375 -0.7354290191311571 -0.6826166084112681
4.353984375 -0.7362364511176787 -0.682456480320339
4.3551328125 -0.7375105313664675 -0.6790873147168711
4.35628125 -0.7375359011973606 -0.6785440493068198
4.3574296875 -0.7379701049406782 -0.6784833296904227
4.358578125 -0.7403982580681587 -0.6756503811400778
4.3597265625 -0.7411541237848515 -0.6760424930806417
4.360875 -0.7404629425685667 -0.6754889895578485
4.3620234375 -0.7420019955702657 -0.6733815607961433
4.363171875 -0.7438205945349015 -0.6734525715344157
4.3643203125 -0.7435171729088204 -0.6724627185284737
4.36546875 -0.7458818884503852 -0.6709267732085327
4.3666171875 -0.746737723386316 -0.6710746583082687
4.367765625 -0.7463807838194618 -0.6694329286372903
4.3689140625 -0.7490232000646109 -0.6671889096004759
4.3700625 -0.750572123865594 -0.6673443715914007
4.3712109375 -0.7509367765126143 -0.666346217018539
4.372359375 -0.7520076559953288 -0.6651659016667738
4.3735078125 -0.7532424614019027 -0.6647477431594887
4.37465625 -0.7540227501322917 -0.6637885889708829
4.3758046875 -0.7551783096346905 -0.6631242705315978
4.376953125 -0.7553781761128648 -0.6623693698524612
4.3781015625 -0.7565938778992383 -0.6606632171833431
4.37925 -0.7577701877917663 -0.6590130728967676
4.3803984375 -0.7587141464366189 -0.6599223245533214
4.381546875 -0.7611685088079742 -0.6571152128497809
4.3826953125 -0.7616187561653938 -0.6572505656378471
4.38384375 -0.7619231288299673 -0.6574379731030398
4.3849921875 -0.7641814749389204 -0.6554000684159196
4.386140625 -0.7648152882649578 -0.6546304124119317
4.3872890625 -0.7641070482315846 -0.6554520366029718
4.3884375 -0.7661088291117482 -0.6534616063287007
4.3895859375 -0.7663116242227688 -0.6523434531571904
4.390734375 -0.7665039278134014 -0.6534352088733125
4.3918828125 -0.7674907118778658 -0.6502496195131148
4.39303125 -0.7686018984059468 -0.6507994542024861
4.3941796875 -0.7681455529356145 -0.64848419071966
4.395328125 -0.7709015588500139 -0.6465236019290069
4.3964765625 -0.7701130951839009 -0.6456468590158173
4.397625 -0.7705842244788125 -0.6466014414206022
4.3987734375 -0.7729068513178369 -0.643628160068175
4.399921875 -0.7739270222185152 -0.6442953095876932
4.4010703125 -0.7742208225517946 -0.642547144462702
4.40221875 -0.7763625525291292 -0.6416326879604618
4.4033671875 -0.776419388455639 -0.6397342996547055
4.404515625 -0.7776201057093661 -0.6389408380069513
4.4056640625 -0.7776613865904372 -0.6392094790438075
4.4068125 -0.7794992529989493 -0.6369248549493413
4.4079609375 -0.7804541080074477 -0.6357107411843741
4.409109375 -0.7809107776924462 -0.6349220280380232
4.4102578125 -0.7826314257597109 -0.6335888681549908
4.41140625 -0.7847277912778594 -0.632436947245735
4.4125546875 -0.7838014124969015 -0.6315427208349921
4.413703125 -0.7852180630526171 -0.6291885821181706
4.4148515625 -0.7851043758158641 -0.6279251419302201
4.416 -0.7862410528374716 -0.6270378615438267
4.4171484375 -0.7884717534424426 -0.6260150998279601
4.418296875 -0.7896509950682685 -0.6264819789472152
4.4194453125 -0.7899482295420418 -0.623407109478934
4.42059375 -0.7918880984641146 -0.6225300361886912
4.4217421875 -0.7919566813963357 -0.622452972661546
4.422890625 -0.7927239290830843 -0.6221466696086917
4.4240390625 -0.7934832311560354 -0.6219737342150706
4.4251875 -0.7949332124431876 -0.6200486369857268
4.4263359375 -0.7952609139290208 -0.6188547038107165
4.427484375 -0.7958101717257782 -0.6172215169635261
4.4286328125 -0.79743458111337 -0.61552936435813
4.42978125 -0.7979936666029435 -0.6146768992712319
4.4309296875 -0.7988694147244646 -0.6132526503040762
4.432078125 -0.7993178531621425 -0.6112738955402456
4.4332265625 -0.8001619891473782 -0.6099875375412787
4.434375 -0.8013195802579901 -0.6089155200012045
4.4355234375 -0.8021051901311392 -0.6077685893166482
4.436671875 -0.8034690149617392 -0.605307322779217
4.4378203125 -0.8053167249433277 -0.6055273714788671
4.43896875 -0.805987485445905 -0.6039167337967918
4.4401171875 -0.8069561599772894 -0.6019602094007057
4.441265625 -0.8095262351202964 -0.6009627635624029
4.4424140625 -0.8106427504309317 -0.5998512110098865
4.4435625 -0.8115008939248132 -0.5987834505563366
4.4447109375 -0.8130445972286671 -0.5992282789385789
4.445859375 -0.8137769150972727 -0.5973814023319486
4.4470078125 -0.8147028966554234 -0.5961156666382899
4.44815625 -0.8163258807559413 -0.5955920541795211
4.4493046875 -0.8169705029783125 -0.5946120327709551
4.450453125 -0.8174513548366893 -0.5929257842218971
4.4516015625 -0.8189504902181324 -0.5936036130124264
4.45275 -0.8203831924639083 -0.5928054477200325
4.4538984375 -0.8205303056201021 -0.5909841663893507
4.455046875 -0.8216510089795802 -0.5918996617508611
4.4561953125 -0.8228161905725019 -0.5905831696824404
4.45734375 -0.8231720413133004 -0.5899661584771088
4.4584921875 -0.8242409501122683 -0.5893392344031366
4.459640625 -0.8247983082205843 -0.5889302751956725
4.4607890625 -0.8263651828726498 -0.5881319175983506
4.4619375 -0.8267477460580096 -0.587193509758531
4.4630859375 -0.8267026935335111 -0.5853554202418388
4.464234375 -0.8279018047564288 -0.5850244899540701
4.4653828125 -0.8294362732245195 -0.582248390048114
4.46653125 -0.8290155845876078 -0.5823055072556436
4.4676796875 -0.8301891189620662 -0.5806106238036484
4.468828125 -0.830848631092405 -0.5800160440358992
4.4699765625 -0.8316497477157665 -0.5780835372338355
4.471125 -0.8319644116912256 -0.5770433323324128
4.4722734375 -0.8325654866750166 -0.5764939354915115
4.473421875 -0.8337871770846974 -0.5748981993424521
4.4745703125 -0.8346790997400979 -0.5721350388224012
4.47571875 -0.8354145181496486 -0.570573116386312
4.4768671875 -0.8360241104227071 -0.5701929325328595
4.478015625 -0.8385393163028175 -0.5670428814249814
4.4791640625 -0.8391149259876161 -0.5669897099800719
4.4803125 -0.8392598403615464 -0.5664694398602238
4.4814609375 -0.8406462598807729 -0.5654658133572634
4.482609375 -0.8415630250457218 -0.5641446818192604
4.4837578125 -0.8436358434510334 -0.5641551464792223
4.48490625 -0.8439086091804975 -0.5626030419592145
4.4860546875 -0.8440446808995592 -0.5621197845356325
4.487203125 -0.8440461452908985 -0.561372756019303
4.4883515625 -0.8474941126875051 -0.5590696921872993
4.4895 -0.8472966437403443 -0.5589044058581005
4.4906484375 -0.8476069797622172 -0.5567941137621181
4.491796875 -0.8483365712863971 -0.5547275726685956
4.4929453125 -0.8485005095239707 -0.5546251910296167
4.49409375 -0.8501681144971072 -0.5522766485903097
4.4952421875 -0.8509849846135032 -0.5505170869507212
4.496390625 -0.8516916792807576 -0.5500753014367378
4.4975390625 -0.8515775190103841 -0.5485920720207679
4.4986875 -0.8517891014246723 -0.5478297786488171
4.4998359375 -0.852382286049843 -0.5462964506143062
4.500984375 -0.8527355091885189 -0.5446582713071499
4.5021328125 -0.8536251095317617 -0.5430592007297608
4.50328125 -0.8553673630724408 -0.5398267355418908
4.5044296875 -0.8542574059266419 -0.5391148478211779
4.505578125 -0.8541061326683523 -0.5380259282954164
4.5067265625 -0.8551638167386393 -0.536616046906112
4.507875 -0.8566900200877682 -0.5336774138092751
4.5090234375 -0.8577688966930188 -0.5335989679267642
4.510171875 -0.8595918207477249 -0.5311241588218227
4.5113203125 -0.8604704056141809 -0.531451025562197
4.51246875 -0.8606926747556025 -0.5302410188692984
4.5136171875 -0.8625576709240484 -0.5271378733016723
4.514765625 -0.8637946186782686 -0.527644597600983
4.5159140625 -0.865162484175386 -0.5252513763566173
4.5170625 -0.8665026184810216 -0.5245420144433305
4.5182109375 -0.8672060996517186 -0.5239119702138023
4.519359375 -0.8692809482534867 -0.5222194038093408
4.5205078125 -0.8688661100956486 -0.5223183856474056
4.52165625 -0.8720190665949492 -0.5200602011954074
4.5228046875 -0.8725637382634521 -0.5187880298622638
4.523953125 -0.8734878632747585 -0.517853602756888
4.5251015625 -0.8747046532753575 -0.5176044244001134
4.52625 -0.874138067229607 -0.5157034499298865
4.5273984375 -0.8756444766787004 -0.5153523673739576
4.528546875 -0.877426225621099 -0.5145862976052376
4.5296953125 -0.8764632179048824 -0.512207012017813
4.53084375 -0.8764247736163956 -0.5110502535263772
4.5319921875 -0.8781514863577011 -0.5087047233460567
4.533140625 -0.8781072084875301 -0.5094107765319635
4.5342890625 -0.878013747586516 -0.5092499120555696
4.5354375 -0.879887830000075 -0.508008617749658
4.5365859375 -0.8783865417623374 -0.5074768265227988
4.537734375 -0.8798673324034302 -0.5073990332057557
4.5388828125 -0.8807202526247403 -0.5058304801388853
4.54003125 -0.8815464760794256 -0.5059161233298072
4.5411796875 -0.8832912468132794 -0.5036580016180332
4.542328125 -0.8817644737516189 -0.5017405446995619
4.5434765625 -0.8834905247975687 -0.5019644066247055
4.544625 -0.8844826732130581 -0.5000726772168282
4.5457734375 -0.8855139974861149 -0.49725125162077277
4.546921875 -0.8864965879154667 -0.49504127256383007
4.5480703125 -0.8871944775856409 -0.4951663716792054
4.54921875 -0.8879035299274254 -0.49195005551931703
4.5503671875 -0.8881591162354974 -0.49157379698400844
4.551515625 -0.8885652759318152 -0.4902250109369455
4.5526640625 -0.8898324011750686 -0.4897209299763485
4.5538125 -0.8897776790157326 -0.4885393444656829
4.5549609375 -0.8913027966277027 -0.4883607977147312
4.556109375 -0.8934443838944321 -0.4862163310912873
4.5572578125 -0.8931920481515132 -0.4862347261729946
4.55840625 -0.8948618610516454 -0.4854223237857875
4.5595546875 -0.8943882796693328 -0.4836325609053756
4.560703125 -0.8951978728010926 -0.48401068409999237
4.5618515625 -0.8954340274906345 -0.4818991417293897
4.563 -0.8979282049017525 -0.48090330256918684
4.5641484375 -0.8961135038413005 -0.47858118672789807
4.565296875 -0.896621990600621 -0.47634527029214874
4.5664453125 -0.8975839135176349 -0.47591000981613285
4.56759375 -0.8987060515083254 -0.4736303440532084
4.5687421875 -0.899204190760617 -0.47362681906705645
4.569890625 -0.9010770654948841 -0.472075164470638
4.5710390625 -0.9010709142605913 -0.46980315400386263
4.5721875 -0.9001499301287361 -0.4689107155363199
4.5733359375 -0.9005980550654854 -0.4674114834281322
4.574484375 -0.9010979593315357 -0.4654633161668892
4.5756328125 -0.9010724723045427 -0.46364135743572776
4.57678125 -0.9017457288820636 -0.4628737872682642
4.5779296875 -0.9014064876408652 -0.4612409947590513
4.579078125 -0.9017722693676997 -0.45906836261847117
4.5802265625 -0.9025159267596111 -0.4578397179264233
4.581375 -0.9043655198141489 -0.4564689877280465
4.5825234375 -0.9064830051764342 -0.45484402466820545
4.583671875 -0.9069348471609134 -0.4533648954708534
4.5848203125 -0.9085178634177906 -0.45235109886554464
4.58596875 -0.9106658686090591 -0.4503289459553534
4.5871171875 -0.9122303787167253 -0.448860232364684
4.588265625 -0.913033898639154 -0.4467375699466579
4.5894140625 -0.9130950198505208 -0.4461761007990564
4.5905625 -0.9141007227716007 -0.4472632920085579
4.5917109375 -0.9146160662912952 -0.44532354374328825
4.592859375 -0.9161276088565363 -0.44351781567411047
4.5940078125 -0.9169532233090321 -0.4429215419606827
4.59515625 -0.917345305049639 -0.44189545132987673
4.5963046875 -0.9190847224479044 -0.4406283084507955
4.597453125 -0.9196196022451996 -0.4392431449125993
4.5986015625 -0.919396032945746 -0.4388999118289883
4.59975 -0.9212768187313739 -0.43576878021689924
4.6008984375 -0.9208182750214455 -0.43438389268358757
4.602046875 -0.9203958418831027 -0.4346168903524183
4.6031953125 -0.9223906799415129 -0.43305021368924235
4.60434375 -0.9230617458015513 -0.43081397454357484
4.6054921875 -0.9231361071295566 -0.430657585693461
4.606640625 -0.9235689838613031 -0.42803472184575736
4.6077890625 -0.9247550851079027 -0.4287692380165024
4.6089375 -0.9257458374290229 -0.42763904523797164
4.6100859375 -0.9269427962098169 -0.4267577299486408
4.611234375 -0.9276408342412377 -0.42573948827549973
4.6123828125 -0.9267363385561063 -0.42582932569478427
4.61353125 -0.927044672553689 -0.4235055502982619
4.6146796875 -0.9288220972185699 -0.4221452122607282
4.615828125 -0.9291692161608088 -0.4206674042517382
4.6169765625 -0.9298901365153073 -0.42035423760423946
4.618125 -0.9299901272820311 -0.4183827642531477
4.6192734375 -0.9297005242352655 -0.4183844679876027
4.620421875 -0.9307067472191121 -0.41696588106625154
4.6215703125 -0.9317894374106905 -0.41518790102788306
4.62271875 -0.9325420516850565 -0.4144367460420558
4.6238671875 -0.9328003569777897 -0.4131877775390808
4.625015625 -0.933181915463497 -0.4101859179575144
4.6261640625 -0.9342362568169392 -0.4095757039181219
4.6273125 -0.934882490446481 -0.4083994421006981
4.6284609375 -0.935867632156921 -0.4068612066076131
4.629609375 -0.9368164048847852 -0.4054791279190273
4.6307578125 -0.937373797171055 -0.4034372487913708
4.63190625 -0.9372702849963842 -0.40386915888935576
4.6330546875 -0.9388130142004192 -0.40218365375885645
4.634203125 -0.9393745908007598 -0.4002118732603488
4.6353515625 -0.941005390625389 -0.39836672235848947
4.6365 -0.9406138392767761 -0.3967326122519253
4.6376484375 -0.9411424402664581 -0.3959638572250117
4.638796875 -0.9420456590299928 -0.39399813989094923
4.6399453125 -0.9426660436807951 -0.39210296353654644
4.64109375 -0.9434711168972715 -0.3907862464043229
4.6422421875 -0.9441800809487532 -0.38949284082718727
4.643390625 -0.9436306075371815 -0.38827792665627336
4.6445390625 -0.9438936544080554 -0.3868969279695947
4.6456875 -0.9439395446424315 -0.38596384282173846
4.6468359375 -0.945228919636687 -0.3836972891464757
4.647984375 -0.9452572824081706 -0.3814833025954232
4.6491328125 -0.9451106105057158 -0.38053686275901116
4.65028125 -0.9449575091160332 -0.3791158806330224
4.6514296875 -0.9456273628893499 -0.37726309177180706
4.652578125 -0.9474348129335459 -0.3760323121532218
4.6537265625 -0.9484169083483995 -0.37428474936486233
4.654875 -0.9481546386378199 -0.3736161360504428
4.6560234375 -0.950098247234464 -0.37226416333173606
4.657171875 -0.9498541999540935 -0.3707993395286934
4.6583203125 -0.9507541674883178 -0.36814342575908465
4.65946875 -0.9507614932211346 -0.3681858396434972
4.6606171875 -0.9520029472890815 -0.3660657093595241
4.661765625 -0.9525498020551658 -0.36565970644920753
4.6629140625 -0.9533274069387876 -0.36521606583930794
4.6640625 -0.9540686833270484 -0.36230298097533226
4.6652109375 -0.9546422346286133 -0.3600142349584133
4.666359375 -0.9540428236125514 -0.3584300741690134
4.6675078125 -0.9566320099237735 -0.35766440714253983
4.66865625 -0.9553862221377011 -0.3569478059318345
4.6698046875 -0.9577828027110478 -0.3547830723802459
4.670953125 -0.9588610479016062 -0.3528176023843744
4.6721015625 -0.9585959970505948 -0.35199249580671366
4.67325 -0.9584489428028671 -0.3508103353720241
4.6743984375 -0.959127227121827 -0.348543353588417
4.675546875 -0.9602579124015289 -0.3467182868635972
4.6766953125 -0.95974507003555 -0.3458858617967
4.67784375 -0.9617301656850199 -0.34408781787454445
4.6789921875 -0.9622024448195949 -0.3436200355051434
4.680140625 -0.9622861293643657 -0.34393411636834814
4.6812890625 -0.9628684823757412 -0.34273038461696087
4.6824375 -0.9628513498079342 -0.3399022583993281
4.6835859375 -0.9636181781589945 -0.3380136878730884
4.684734375 -0.9634977502795425 -0.3368345214189992
4.6858828125 -0.9641713657444129 -0.33626598335348656
4.68703125 -0.9641199474245041 -0.3334085334699287
4.6881796875 -0.9640802286649928 -0.33354118917093606
4.689328125 -0.9650898004336969 -0.3317766144985985
4.6904765625 -0.9653183905789117 -0.32955388792360574
4.691625 -0.9657441054803138 -0.32861392129537115
4.6927734375 -0.9675862241252919 -0.3280148532986617
4.693921875 -0.968145324406845 -0.3252747124020658
4.6950703125 -0.9689357930174392 -0.3233100235244428
4.69621875 -0.9683331403332748 -0.32062010356957715
4.6973671875 -0.9703308128248158 -0.32020103633128805
4.698515625 -0.9707174103301635 -0.31885324151215116
4.6996640625 -0.9717087116079299 -0.31691187357452155
4.7008125 -0.9719226926702403 -0.31716767035914084
4.7019609375 -0.9722143733956758 -0.3154189731984827
4.703109375 -0.9707997837153242 -0.3143504321634641
4.7042578125 -0.971904887974203 -0.31195363660506736
4.70540625 -0.9730141581312415 -0.31069317692350396
4.7065546875 -0.9732843479375717 -0.30902658440989783
4.707703125 -0.9739088343986639 -0.3079034908384349
4.7088515625 -0.9734304065917908 -0.3059411138477051
4.71 -0.9746755149215185 -0.30590569149020586
4.7111484375 -0.9739083996600366 -0.30467558166420344
4.712296875 -0.9755850238758872 -0.30232294013047945
4.7134453125 -0.9760069762667252 -0.3016387362867531
4.71459375 -0.9754451221089233 -0.30020501660953025
4.7157421875 -0.9765138639152846 -0.29850200832858664
4.716890625 -0.9760019653683694 -0.2967888241637124
4.7180390625 -0.9760448644341075 -0.29505249650724097
4.7191875 -0.9772790746406794 -0.29475738282739294
4.7203359375 -0.9772139364585825 -0.2924772400128114
4.721484375 -0.9780594033969309 -0.2904195347138018
4.7226328125 -0.9791095128985093 -0.2897769470314682
4.72378125 -0.9801984403267163 -0.2889844014805505
4.7249296875 -0.9797407047264164 -0.2876243857854202
4.726078125 -0.981746485563205 -0.28518685151771517
4.7272265625 -0.9816016894932779 -0.28452935632775983
4.728375 -0.9830158913136864 -0.2826320306339858
4.7295234375 -0.9827140698217126 -0.28208288858376573
4.730671875 -0.9838231545552664 -0.28187557869616825
4.7318203125 -0.983534699198565 -0.2786436040691057
4.73296875 -0.98418258374491 -0.2774227700036328
4.7341171875 -0.9846287178559434 -0.27481689425454103
4.735265625 -0.9859889282508745 -0.2748360001156075
4.7364140625 -0.9861730871091265 -0.27253286818296385
4.7375625 -0.9882598611284386 -0.2707823292218901
4.7387109375 -0.9860343780338768 -0.2703874657440088
4.739859375 -0.9868203421320907 -0.2682384010805635
4.7410078125 -0.9870805393131372 -0.266580782670084
4.74215625 -0.9870705427595212 -0.2650227798489614
4.7433046875 -0.9881164752283988 -0.2635408409503047
4.744453125 -0.988586829795056 -0.26272093224884385
4.7456015625 -0.9891195175385498 -0.2602753022207783
4.74675 -0.9899509877206761 -0.25855753608051435
4.7478984375 -0.989505580130216 -0.2575755830511767
4.749046875 -0.9892065331326823 -0.25624661009236666
4.7501953125 -0.9878790243469173 -0.25669273748586585
4.75134375 -0.98921164251793 -0.2553919774241889
4.7524921875 -0.9901465115220647 -0.2541578550940156
4.753640625 -0.9898620034857117 -0.25223367868707475
4.7547890625 -0.990767203937897 -0.2507067349948372
4.7559375 -0.9906225432654852 -0.24895134352119508
4.7570859375 -0.992503809542639 -0.247931025359487
4.758234375 -0.9926171705431819 -0.2463799292073829
4.7593828125 -0.9932709435417985 -0.24484222856250437
4.76053125 -0.9922498101962943 -0.24495666979167874
4.7616796875 -0.9923684311429639 -0.24336074065746582
4.762828125 -0.9930669570776876 -0.24132414250389062
4.7639765625 -0.9942088457680762 -0.2400375877355289
4.765125 -0.9945584058796879 -0.23910530466977337
4.7662734375 -0.9952095296522827 -0.23698052730451305
4.767421875 -0.9949667788179992 -0.23543091009870276
4.7685703125 -0.9956691127392154 -0.23524595599672865
4.76971875 -0.9964310559873404 -0.23247756960846533
4.7708671875 -0.995828580944082 -0.23160659196007377
4.772015625 -0.997211209661002 -0.2302061840366615
4.7731640625 -0.9979073660554343 -0.2284891321283142
4.7743125 -0.9968248257228354 -0.22780442802191017
4.7754609375 -0.9984794307988507 -0.22652985362799855
4.776609375 -0.9980408265971611 -0.2235221480586952
4.7777578125 -0.9983930167324813 -0.22198146035698912
4.77890625 -0.9981426036608649 -0.22077558039578304
4.7800546875 -0.9976328513491466 -0.22058963304054782
4.781203125 -0.9995324674916033 -0.21756847864498588
4.7823515625 -0.9994125875731357 -0.2169079058635899
4.7835 -0.9995339894645316 -0.21522142926949578
4.7846484375 -1.0004749871752778 -0.21401735342931258
4.785796875 -0.9995999207050172 -0.21306650004349956
4.7869453125 -0.999655715467616 -0.2114481046211145
4.78809375 -1.0004042113017382 -0.20965316098215278
4.7892421875 -1.00107435270283 -0.2082581912361871
4.790390625 -1.002161564654874 -0.20728429951395375
4.7915390625 -1.0010498390869866 -0.20611391651025335
4.7926875 -1.0012966306206872 -0.205221279078919
4.7938359375 -1.0020651863966148 -0.2033718629256924
4.794984375 -1.0032164844964806 -0.2004758393485073
4.7961328125 -1.0033929368013832 -0.20027604071628513
4.79728125 -1.003562617105843 -0.19808483981382252
4.7984296875 -1.003967977729889 -0.19739060032233427
4.799578125 -1.0051826197538274 -0.19559815161921865
4.8007265625 -1.0064167968703728 -0.1933418591617375
4.801875 -1.0045211620439165 -0.19139250296300653
4.8030234375 -1.0074532214544936 -0.1894037229200447
4.804171875 -1.0065756625996025 -0.18722280597774593
4.8053203125 -1.0063561936214904 -0.18631331609419624
4.80646875 -1.007050311305754 -0.18512883764414412
4.8076171875 -1.0074320964126182 -0.1817020590545011
4.808765625 -1.0076969557944813 -0.18026489426813175
4.8099140625 -1.0073534290853638 -0.17959185584130583
4.8110625 -1.0073614555087742 -0.17770034557259345
4.8122109375 -1.0076590974673454 -0.1763990452584075
4.813359375 -1.00812785600424 -0.17525056356466673
4.8145078125 -1.0085652104576126 -0.1740015101935289
4.81565625 -1.0086842638594584 -0.1727428458170423
4.8168046875 -1.0095870630829193 -0.1707772324833611
4.817953125 -1.0088882709973312 -0.1701326191738175
4.8191015625 -1.0099815386981357 -0.16790941170803458
4.82025 -1.0102645330648965 -0.16719141896801779
4.8213984375 -1.0108315459687713 -0.16613514353580616
4.822546875 -1.0097265932523265 -0.16480340687392206
4.8236953125 -1.0097093887793882 -0.16388507305511477
4.82484375 -1.0101527369810692 -0.16281720915101866
4.8259921875 -1.0120550052964783 -0.16075977497889393
4.827140625 -1.0123705287247275 -0.15927139843804683
4.8282890625 -1.0132166363299813 -0.15747175635212798
4.8294375 -1.0119640968069938 -0.1559293956935004
4.8305859375 -1.0125022280005516 -0.1547056655206224
4.831734375 -1.0126149399866031 -0.15366160011312816
4.8328828125 -1.012764286913691 -0.15172959636412198
4.83403125 -1.012437062529103 -0.15079591550621396
4.8351796875 -1.0125698952468787 -0.14887574508888501
4.836328125 -1.0138092374582333 -0.14697954062569923
4.8374765625 -1.0137331897164195 -0.1443580232886142
4.838625 -1.0127365655051286 -0.14285286493785923
4.8397734375 -1.0141508240075745 -0.14133321739900967
4.840921875 -1.0139808947232116 -0.1403271929666394
4.8420703125 -1.0134698679686243 -0.13935592452258563
4.84321875 -1.0133192307495564 -0.13769782375252637
4.8443671875 -1.0145472796032613 -0.13502008028282705
4.845515625 -1.014530344686668 -0.13376409208829576
4.8466640625 -1.0154508524845263 -0.1329684909178105
4.8478125 -1.0150866799581246 -0.13053036787062955
4.8489609375 -1.0148590687446037 -0.1290282844552358
4.850109375 -1.0150019264282104 -0.12859103134770944
4.8512578125 -1.0149977042901972 -0.1260013328413847
4.85240625 -1.015169184267744 -0.12437427733810107
4.8535546875 -1.0155980181325512 -0.1232606968509052
4.854703125 -1.0159986779456316 -0.12130320801774797
4.8558515625 -1.0159486419475743 -0.11984692990032035
4.857 -1.0165727598081795 -0.11976542075319951
4.8581484375 -1.0166609583461734 -0.11742831331507979
4.859296875 -1.016872236209152 -0.11689030885239805
4.8604453125 -1.0168308056760074 -0.11468588992995349
4.86159375 -1.0175670754215893 -0.11317272987692512
4.8627421875 -1.0178726772654716 -0.11130372019549134
4.863890625 -1.01733183994094 -0.11006164928816227
4.8650390625 -1.0184925005850762 -0.1087041125902776
4.8661875 -1.0180481121456393 -0.1079912481166056
4.8673359375 -1.0196884777400597 -0.10594602613089475
4.868484375 -1.0188345364046043 -0.10279022826925355
4.8696328125 -1.0201103295753304 -0.10144532049629684
4.87078125 -1.019003318077189 -0.09988612317022683
4.8719296875 -1.0190897095560811 -0.0991437057324819
4.873078125 -1.020241402304005 -0.09773004828552595
4.8742265625 -1.020085562737177 -0.09591428953614979
4.875375 -1.0199415643633971 -0.09413763358165625
4.8765234375 -1.0203548162825316 -0.09270815425854709
4.877671875 -1.0202173389799556 -0.09069609311578897
4.8788203125 -1.0206508843371305 -0.08881011480224932
4.87996875 -1.0211530304822818 -0.08805182985719193
4.8811171875 -1.02091577000896 -0.08649550501827352
4.882265625 -1.020751275420558 -0.08448419287928147
4.8834140625 -1.0209391669661854 -0.08263802340801828
4.8845625 -1.019742382279232 -0.08106099398948549
4.8857109375 -1.0208874825795997 -0.07951708165876537
4.886859375 -1.0203269158290484 -0.07818449297414015
4.8880078125 -1.0202843083493762 -0.07663769787490982
4.88915625 -1.0203358663358657 -0.07504060136204477
4.8903046875 -1.0209324373899755 -0.07469929802231753
4.891453125 -1.021591933819691 -0.07356858589451905
4.8926015625 -1.0209632170650464 -0.07238117671726058
4.89375 -1.0223600258674608 -0.06906344609488232
4.8948984375 -1.0216303066595918 -0.06868827642408745
4.896046875 -1.0206854710738043 -0.0664711575901159
4.8971953125 -1.021686612955055 -0.06497695115180441
4.89834375 -1.022453575048189 -0.06387668365201422
4.8994921875 -1.0224338354718066 -0.06256761987214543
4.900640625 -1.0220995644228623 -0.0600689105775216
4.9017890625 -1.022773898992328 -0.05946027362656146
4.9029375 -1.022979670357641 -0.058060998417330485
4.9040859375 -1.0229531815164712 -0.056045517919095025
4.905234375 -1.0222744814572027 -0.054856435837851866
4.9063828125 -1.0225542337278188 -0.05322115668510248
4.90753125 -1.022437924355739 -0.05125969333001293
4.9086796875 -1.0239875125690758 -0.04859064723626591
4.909828125 -1.023188914074145 -0.04717215206951372
4.9109765625 -1.022605248007527 -0.04671599635180268
4.912125 -1.0224289447900436 -0.044291690681636825
4.9132734375 -1.0222477121386364 -0.04416621553097787
4.914421875 -1.0230019277097173 -0.041933384567423126
4.9155703125 -1.0224082754894614 -0.040138289622849294
4.91671875 -1.022933933686603 -0.039331026911107556
4.9178671875 -1.0220303718095103 -0.03733347788449512
4.919015625 -1.022143965553478 -0.035959707227960616
4.9201640625 -1.022562580221174 -0.03500675346055723
4.9213125 -1.023025805374306 -0.03232604837497881
4.9224609375 -1.0239803047326677 -0.032766931007405325
4.923609375 -1.023723982534177 -0.030727100648744426
4.9247578125 -1.023912617888758 -0.027943997800769727
4.92590625 -1.024477891441403 -0.028437292184071206
4.9270546875 -1.0242719514736427 -0.026441461161950175
4.928203125 -1.0233581959770701 -0.024480584932251415
4.9293515625 -1.022656912258487 -0.023071178107647
4.9305 -1.0230098458779906 -0.021759626727273718
4.9316484375 -1.0230779707622077 -0.01989608677149482
4.932796875 -1.0237367586462047 -0.019424675581294015
4.9339453125 -1.023759788492177 -0.018133689339301456
4.93509375 -1.023701132097039 -0.016470519239344977
4.9362421875 -1.0239704630382018 -0.014008896155700029
4.937390625 -1.0243532451653414 -0.012874774511379222
4.9385390625 -1.0246717878974985 -0.011430302305430962
4.9396875 -1.0247537344035296 -0.009587657192504317
4.9408359375 -1.0240590281129858 -0.007996248055468308
4.941984375 -1.023920013976153 -0.0060995214367640105
4.9431328125 -1.024137518663728 -0.0046089308349893665
4.94428125 -1.0239645648051878 -0.0030358498784692767
4.9454296875 -1.0244216542386537 -0.0018608076427942266
4.946578125 -1.024276055200205 0.0002187841057106621
4.9477265625 -1.0237803927415579 0.0014459223100579677
4.948875 -1.0237636345835552 0.003082805665074184
4.9500234375 -1.024239223276595 0.005128900548045712
4.951171875 -1.0244964745868517 0.00755116821126367
4.9523203125 -1.023522905548189 0.007500477069072697
4.95346875 -1.0235122641249625 0.009090109924291628
4.9546171875 -1.0236974410179704 0.010202902567200828
4.955765625 -1.022862064326899 0.011763492447858626
4.9569140625 -1.0232406507308283 0.01440994709787996
4.9580625 -1.0239924595557461 0.015611047327141525
4.9592109375 -1.0242748607598766 0.016522925186209847
4.960359375 -1.0245319141237954 0.017629497393501392
4.9615078125 -1.0245789549276196 0.01889997970975582
4.96265625 -1.0245734023462245 0.021440589773009278
4.9638046875 -1.0244719708823284 0.02324397582974977
4.964953125 -1.0240792513567059 0.025534094412224734
4.9661015625 -1.024555835212825 0.02669624778072227
4.96725 -1.0241944779093732 0.02841606967547855
4.9683984375 -1.0240550712827716 0.03026460302608114
4.969546875 -1.0238884642954786 0.031950713050596796
4.9706953125 -1.0241467383801388 0.034250679289866026
4.97184375 -1.0229522146992234 0.03520720996841595
4.9729921875 -1.0221238803677568 0.03554028035987611
4.974140625 -1.0225425792363028 0.03856094748294117
4.9752890625 -1.0232376494279978 0.03965757433334324
4.9764375 -1.0236699033660874 0.04082885882381204
4.9775859375 -1.023535040290317 0.04333638114578489
4.978734375 -1.021847241873962 0.0447359951717512
4.9798828125 -1.0224867215177675 0.04571398398957155
4.98103125 -1.022891498267816 0.04685548399713871
4.9821796875 -1.0221073217193637 0.047172082832824536
4.983328125 -1.0223069501124438 0.049356095679470774
4.9844765625 -1.0208079386231788 0.05206877293678358
4.985625 -1.0205657268679533 0.05416103872298267
4.9867734375 -1.0208110018050847 0.05481652252656036
4.987921875 -1.0209694116158343 0.05683913854442149
4.9890703125 -1.020682566182101 0.05777463648415804
4.99021875 -1.020687227670585 0.05972604951782157
4.9913671875 -1.0207018036226383 0.06111070549240241
4.992515625 -1.0192468427252106 0.06287795337232899
4.9936640625 -1.020958403467165 0.06468511512083003
4.9948125 -1.0210152010353775 0.06635690950788423
4.9959609375 -1.0209924866475735 0.06825472608694502
4.997109375 -1.022147926823691 0.06934104918722478
4.9982578125 -1.0215641853305504 0.07085560453034563
4.99940625 -1.0215506578835518 0.07237546690897148
5.0005546875 -1.0199683989825785 0.07398372213599096
5.001703125 -1.0200787805751903 0.07510320662811337
5.0028515625 -1.0200070689707108 0.07688523089329843
5.004 -1.0195688463760777 0.07782309148562361
5.0051484375 -1.019458002992891 0.07875074363184577
5.006296875 -1.018566464889012 0.08069442181677941
5.0074453125 -1.0190150867495678 0.0830130310550452
5.00859375 -1.018349061974293 0.08405991640000715
5.0097421875 -1.0186686900135453 0.08644215843674564
5.010890625 -1.018370524940794 0.08865808245276134
5.0120390625 -1.0171534457657865 0.0893052714490902
5.0131875 -1.0176006587368447 0.09102227325701201
5.0143359375 -1.017148322867756 0.09255870219113373
5.015484375 -1.0174519862496607 0.09442897451882155
5.0166328125 -1.0176660554721224 0.09430674510612369
5.01778125 -1.0169788898459924 0.09659991741826646
5.0189296875 -1.016739360908595 0.09815599766035375
5.020078125 -1.0161770057026442 0.09960738771967535
5.0212265625 -1.0156297366124696 0.10016432910951495
5.022375 -1.0155340721790804 0.10267389879523825
5.0235234375 -1.0157337737308954 0.10433077177067349
5.024671875 -1.015401603212292 0.10537415855593348
5.0258203125 -1.0152355520976326 0.10783323112699465
5.02696875 -1.015725233793535 0.10890676982658934
5.0281171875 -1.0157760532988223 0.11029384832158215
5.029265625 -1.0152079136590133 0.11252417930720654
5.0304140625 -1.0149154677265289 0.11310793984377568
5.0315625 -1.0142957800852677 0.11585462399457315
5.0327109375 -1.013752702311019 0.11626549075635065
5.033859375 -1.0137534184499244 0.11761744235344199
5.0350078125 -1.0133773975795035 0.1189813554652783
5.03615625 -1.0132635166747663 0.1205088634457079
5.0373046875 -1.013605139670965 0.1232183152333145
5.038453125 -1.013361705265338 0.12385195396859774
5.0396015625 -1.0128237906172988 0.12666258901447186
5.04075 -1.0119690575500746 0.12931273843642008
5.0418984375 -1.011753285142335 0.12875000275209042
5.043046875 -1.0114593007967478 0.1300378987537522
5.0441953125 -1.010933124534499 0.13207068127034768
5.04534375 -1.0104701067851385 0.13345492888854282
5.0464921875 -1.0109842069729826 0.1337782894440957
5.047640625 -1.0101739213937668 0.1358396381097252
5.0487890625 -1.010457780427455 0.13834407785229225
5.0499375 -1.0095139926166745 0.1391023643621457
5.0510859375 -1.0108091281615095 0.14083275298942322
5.052234375 -1.010656925988088 0.1422100251053763
5.0533828125 -1.0092422391936307 0.14294507573720455
5.05453125 -1.0096946361974344 0.1448230922748464
5.0556796875 -1.0097584007996654 0.14759110420384797
5.056828125 -1.0081922746617358 0.14848057847628993
5.0579765625 -1.0087113862041566 0.14977352482142697
5.059125 -1.0076450304032532 0.1517230850205654
5.0602734375 -1.0072258225290582 0.15410355099022444
5.061421875 -1.0054319000400191 0.15584684483448666
5.0625703125 -1.006863428291732 0.15603442064301298
5.06371875 -1.0071517755429185 0.15796812780720682
5.0648671875 -1.006036316676649 0.16027257754850982
5.066015625 -1.0052408039514318 0.16198094269056001
5.0671640625 -1.0059882961522302 0.16446317246818315
5.0683125 -1.0056763788425083 0.16496845687366024
5.0694609375 -1.0049364520736517 0.16585411092188496
5.070609375 -1.0045260498174904 0.16749801547311283
5.0717578125 -1.0041616489111551 0.1687899497000908
5.07290625 -1.0039487022398748 0.17101107746864025
5.0740546875 -1.0037687401472914 0.17276177492443956
5.075203125 -1.0027815628154089 0.1733432510810165
5.0763515625 -1.0034090100775606 0.17475411704534388
5.0775 -1.003211238209128 0.17551626097579032
5.0786484375 -1.0028168172428609 0.17865837526240863
5.079796875 -1.002236875253405 0.17976883373189273
5.0809453125 -1.0013032101945054 0.17970342476759218
5.08209375 -1.001781376526744 0.18265887706800346
5.0832421875 -1.0011750523043137 0.1829627759910848
5.084390625 -1.000555878121535 0.18471526713665998
5.0855390625 -0.9998862952805316 0.18795847816123107
5.0866875 -0.9987029073688384 0.18952869114135068
5.0878359375 -0.9988440932956918 0.18970014785169445
5.088984375 -0.9996659304551684 0.19187787686146474
5.0901328125 -0.9987568292008124 0.19195014876411193
5.09128125 -0.9989211305864065 0.19414633174963306
5.0924296875 -0.9976458916156745 0.19519214745114585
5.093578125 -0.9976688883486255 0.19713273541915985
5.0947265625 -0.9959656648005597 0.19777379801647765
5.095875 -0.9970998149326769 0.19872675351626795
5.0970234375 -0.9961144911634486 0.2020026986604591
5.098171875 -0.9955323829137624 0.2023840412444177
5.0993203125 -0.9951448968837339 0.20355446143131423
5.10046875 -0.9945422197004703 0.20537010694022828
5.1016171875 -0.9941228091256998 0.20715265326667454
5.102765625 -0.9943828779489945 0.20882509086858844
5.1039140625 -0.9929770406868832 0.20943188472601465
5.1050625 -0.9939784357400633 0.21061228162246853
5.1062109375 -0.9929478362828028 0.21230530331131803
5.107359375 -0.9922354788653889 0.21334596401824843
5.1085078125 -0.9921251656558788 0.2164883089598999
5.10965625 -0.9916992835547879 0.21824909997807312
5.1108046875 -0.9916164031253083 0.21885510747791811
5.111953125 -0.9916268082736663 0.22128058683377902
5.1131015625 -0.9910002268935002 0.22195267770629518
5.11425 -0.9900688135986258 0.22302494601033998
5.1153984375 -0.9887329199191641 0.22509279602506393
5.116546875 -0.9890749683531349 0.22568673682749557
5.1176953125 -0.9874954705273751 0.2274254580050975
5.11884375 -0.9878797186090809 0.22883597381591692
5.1199921875 -0.9879398374530743 0.22958050257282667
5.121140625 -0.9872371336758428 0.23190102643295668
5.1222890625 -0.9866101726756342 0.2331179310361532
5.1234375 -0.9867754773793276 0.23472668581365957
5.1245859375 -0.9857983945378228 0.2367481120977789
5.125734375 -0.986214197022332 0.23727473494235352
5.1268828125 -0.9858610153430012 0.23955865004760168
5.12803125 -0.9851768481937988 0.24049922027439383
5.1291796875 -0.9854615908836092 0.24244885270020983
5.130328125 -0.9849997965687878 0.2423329112862184
5.1314765625 -0.9855225284402214 0.24535754495195183
5.132625 -0.9840473646780099 0.24765765257552846
5.1337734375 -0.9835953391220218 0.24706454818735313
5.134921875 -0.9827145277863725 0.24975789292222572
5.1360703125 -0.9828318478689188 0.25040909117023213
5.13721875 -0.9825608055458207 0.2520155242997769
5.1383671875 -0.9821127859706391 0.25439431609787466
5.139515625 -0.9807212134256953 0.25503883200466104
5.1406640625 -0.9811523038370166 0.256972597846966
5.1418125 -0.980433185358396 0.258049357926837
5.1429609375 -0.9803766895073738 0.2603222003690457
5.144109375 -0.9786974881388291 0.2627777469627274
5.1452578125 -0.9783547784563604 0.2628622454410464
5.14640625 -0.9780144633284424 0.2652054083837613
5.1475546875 -0.9783767756485032 0.2669354102026396
5.148703125 -0.9785153026154865 0.2692794490689618
5.1498515625 -0.9787820246412233 0.2695800115667007
5.151 -0.9789054321023939 0.27127314498653676
5.1521484375 -0.9778056908929394 0.27342805195106584
5.153296875 -0.9780645635395226 0.27395197085175593
5.1544453125 -0.9768362842765557 0.2760455013981095
5.15559375 -0.9759575221856038 0.2767515871198641
5.1567421875 -0.9745706672357611 0.2783534062247813
5.157890625 -0.9755762528200939 0.28007759691787426
5.1590390625 -0.9756918767601347 0.280718598687673
5.1601875 -0.9750849349720073 0.2825981851176979
5.1613359375 -0.9754460926544302 0.2846955825692311
5.162484375 -0.9732604936938355 0.2862402054738024
5.1636328125 -0.9730418456366388 0.28711389958920003
5.16478125 -0.9715110930424851 0.2870893844771834
5.1659296875 -0.971338436587837 0.2888945368974186
5.167078125 -0.9709064622114166 0.2902944115031355
5.1682265625 -0.9703926744049733 0.293262421060073
5.169375 -0.9688383853329114 0.2938378452211952
5.1705234375 -0.9689152011766047 0.2946096238177881
5.171671875 -0.968822620394639 0.2955029796240888
5.1728203125 -0.9690451672803116 0.29917902594362433
5.17396875 -0.9678932878158615 0.30049258172963206
5.1751171875 -0.9669259554175648 0.300441955213771
5.176265625 -0.9672750576718012 0.3021570492550706
5.1774140625 -0.9673340012449948 0.30258531624727053
5.1785625 -0.9658007273853004 0.30347242336064467
5.1797109375 -0.9650781800922313 0.30514626720556426
5.180859375 -0.9629501259100796 0.3077994123391439
5.1820078125 -0.9645311553786972 0.3080930949764566
5.18315625 -0.9635146733866773 0.3088914210678607
5.1843046875 -0.9632206389138593 0.3116605813934564
5.185453125 -0.9630631301246686 0.3124109068217026
5.1866015625 -0.9614515412810944 0.3137811096228981
5.18775 -0.9613608934845663 0.3155422333370659
5.1888984375 -0.9624741365604481 0.3150808640566325
5.190046875 -0.9615999206516119 0.31674904634481693
5.1911953125 -0.9608800914295521 0.3181807136828238
5.19234375 -0.9593763151389242 0.32046602945348546
5.1934921875 -0.9588659281128371 0.3226797053184314
5.194640625 -0.958734953961084 0.3235546220683376
5.1957890625 -0.9581516229744171 0.32559076909020895
5.1969375 -0.9567764133834098 0.326154738260605
5.1980859375 -0.9559806656381978 0.32896925676608313
5.199234375 -0.9560884587473217 0.3290742011534381
5.2003828125 -0.9553800449410188 0.32979947769510165
5.20153125 -0.9547044187483926 0.33174191547749604
5.2026796875 -0.9550484877036891 0.3347232463046766
5.203828125 -0.9540376133594571 0.3353038884253595
5.2049765625 -0.9519348577991702 0.3361193042335321
5.206125 -0.9514816425954591 0.33701421402944187
5.2072734375 -0.9518900540031814 0.3383547092999666
5.208421875 -0.9501927507599575 0.3393853909738394
5.2095703125 -0.9506407042270808 0.34319774660577906
5.21071875 -0.9485612410636843 0.3446593139036815
5.2118671875 -0.9487064604473622 0.3447837451244559
5.213015625 -0.9498990485726033 0.3460960753500824
5.2141640625 -0.9490755416327185 0.3476009281514017
5.2153125 -0.9472477115300717 0.3487887158747581
5.2164609375 -0.9460445439632154 0.3504015224134064
5.217609375 -0.9457084377168335 0.35230345154551135
5.2187578125 -0.9454920790965323 0.35438852021173717
5.21990625 -0.9449451693877841 0.35505561613803893
5.2210546875 -0.9443874816359469 0.35745326103733593
5.222203125 -0.9435127950551285 0.3594655888697193
5.2233515625 -0.9435485541119905 0.36007257129411335
5.2245 -0.9417925734579395 0.36131754979366115
5.2256484375 -0.9421665215254816 0.3633211066351527
5.226796875 -0.9413309854946087 0.3642810745856369
5.2279453125 -0.9406584536106166 0.36626632163019174
5.22909375 -0.9409464645328057 0.36730658368780217
5.2302421875 -0.9398111341001665 0.36769970561019505
5.231390625 -0.9396848859581163 0.36881700046706134
5.2325390625 -0.9393308563170211 0.37149367564746694
5.2336875 -0.9388826885416534 0.37418829425064143
5.2348359375 -0.9373058407470192 0.3728365690243707
5.235984375 -0.9369541168297382 0.3750218577970268
5.2371328125 -0.9365078188119187 0.37404129365935046
5.23828125 -0.935379146312008 0.37606798151976756
5.2394296875 -0.9346736943136542 0.3788483536950047
5.240578125 -0.93415611407797 0.3794334611804977
5.2417265625 -0.9332891834893964 0.381690020851817
5.242875 -0.9336548210915205 0.38305742046517893
5.2440234375 -0.932887073164157 0.38435540946162505
5.245171875 -0.9312605123770266 0.38665923226468923
5.2463203125 -0.9298737151857085 0.38775298251477724
5.24746875 -0.93067798739289 0.3885452457221092
5.2486171875 -0.9307611324099152 0.3909310188323164
5.249765625 -0.9303318439378454 0.39238775552483673
5.2509140625 -0.9292439583812023 0.3939923008568621
5.2520625 -0.9286736458873717 0.3958868891245243
5.2532109375 -0.9282495170265822 0.3956907914375313
5.254359375 -0.9281948085313603 0.3966449285104176
5.2555078125 -0.9272148499078997 0.3989388055089655
5.25665625 -0.9265855871826257 0.40078795813145657
5.2578046875 -0.9249748242006222 0.40267510096483083
5.258953125 -0.9244980568357715 0.40371070047861424
5.2601015625 -0.92467024379435 0.4049991105212801
5.26125 -0.9237816731534397 0.4054004812151303
5.2623984375 -0.9245102564127715 0.40688647645339865
5.263546875 -0.9214855980338954 0.41034019418715234
5.2646953125 -0.9219402456175314 0.4097275867563647
5.26584375 -0.9195031460985306 0.4107309217360153
5.2669921875 -0.9197184521562146 0.41285313086227865
5.268140625 -0.9187486345532825 0.41381155665603686
5.2692890625 -0.9174631518851339 0.4158669509307164
5.2704375 -0.9167406875158332 0.41646230218517716
5.2715859375 -0.9163614090090809 0.41857918061207033
5.272734375 -0.91622942266975 0.4201881630086183
5.2738828125 -0.9157210138523113 0.42171877967212157
5.27503125 -0.9152429436157284 0.4238674820027076
5.2761796875 -0.9134244217524423 0.42507256559471945
5.277328125 -0.9131732503980919 0.4248535716450832
5.2784765625 -0.9116937187888763 0.4267931105972572
5.279625 -0.9124879560020038 0.4281199771700705
5.2807734375 -0.9107048368252696 0.4297551333036891
5.281921875 -0.9086623337615697 0.4310122137797572
5.2830703125 -0.9083264271667345 0.43261624224298934
5.28421875 -0.9076889953863772 0.433573736164263
5.2853671875 -0.907672892052296 0.4351487706737422
5.286515625 -0.9070385689745668 0.43716195094384114
5.2876640625 -0.9054657613527104 0.4383747324691134
5.2888125 -0.905211710465872 0.4381529599628765
5.2899609375 -0.9055538570372536 0.4416893577514229
5.291109375 -0.9045501507903941 0.4421239305327167
5.2922578125 -0.9038439489940395 0.44377593024689005
5.29340625 -0.9015056295127761 0.4464354545548822
5.2945546875 -0.9003455017213905 0.4468851231085041
5.295703125 -0.9003740887081593 0.44699628194418967
5.2968515625 -0.9016021765551356 0.4489924854131052
5.298 -0.8999033599024441 0.4489469477764084
5.2991484375 -0.8989947616260237 0.4524954243783095
5.300296875 -0.8971352842116103 0.45381447163809063
5.3014453125 -0.8966899141898961 0.45340261687524697
5.30259375 -0.8960826459506195 0.4543391857855479
5.3037421875 -0.8955430697478686 0.45613968701383567
5.304890625 -0.8937873658545885 0.45915157667054535
5.3060390625 -0.8936055598375915 0.45907325348620187
5.3071875 -0.8934489404934759 0.46134432384357926
5.3083359375 -0.8927923935400621 0.4609715295501071
5.309484375 -0.8921918354052143 0.46159047500593764
5.3106328125 -0.890181229615588 0.4647764062358837
5.31178125 -0.8888263559444718 0.4661586948423147
5.3129296875 -0.8901069836260367 0.46676415760694345
5.314078125 -0.8900844275222951 0.4678416999353898
5.3152265625 -0.8876784358396055 0.4699582324151041
5.316375 -0.8866441680944195 0.4714985422031869
5.3175234375 -0.8856776544059585 0.47203329297590607
5.318671875 -0.8844796301767622 0.47130553508818573
5.3198203125 -0.8841917742319141 0.47570385268922477
5.32096875 -0.8842274083210456 0.47438996730830196
5.3221171875 -0.8845567153920602 0.4759339079025613
5.323265625 -0.8816618265085332 0.4782175200486488
5.3244140625 -0.8817703503804055 0.4799883033556199
5.3255625 -0.8806650824827017 0.4800196422388539
5.3267109375 -0.8799068838484725 0.48055203211388264
5.327859375 -0.8786606835876829 0.4836457108116622
5.3290078125 -0.8771423046937008 0.48361133201277057
5.33015625 -0.8762263694764699 0.4848248465452173
5.3313046875 -0.876078267690275 0.4859942671885261
5.332453125 -0.876492402476226 0.4858128450777991
5.3336015625 -0.8750619178127916 0.4884416889570312
5.33475 -0.8726261411231694 0.4899089679950793
5.3358984375 -0.8721135614598343 0.4912065931675618
5.337046875 -0.8717370495630903 0.49079204215507705
5.3381953125 -0.8699509608850018 0.4928600091450651
5.33934375 -0.8701847859254705 0.49458925914297625
5.3404921875 -0.8685713964174688 0.49619449523687703
5.341640625 -0.8677175641705046 0.4970510695708184
5.3427890625 -0.8675415788195402 0.498720946958888
5.3439375 -0.8664734998718155 0.500003480457384
5.3450859375 -0.8655430343841635 0.5013875608354024
5.346234375 -0.8644754092187857 0.5030488759331937
5.3473828125 -0.8629609533198965 0.5041252866445963
5.34853125 -0.8635612735911686 0.5057556457570129
5.3496796875 -0.8628736767479799 0.5067998397983688
5.350828125 -0.8620384463181858 0.5074126256576988
5.3519765625 -0.8613871139192473 0.5090007981846634
5.353125 -0.8588490698555725 0.5120402285658143
5.3542734375 -0.858320276580128 0.5117012230777175
5.355421875 -0.857231037548481 0.5130170167499176
5.3565703125 -0.8565022783613858 0.5150715924712872
5.35771875 -0.8567116101536757 0.5159646942607347
5.3588671875 -0.8546460211396693 0.5183016999397441
5.360015625 -0.8543551837273736 0.5189384242709832
5.3611640625 -0.8535083591380844 0.5193741421676624
5.3623125 -0.8526529552552103 0.5208115807872644
5.3634609375 -0.8519770397146887 0.5208554834170105
5.364609375 -0.8492419147637639 0.5240801739839815
5.3657578125 -0.849968415331129 0.5254790705895519
5.36690625 -0.8488028306449714 0.5260921166100088
5.3680546875 -0.8485760047964913 0.5272950547547606
5.369203125 -0.8488580208758927 0.5293399296948454
5.3703515625 -0.8467485397803224 0.5301131787745215
5.3715 -0.8459324225956396 0.5312460191816479
5.3726484375 -0.8468111230822177 0.532301831810169
5.373796875 -0.8448076413958603 0.5335145965139341
5.3749453125 -0.8427763926527547 0.5348697913456466
5.37609375 -0.8425900886607608 0.5359737530234716
5.3772421875 -0.8417548723736623 0.5361386789520034
5.378390625 -0.8414316081759721 0.5368051715014805
5.3795390625 -0.8410966771054763 0.5384436278626744
5.3806875 -0.8401452824285628 0.5401908257729996
5.3818359375 -0.8390702232582223 0.5409621850824058
5.382984375 -0.8370228998199158 0.5428781010064911
5.3841328125 -0.8359083339575005 0.5432435095558203
5.38528125 -0.836837385755668 0.5437389918976054
5.3864296875 -0.8362776059877878 0.5438371778255122
5.387578125 -0.8354894164589686 0.5467039067795508
5.3887265625 -0.8330478404352398 0.5480852372656898
5.389875 -0.8324007476956735 0.5478793719641087
5.3910234375 -0.8323810018001327 0.5487934137874879
5.392171875 -0.8308707044593042 0.5500217968995327
5.3933203125 -0.8307006930861607 0.5521303147046726
5.39446875 -0.8290153448710936 0.5531675104374473
5.3956171875 -0.8288120924587237 0.5537320055979233
5.396765625 -0.8285875837053011 0.5554907719704034
5.3979140625 -0.8285752743762139 0.5556537315983806
5.3990625 -0.8261802320518445 0.5575535641886102
5.4002109375 -0.8237306442618979 0.5576753942469675
5.401359375 -0.8234635908652296 0.5596611436089907
5.4025078125 -0.8239069111782686 0.5608139363861577
5.40365625 -0.8225498594413184 0.5618398914077865
5.4048046875 -0.8213819051135554 0.5615336321308908
5.405953125 -0.8206348624073514 0.5632439294732485
5.4071015625 -0.8187777767838469 0.5649828796863998
5.40825 -0.8193278279318954 0.564991044379954
5.4093984375 -0.8174339136423693 0.5675499661564045
5.410546875 -0.8176925505295772 0.5689540442272667
5.4116953125 -0.8166565415630721 0.571037188761323
5.41284375 -0.8144644496855923 0.5711311734004767
5.4139921875 -0.8146340126784396 0.5709791362143166
5.415140625 -0.8143079520720528 0.5730350746955171
5.4162890625 -0.8130643363888272 0.5752645395084413
5.4174375 -0.8124928633275945 0.5755071047531326
5.4185859375 -0.8104380453884318 0.5769736506140563
5.419734375 -0.8105403952073548 0.57761793471144
5.4208828125 -0.8112560378101615 0.5802329501716038
5.42203125 -0.809796272119109 0.5810518432658968
5.4231796875 -0.8086920155031182 0.5823103581051369
5.424328125 -0.8064409693133278 0.584892843815549
5.4254765625 -0.8059209596284254 0.5842300869660382
5.426625 -0.8040757215196357 0.5862835571376267
5.4277734375 -0.8036025029722524 0.5869504320443235
5.428921875 -0.8043633260251553 0.5882563095954091
5.4300703125 -0.8027178503672987 0.5898824920413014
5.43121875 -0.8034098065448261 0.5907973323204638
5.4323671875 -0.8009779234499903 0.5915272150970473
5.433515625 -0.7994815269687662 0.5935028388067116
5.4346640625 -0.799392813777282 0.5948381628647461
5.4358125 -0.7971868103771076 0.597353990724271
5.4369609375 -0.796394064021084 0.5971161951668859
5.438109375 -0.7975242115739365 0.5957946991000274
5.4392578125 -0.795543233246606 0.5986491003291299
5.44040625 -0.7945218754566611 0.6003185696572386
5.4415546875 -0.7923764753617231 0.601481140552905
5.442703125 -0.7916907742797437 0.6022030320757354
5.4438515625 -0.7906785603394065 0.6021216486349942
5.445 -0.7909709744331116 0.6034267555312253
5.4461484375 -0.7897438982467283 0.6051736993105812
5.447296875 -0.7887946208872391 0.6067147634415148
5.4484453125 -0.7866134157249589 0.6075814172203817
5.44959375 -0.7862452335376622 0.6082553119494685
5.4507421875 -0.7869044274648939 0.609808309217698
5.451890625 -0.7855981054879064 0.6112308177692387
5.4530390625 -0.7853465465759792 0.6115881716571294
5.4541875 -0.7823078084628399 0.6126718240250001
5.4553359375 -0.7819783238518994 0.6134876583883646
5.456484375 -0.7823579937160057 0.6151765176835466
5.4576328125 -0.7807839996244782 0.6152145876251343
5.45878125 -0.7795960231652268 0.616494552076943
5.4599296875 -0.778360473480623 0.6190568130118428
5.461078125 -0.7790205947777379 0.6190576629108985
5.4622265625 -0.7781890038134153 0.6195129081936265
5.463375 -0.7776568105288295 0.6200647953468876
5.4645234375 -0.7769085677592418 0.6214785729241487
5.465671875 -0.7756009823973095 0.6232058458745031
5.4668203125 -0.7736797465927654 0.6238297072766512
5.46796875 -0.7737685661936564 0.6246035374957786
5.4691171875 -0.7722595334707647 0.6259113699950543
5.470265625 -0.7717455559631209 0.6269456765005138
5.4714140625 -0.7694780228814554 0.6286320920395373
5.4725625 -0.7686700557179209 0.6286333614769094
5.4737109375 -0.76759481016957 0.6291016075947958
5.474859375 -0.7663284347972537 0.6302494262452889
5.4760078125 -0.7663568969217778 0.6318464363943498
5.47715625 -0.7649418300803211 0.6335689095509307
5.4783046875 -0.7625344326933339 0.6350099350719509
5.479453125 -0.7619823966299042 0.6356177197034295
5.4806015625 -0.7614302003009392 0.6371764340319461
5.48175 -0.7593214164737557 0.6366115536856853
5.4828984375 -0.758709602941763 0.6387074872948812
5.484046875 -0.7579650366625613 0.640700207525652
5.4851953125 -0.7572955473198929 0.6415060286317498
5.48634375 -0.7564097498932375 0.6419473255911293
5.4874921875 -0.7562097517797598 0.6426580059465613
5.488640625 -0.754646720183295 0.644294691028797
5.4897890625 -0.7513399882810214 0.6458796030475495
5.4909375 -0.7526001239550517 0.6457857415548546
5.4920859375 -0.7519818394356079 0.6474582972250527
5.493234375 -0.7510384669474715 0.648208291722285
5.4943828125 -0.7498898314637668 0.6493410508723045
5.49553125 -0.7495183168981508 0.6516124475055931
5.4966796875 -0.7474972930270093 0.6531338826696547
5.497828125 -0.7463487632103458 0.651910402186129
5.4989765625 -0.7468005089600298 0.6527018939911393
5.500125 -0.7454823771815275 0.6541480457921481
5.5012734375 -0.7422401724810186 0.6552571760682412
5.502421875 -0.7428377672441349 0.6560144448130911
5.5035703125 -0.7425137528136035 0.6579258468520242
5.50471875 -0.740755110575506 0.6617485335445304
5.5058671875 -0.740863636662496 0.6610655807909618
5.507015625 -0.7392820066100341 0.6625106521739599
5.5081640625 -0.7386182002139817 0.6629335329951082
5.5093125 -0.7378799252566511 0.6622893084623127
5.5104609375 -0.7355850616528741 0.6645268007991795
5.511609375 -0.7348624400360213 0.6655511977800785
5.5127578125 -0.7320533603434185 0.6678501862095138
5.51390625 -0.7309742478509657 0.6689289307640272
5.5150546875 -0.7299569255126186 0.668033671265217
5.516203125 -0.7310753267890531 0.6714731583035101
5.5173515625 -0.7310101504211177 0.6704208670108376
5.5185 -0.7296123507743211 0.672628800968883
5.5196484375 -0.7268346072108652 0.673252282272423
5.520796875 -0.7260910627650489 0.6746951714491702
5.5219453125 -0.724361181312994 0.6743066043926894
5.52309375 -0.7236398828956216 0.6770800968581632
5.5242421875 -0.7226601970098894 0.6776200969017625
5.525390625 -0.721550626842377 0.6792163838915369
5.5265390625 -0.7215791171228123 0.6794177904526795
5.5276875 -0.7205386790634939 0.6806553663783477
5.5288359375 -0.7201947591709338 0.6815285092156803
5.529984375 -0.7205605724291972 0.6824392153234083
5.5311328125 -0.7178619136833485 0.6843180537609821
5.53228125 -0.7174091259837427 0.6853026160825714
5.5334296875 -0.716741177667601 0.6867898230682378
5.534578125 -0.7147184842798743 0.6870477525283369
5.5357265625 -0.7127806025033107 0.6885977954202904
5.536875 -0.7117310002672766 0.6911481523453954
5.5380234375 -0.7104131797180139 0.690604313273967
5.539171875 -0.7104474299060082 0.6906825016945584
5.5403203125 -0.710904641268689 0.691494637152003
5.54146875 -0.7090718091780814 0.6935744567219685
5.5426171875 -0.7076062279829592 0.6958541754099532
5.543765625 -0.7064297327677868 0.6955292416964072
5.5449140625 -0.7050465128400495 0.6968302224382018
5.5460625 -0.7044255417893174 0.6977641048614229
5.5472109375 -0.7041385826210266 0.6984167190629871
5.548359375 -0.7020611926925749 0.7001284698471448
5.5495078125 -0.7009100510981968 0.6997396540154432
5.55065625 -0.7004462902667585 0.7013809664498082
5.5518046875 -0.698773771824833 0.7022620917551139
5.552953125 -0.698280413300354 0.7041771720756156
5.5541015625 -0.6961824901179989 0.704517113155591
5.55525 -0.6942020663640068 0.7057304028503378
5.5563984375 -0.6944169934280588 0.7066213968376832
5.557546875 -0.6931399367745787 0.70748215244029
5.5586953125 -0.6922409895502738 0.708574402209635
5.55984375 -0.6921757730537816 0.7107191662918907
5.5609921875 -0.6894301415809878 0.7120236385056182
5.562140625 -0.689597977630116 0.7129052293503019
5.5632890625 -0.6886395616286408 0.7134695108321041
5.5644375 -0.6878535158090965 0.7153073422838937
5.5655859375 -0.6871134083285149 0.715057432347467
5.566734375 -0.6850887925751603 0.7165006361742249
5.5678828125 -0.6837675423121748 0.7169870376599211
5.56903125 -0.683367665740673 0.7188963557309136
5.5701796875 -0.6827265347197742 0.7191540725428367
5.571328125 -0.6810501270957818 0.7215099312677624
5.5724765625 -0.679057589507048 0.7228155064062387
5.573625 -0.6803518482727924 0.7237584825800659
5.5747734375 -0.6777884343785732 0.723075087762279
5.575921875 -0.6756530241623571 0.7241560579962387
5.5770703125 -0.6749453311745798 0.72371533103773
5.57821875 -0.6742935261114806 0.7246939614253902
5.5793671875 -0.6725498085363049 0.7271338374899485
5.580515625 -0.6718953924805248 0.7285348906918363
5.5816640625 -0.6698770901812058 0.7297079508004313
5.5828125 -0.66999453862986 0.7289549609851596
5.5839609375 -0.6681966547833735 0.7290343974823614
5.585109375 -0.6671924345075974 0.7307888677479728
5.5862578125 -0.6667846479392383 0.7336927276920155
5.58740625 -0.6662178387455489 0.7342983618005718
5.5885546875 -0.6641012231000321 0.7342276266994028
5.589703125 -0.66273177873272 0.735587329698864
5.5908515625 -0.6634057477398071 0.7351987152905494
5.592 -0.6618851091580372 0.7364336145603452
5.5931484375 -0.6606032783673623 0.7371443544316558
5.594296875 -0.6609365201832111 0.7386037387089773
5.5954453125 -0.6591432918537091 0.740836196267005
5.59659375 -0.6566997313017447 0.741612426894562
5.5977421875 -0.6563441560216872 0.742721040902696
5.598890625 -0.6572476244027432 0.74286791119035
5.6000390625 -0.6546462008479502 0.7431752788982334
5.6011875 -0.6544872597341626 0.744159354484077
5.6023359375 -0.6516397036228052 0.7459074629151345
5.603484375 -0.6509964860718543 0.7459773456782605
5.6046328125 -0.6495443934488867 0.7468939046792165
5.60578125 -0.649376846650125 0.7476235275020042
5.6069296875 -0.6478765465790852 0.7485249680692669
5.608078125 -0.6460708987182799 0.7491652311958049
5.6092265625 -0.6448156500710315 0.7490197997028375
5.610375 -0.6450619665370827 0.7508253429659255
5.6115234375 -0.6436650885709423 0.7517657812316897
5.612671875 -0.6440729877750995 0.7533721106144174
5.6138203125 -0.6407346666524169 0.7548199621058397
5.61496875 -0.63991822637889 0.7558608164067321
5.6161171875 -0.6392982351331643 0.7566733748076339
5.617265625 -0.6384140561279639 0.7580002792305696
5.6184140625 -0.6367458341916042 0.7586574354303016
5.6195625 -0.6361217209647604 0.7591164255094679
5.6207109375 -0.6338523289374143 0.7593827625588916
5.621859375 -0.6330817894125877 0.7605072962485846
5.6230078125 -0.6331329842739597 0.7625202100603513
5.62415625 -0.6323090884087611 0.763562151240316
5.6253046875 -0.6302883538731581 0.7640646790836783
5.626453125 -0.6273212111272516 0.7642892315014547
5.6276015625 -0.6269169409028883 0.7656073853655365
5.62875 -0.6263571910983561 0.7665532072119268
5.6298984375 -0.6249176152003276 0.7672860359575423
5.631046875 -0.6242556458088696 0.7683135341585259
5.6321953125 -0.6225805489804014 0.769803042087688
5.63334375 -0.6212812432368233 0.7702836496018115
5.6344921875 -0.6203321358792205 0.7713376985375048
5.635640625 -0.619573094417246 0.7725152230159209
5.6367890625 -0.6179988843902273 0.7735319480539306
5.6379375 -0.6160552448493907 0.7746767571214711
5.6390859375 -0.6151012390298001 0.7752466764600819
5.640234375 -0.6148305161446448 0.7762563107240771
5.6413828125 -0.6136471433147701 0.7777235000607987
5.64253125 -0.6126500329864855 0.7784618447554312
5.6436796875 -0.611170820486382 0.7788834622196046
5.644828125 -0.6104154453387182 0.7808317759914185
5.6459765625 -0.6090916135739103 0.7800930477516125
5.647125 -0.6076004919518684 0.7818518560288762
5.6482734375 -0.6067769856739722 0.7823523196022633
5.649421875 -0.6058622248862682 0.7831339833156064
5.6505703125 -0.6041494987528819 0.7853897821252744
5.65171875 -0.6027079833940334 0.7845440475232978
5.6528671875 -0.601885573609957 0.78507645503467
5.654015625 -0.6005885721146338 0.7858141555954778
5.6551640625 -0.5999252600923608 0.7876201840544266
5.6563125 -0.5976402966281696 0.7882105364371697
5.6574609375 -0.5974065288152467 0.7884748327349095
5.658609375 -0.5952623138289963 0.7890440561257874
5.6597578125 -0.594703921538051 0.7904493001172213
5.66090625 -0.593275336910973 0.7922117472316297
5.6620546875 -0.5922914366411214 0.7918914759249808
5.663203125 -0.5914694402472703 0.7929102469364621
5.6643515625 -0.5904209491068342 0.793244385190816
5.6655 -0.5888214006165289 0.79466595767041
5.6666484375 -0.5878272177780473 0.795474652106016
5.667796875 -0.5862879752314445 0.7974299427098064
5.6689453125 -0.5854147815749913 0.7983553870754566
5.67009375 -0.5857532549628411 0.7987770961421881
5.6712421875 -0.5843682278277726 0.798560021085566
5.672390625 -0.5834872746411441 0.7995417511102987
5.6735390625 -0.5813546969475455 0.8006117542056403
5.6746875 -0.580604381711222 0.8016057323567887
5.6758359375 -0.5793671400658108 0.8026387978266882
5.676984375 -0.578141136070122 0.8036292782973288
5.6781328125 -0.5770536947591992 0.8043776073281667
5.67928125 -0.5748897381928443 0.80540512869962
5.6804296875 -0.57421002095165 0.806997265133061
5.681578125 -0.5733014585438653 0.8069849233556072
5.6827265625 -0.5711632441966858 0.8087934259904771
5.683875 -0.5702394649738839 0.8098717033234419
5.6850234375 -0.5698067056325253 0.8103602882793661
5.686171875 -0.5690272692431325 0.8115357613851454
5.6873203125 -0.5669992559189424 0.8116001918944158
5.68846875 -0.5664292267801961 0.8130441108137555
5.6896171875 -0.5652040753477052 0.8136848609793585
5.690765625 -0.5638722984829927 0.8146725044010272
5.6919140625 -0.5634219512037377 0.8147828067257856
5.6930625 -0.5611502974473026 0.8156715334418171
5.6942109375 -0.5607016197413026 0.8164393684257715
5.695359375 -0.5593328224622713 0.8184632326848511
5.6965078125 -0.5590024712991172 0.8185043833383827
5.69765625 -0.5579197938403317 0.8194356004266754
5.6988046875 -0.555404595944824 0.8193249084614429
5.699953125 -0.554301660116699 0.8204231692731567
5.7011015625 -0.5540066833242778 0.8218691090061591
5.70225 -0.5510129540013884 0.8221326588552218
5.7033984375 -0.5514707164663062 0.824408930287595
5.704546875 -0.5491404731904052 0.8258240740616791
5.7056953125 -0.5491960210330025 0.8261964316994383
5.70684375 -0.5473445351166425 0.8259362745550021
5.7079921875 -0.5468746225055293 0.8267829546064459
5.709140625 -0.5456030921010661 0.8273449322780512
5.7102890625 -0.543212448840753 0.8285177425867618
5.7114375 -0.541984140031958 0.8284763732117637
5.7125859375 -0.5410721612030343 0.8299154590888979
5.713734375 -0.5397017566434106 0.8306228065248475
5.7148828125 -0.5380060935306781 0.8314533990805236
5.71603125 -0.5381958508841703 0.8327568885607466
5.7171796875 -0.5363472614316127 0.833897445314124
5.718328125 -0.5352369337726879 0.8340171622585422
5.7194765625 -0.5346154051380176 0.8358125878362757
5.720625 -0.5322808824948806 0.8372728483619221
5.7217734375 -0.530220261606129 0.8362676600056216
5.722921875 -0.5294951346412667 0.8384453447575263
5.7240703125 -0.528671806839393 0.8372986042721917
5.72521875 -0.5274301389587186 0.8377152870667842
5.7263671875 -0.5248845716699919 0.8391841737567656
5.727515625 -0.5247649707031956 0.8390854772909888
5.7286640625 -0.5228953140418939 0.8402567863368844
5.7298125 -0.5210049431244922 0.8407876061400625
5.7309609375 -0.520710893174993 0.8421714494299969
5.732109375 -0.5207321416413135 0.8434073233621815
5.7332578125 -0.5199891727832494 0.8443396395378012
5.73440625 -0.5181309819055027 0.8462672689198547
5.7355546875 -0.5170353818654421 0.8465930534911592
5.736703125 -0.5147143117798673 0.8455601787441754
5.7378515625 -0.5133156877302418 0.8470482716123676
5.739 -0.5113916287281864 0.8487710765960669
5.7401484375 -0.510870490979878 0.8486418733372412
5.741296875 -0.50958119593904 0.8495721883512447
5.7424453125 -0.5076525685642832 0.8498527039091571
5.74359375 -0.505002700005511 0.849769295828493
5.7447421875 -0.504707649120987 0.8514682947022213
5.745890625 -0.5040860644273963 0.8517888556136395
5.7470390625 -0.5012129914360719 0.8531841373183607
5.7481875 -0.5009563451983399 0.8531734485126314
5.7493359375 -0.4995059174128504 0.8545774441036418
5.750484375 -0.4977314502763089 0.8557166044562108
5.7516328125 -0.49732752522289486 0.85618030230475
5.75278125 -0.496071860475045 0.8573470197417492
5.7539296875 -0.49533814320497366 0.8576984573114291
5.755078125 -0.4931908547100642 0.8569708134047851
5.7562265625 -0.49117803258728543 0.8582387143739263
5.757375 -0.49022149527122366 0.85838423114659
5.7585234375 -0.4892418173173371 0.859211096317077
5.759671875 -0.48696576913111816 0.8603568001074512
5.7608203125 -0.48632383303975363 0.8606710938650386
5.76196875 -0.4853428964781292 0.8601134590659109
5.7631171875 -0.4839303523769652 0.8617205141367205
5.764265625 -0.4833957960301123 0.8624670750913908
5.7654140625 -0.4819899305997304 0.8632061348318201
5.7665625 -0.4812168338491575 0.8643053516177951
5.7677109375 -0.47966421701241935 0.8646186084157147
5.768859375 -0.4795728914995512 0.8656096531312751
5.7700078125 -0.4766644209945515 0.8664371338228486
5.77115625 -0.474832650985973 0.8669504395971716
5.7723046875 -0.47407747009265017 0.8662732011170768
5.773453125 -0.47335479781779755 0.8670893598644834
5.7746015625 -0.4725469656119046 0.8690727197560275
5.77575 -0.47125892260094143 0.8702656654670851
5.7768984375 -0.46935287743874754 0.869887758132957
5.778046875 -0.46910717403725133 0.870840741950152
5.7791953125 -0.4685682673799085 0.8717503371232764
5.78034375 -0.4682436585801296 0.8730363656815211
5.7814921875 -0.46480917212148426 0.8736013241763425
5.782640625 -0.4645464512452524 0.8736452308210088
5.7837890625 -0.4630766522865398 0.8748173090144842
5.7849375 -0.46084422499483574 0.8753027221896671
5.7860859375 -0.4594161980086592 0.875486009459624
5.787234375 -0.45889077619067387 0.8768671192513046
5.7883828125 -0.4581009412957405 0.8772539539656081
5.78953125 -0.455784078399605 0.8775296051294325
5.7906796875 -0.4543365178685968 0.8781435861212684
5.791828125 -0.45309049169317767 0.879308349091126
5.7929765625 -0.45202785882136387 0.8802940136667464
5.794125 -0.44977502377390466 0.879178394223975
5.7952734375 -0.44778221330349743 0.8806960077781069
5.796421875 -0.4469708494077832 0.8797084048210725
5.7975703125 -0.44603694095610374 0.8802051887621092
5.79871875 -0.4458361658339094 0.8815401390471603
5.7998671875 -0.4441230090091369 0.8825850708166147
5.801015625 -0.44282587031739384 0.8831701479735876
5.8021640625 -0.4403979431893175 0.8849421225041235
5.8033125 -0.4395509869896186 0.8842277672311031
5.8044609375 -0.43872678544357446 0.8856021904227872
5.805609375 -0.43696731837965613 0.8859970895416259
5.8067578125 -0.43633086128017784 0.8860823596132164
5.80790625 -0.43461980508231984 0.8863869525370913
5.8090546875 -0.4348595165102357 0.888025540136044
5.810203125 -0.432714556214412 0.8905203664707613
5.8113515625 -0.4324181373062743 0.890375645265323
5.8125 -0.4305675929615339 0.8909744478999386
5.8136484375 -0.42870907359713517 0.8919023525015879
5.814796875 -0.4281924818217674 0.8915373376900847
5.8159453125 -0.42854171857090784 0.8925794577898385
5.81709375 -0.4271298179435228 0.8935725462709272
5.8182421875 -0.4251174709868093 0.8942993408060269
5.819390625 -0.42209391906132543 0.8951385120130277
5.8205390625 -0.42261796283345765 0.8957619414285911
5.8216875 -0.4216238840743409 0.8968700230119645
5.8228359375 -0.4197438224086982 0.8964452021862839
5.823984375 -0.4186009661847504 0.896984670914995
5.8251328125 -0.4169635341969365 0.8977912112921829
5.82628125 -0.41604158519559475 0.8982584021861225
5.8274296875 -0.41510394990509686 0.8991643855625846
5.828578125 -0.41352510366267603 0.9007470109302402
5.8297265625 -0.41176994809112516 0.9005402571882515
5.830875 -0.40912218889837987 0.9021478736807982
5.8320234375 -0.4080856559882512 0.9017672009599758
5.833171875 -0.4065257975882676 0.9029667254517152
5.8343203125 -0.4053479053108291 0.9035000196150303
5.83546875 -0.40442991813590184 0.9038635491953881
5.8366171875 -0.4030882146891736 0.9043525484714648
5.837765625 -0.4008316243216256 0.9044269999594009
5.8389140625 -0.39876897630610975 0.9069302985231552
5.8400625 -0.3980315527797966 0.9080540602695523
5.8412109375 -0.3960227912510397 0.9085852479262986
5.842359375 -0.39610090443994966 0.9083551246387935
5.8435078125 -0.3945821038855891 0.9091608677726397
5.84465625 -0.39379021033550043 0.9096757583209049
5.8458046875 -0.393257430813865 0.9111067936542001
5.846953125 -0.39133008167091665 0.9124111978132422
5.8481015625 -0.38932479385225693 0.9130253937046982
5.84925 -0.38773245005401447 0.9144332530604098
5.8503984375 -0.38686716953053596 0.9152383639786036
5.851546875 -0.38587913498922 0.9149412042277377
5.8526953125 -0.3836620028274601 0.9150942976213049
5.85384375 -0.3819450622274357 0.9159623797093885
5.8549921875 -0.38099642066624 0.9157828078975409
5.856140625 -0.37965124307790926 0.9161806787542534
5.8572890625 -0.3790223954912393 0.9167417557639647
5.8584375 -0.37711073050070293 0.9175580593862375
5.8595859375 -0.37498321041502264 0.9181235909474929
5.860734375 -0.37329633055961453 0.9181231621005342
5.8618828125 -0.3706504907146769 0.9188598771364058
5.86303125 -0.3707204227279892 0.9194456738372685
5.8641796875 -0.3685872521468877 0.9201347487377868
5.865328125 -0.3669155640893555 0.919964881214741
5.8664765625 -0.3651416346154354 0.9198097279486028
5.867625 -0.36341529083124513 0.9197980269515944
5.8687734375 -0.3617530232274974 0.9206871368670299
5.869921875 -0.3615343645459359 0.9217513906490875
5.8710703125 -0.358863229377679 0.9219445865170253
5.87221875 -0.3565385888739566 0.922222856520581
5.8733671875 -0.3551430638724701 0.9224799022649344
5.874515625 -0.35352670135040876 0.9219117746666539
5.8756640625 -0.352767097287889 0.9238204791415724
5.8768125 -0.3504015580295017 0.9237474852114435
5.8779609375 -0.348717386895142 0.9227291313421113
5.879109375 -0.34787890002009686 0.9232409389689007
5.8802578125 -0.34839849758828756 0.9225260896049073
5.88140625 -0.3466394974294436 0.9242457782056581
5.8825546875 -0.3454910320907317 0.9231565241664813
5.883703125 -0.34419214818615607 0.9239567385197018
5.8848515625 -0.3423295184939562 0.9231626452231327
5.886 -0.34138855375428634 0.9237212954531657
5.8871484375 -0.34068386970650577 0.9237607777784468
5.888296875 -0.33961059807116667 0.9244436714049283
5.8894453125 -0.33734600897400474 0.9258603095204594
5.89059375 -0.33502074288700456 0.9254303643808695
5.8917421875 -0.33462706919037094 0.9261721453629079
5.892890625 -0.33498474471809925 0.9259993411214504
5.8940390625 -0.33418557942718286 0.9273921564234074
5.8951875 -0.3311017727240608 0.9278197895426166
5.8963359375 -0.3301788172891802 0.9277854929432057
5.897484375 -0.3304455219793656 0.9288187698665649
5.8986328125 -0.3298380013447002 0.9274488736587984
5.89978125 -0.33027547448484185 0.9300689790723381
5.9009296875 -0.3275027242822429 0.9308239422677891
5.902078125 -0.32504465234789715 0.930439218177885
5.9032265625 -0.3239487012263933 0.931137370554066
5.904375 -0.322832921210999 0.9317156973186037
5.9055234375 -0.32325975216408476 0.9325721594748251
5.906671875 -0.3212639098876556 0.9320363353129364
5.9078203125 -0.3197478743115005 0.9325546915482578
5.90896875 -0.31732318081469824 0.9335827193497973
5.9101171875 -0.3163323959328608 0.9356185839963683
5.911265625 -0.31517810564795834 0.9365466349654182
5.9124140625 -0.3142234394198713 0.9372758371482447
5.9135625 -0.3127069938977982 0.9370359334057289
5.9147109375 -0.31162700810927124 0.937360716572964
5.915859375 -0.31003629866213883 0.93837870062525
5.9170078125 -0.31019674684599 0.9384321548653007
5.91815625 -0.3083884185923663 0.9403658396852836
5.9193046875 -0.30723403183075126 0.9408047220836592
5.920453125 -0.3056535710873029 0.9421035659706056
5.9216015625 -0.3039147538687489 0.9416339316775195
5.92275 -0.30370014045276916 0.9420953498996596
5.9238984375 -0.3029158894810989 0.9432921680749488
5.925046875 -0.3007845096677352 0.9430145058755011
5.9261953125 -0.3002560933874969 0.9428160479630108
5.92734375 -0.2992450746546374 0.9437392332473894
5.9284921875 -0.29700279973191196 0.944548377602952
5.929640625 -0.2975164661134261 0.9461069689807899
5.9307890625 -0.2947306443537818 0.9460012538663362
5.9319375 -0.2934203922183401 0.9469968895852323
5.9330859375 -0.29036814634804303 0.9463134483062898
5.934234375 -0.29007601028757934 0.9470184993268653
5.9353828125 -0.2915551628373513 0.9464515500564619
5.93653125 -0.28837133387947966 0.9463023204982237
5.9376796875 -0.28687697716884053 0.9466086899793518
5.938828125 -0.28431699641564634 0.9491310674776595
5.9399765625 -0.2840871943628203 0.9479737678588058
5.941125 -0.2823531664261016 0.9504636776879405
5.9422734375 -0.2816740178264427 0.9503468570223522
5.943421875 -0.278858572035465 0.9508457994991969
5.9445703125 -0.27810035012191436 0.9518234572942196
5.94571875 -0.2767199168810927 0.9512071239238482
5.9468671875 -0.27603678751645416 0.9517458636658431
5.948015625 -0.2743716167324665 0.9517274085272505
5.9491640625 -0.27218480734551026 0.9517653020426161
5.9503125 -0.27069603457181224 0.9523604405621493
5.9514609375 -0.26948740022735385 0.9540984453512824
5.952609375 -0.26902501214829344 0.9540470272584126
5.9537578125 -0.2671692002016059 0.9547764001910679
5.95490625 -0.2658406385777432 0.9552692863523071
5.9560546875 -0.2639013248463392 0.9553225809039716
5.957203125 -0.26170298594749 0.9567609385774354
5.9583515625 -0.25978281682679494 0.9575695367547011
5.9595 -0.25869160299097194 0.9589941359617944
5.9606484375 -0.2564090563762599 0.9591199006489444
5.961796875 -0.25541648317520527 0.95863467300717
5.9629453125 -0.25333518533097094 0.9595140305482122
5.96409375 -0.25194834637153496 0.9603522772261952
5.9652421875 -0.25183236019261834 0.9613005974289694
5.966390625 -0.248724444820136 0.9606686684724338
5.9675390625 -0.24664324833984888 0.9620666529623061
5.9686875 -0.24601188075955818 0.9603071920418957
5.9698359375 -0.24534357705578994 0.9587849252098481
5.970984375 -0.2454967680135509 0.960299692126624
5.9721328125 -0.2415765821235316 0.9609113009734249
5.97328125 -0.24050446807078435 0.9618854985915037
5.9744296875 -0.23993105737746898 0.962397675396702
5.975578125 -0.23645555663502082 0.9630300054665162
5.9767265625 -0.2363278318749785 0.9635394716782095
5.977875 -0.2345993782715047 0.964401529379881
5.9790234375 -0.2332212596129494 0.9643434908881241
5.980171875 -0.23192193908036915 0.9652196652398982
5.9813203125 -0.23069424778415804 0.9647574976667147
5.98246875 -0.23061377387489557 0.9648813344705462
5.9836171875 -0.22853401334579454 0.9656363181361215
5.984765625 -0.22726413140790958 0.9650261141485328
5.9859140625 -0.2253021155334968 0.9662642902608495
5.9870625 -0.22460238298028312 0.9672973694986619
5.9882109375 -0.2236512913436923 0.9659182866437609
5.989359375 -0.2223092232001383 0.9672716696902471
5.9905078125 -0.2210588975935695 0.9685261923654291
5.99165625 -0.22023186755540772 0.9672949407235265
5.9928046875 -0.21827032761133702 0.9689265424164432
5.993953125 -0.21645536798034204 0.9688651693377831
5.9951015625 -0.21589364521070706 0.9700360764449982
5.99625 -0.21388247416692258 0.9694898912533975
5.9973984375 -0.21217425643925564 0.9710805944995344
5.998546875 -0.21081865199431588 0.9726583843555715
5.9996953125 -0.21062635029068316 0.97258394284235
6.00084375 -0.2084399240020645 0.9727088743908109
6.0019921875 -0.2072077906688784 0.9733724190388932
6.003140625 -0.2064952463771822 0.973590821736213
6.0042890625 -0.20520552451208415 0.9734925571622328
6.0054375 -0.20455055394288996 0.9742690958686167
6.0065859375 -0.20138817369446688 0.9736500116976264
6.007734375 -0.19949048435149097 0.9749071744238864
6.0088828125 -0.19865687136268773 0.9759382147379502
6.01003125 -0.19668423582613898 0.976029445694873
6.0111796875 -0.19723868518658827 0.9755385868917704
6.012328125 -0.19557431214966223 0.97612159228677
6.0134765625 -0.1942267648646382 0.976544275693633
6.014625 -0.19181895979542535 0.9775260954837671
6.0157734375 -0.1896830407571619 0.977574342675105
6.016921875 -0.1904332100633031 0.9783905680493852
6.0180703125 -0.18807110723977832 0.9783373802069864
6.01921875 -0.18589343223738058 0.979253370369828
6.0203671875 -0.1842689474119305 0.9791995292288568
6.021515625 -0.18303016018392235 0.9793052871532903
6.0226640625 -0.183570344835532 0.9798611874778532
6.0238125 -0.18125930196070011 0.981182008871889
6.0249609375 -0.17963338083973607 0.9809431364862305
6.026109375 -0.178564875934394 0.9819490720819463
6.0272578125 -0.17578474419432016 0.9813042228847795
6.02840625 -0.17634633388796941 0.9835241889064213
6.0295546875 -0.17362772028663248 0.9832706841916914
6.030703125 -0.17210013729923485 0.982853174195145
6.0318515625 -0.17139028366963877 0.9826416359095272
6.033 -0.16898485038924121 0.9831719975349007
6.0341484375 -0.16881669912594877 0.9840377601588391
6.035296875 -0.1671969442529087 0.9844832682648392
6.0364453125 -0.16543579672986114 0.9846150451527386
6.03759375 -0.16393073139791672 0.9842686551374961
6.0387421875 -0.16130333446618966 0.9856127628850448
6.039890625 -0.1609065975529729 0.9870858990125747
6.0410390625 -0.15885012303908258 0.987242737322499
6.0421875 -0.15657375592381684 0.9878697965821932
6.0433359375 -0.15509491653869173 0.9891279628001359
6.044484375 -0.1505469257877092 0.989308510954636
6.0456328125 -0.14978613208948172 0.988788406560195
6.04678125 -0.14842618230671928 0.9886589108750458
6.0479296875 -0.1462846757449674 0.9895873262972983
6.049078125 -0.1440573730858301 0.9898987733188513
6.0502265625 -0.14213547215587977 0.9901719662363636
6.051375 -0.1400587295854281 0.9905606660864333
6.0525234375 -0.13826892474635183 0.9913670169319769
6.053671875 -0.13518082500943157 0.9905139353124395
6.0548203125 -0.13431860652598346 0.9904410980769909
6.05596875 -0.1323604393504051 0.990515456728684
6.0571171875 -0.12920636251084533 0.9897801949895184
6.058265625 -0.13051674428005594 0.9907379736556405
6.0594140625 -0.12749568760042812 0.9909359576694989
6.0605625 -0.1258506940955701 0.9895832525750877
6.0617109375 -0.12409827940277265 0.9896071735195687
6.062859375 -0.12269008072196724 0.9903765462065344
6.0640078125 -0.12158126016483553 0.9902980664644595
6.06515625 -0.12031517759433245 0.9902661060180445
6.0663046875 -0.11695186880461296 0.989590821675663
6.067453125 -0.11602454438495971 0.9898328257514897
6.0686015625 -0.11442661322010103 0.9889327452786996
6.06975 -0.11506181564172194 0.9886737028063751
6.0708984375 -0.1140655844247647 0.9894116823809668
6.072046875 -0.11291985038059715 0.9886154081055512
6.0731953125 -0.11099863513030112 0.9891039005753052
6.07434375 -0.10910740509224523 0.9881720084824268
6.0754921875 -0.1078527987376488 0.9879449227484661
6.076640625 -0.10723365563133985 0.9902321804707236
6.0777890625 -0.10610449274528444 0.9899331943950845
6.0789375 -0.1052526924481027 0.9891203544481546
6.0800859375 -0.1032692962302017 0.9892353358460324
6.081234375 -0.10108420901488518 0.9903480158648148
6.0823828125 -0.10218446651856533 0.9918730445665659
6.08353125 -0.09920331684662537 0.9916423558474691
6.0846796875 -0.09771241766019284 0.9913162052513526
6.085828125 -0.09616547669399478 0.9914617523774258
6.0869765625 -0.09406539861121851 0.992246950102513
6.088125 -0.09324279710956368 0.9933714508732305
6.0892734375 -0.08999149247590474 0.993550545321348
6.090421875 -0.08948061001038846 0.9930606908037373
6.0915703125 -0.08637909002015975 0.993293918826849
6.09271875 -0.0846897706885621 0.9934525267317411
6.0938671875 -0.08508026904578736 0.9939473861760914
6.095015625 -0.08283346501909405 0.9931738718581454
6.0961640625 -0.0822839559397012 0.9934573651652926
6.0973125 -0.08013525179623432 0.993822307395107
6.0984609375 -0.07800615694235558 0.9948808866819887
6.099609375 -0.07879225167470483 0.993482091616977
6.1007578125 -0.07556055827007191 0.995394611761477
6.10190625 -0.07369346468860022 0.9933657159565829
6.1030546875 -0.07257461577749563 0.993976132808999
6.104203125 -0.07170390152200651 0.9931340372994828
6.1053515625 -0.07108788166783989 0.9944508710087779
6.1065 -0.0698797197590478 0.9931068465519162
6.1076484375 -0.06706488475482511 0.9939159516880215
6.108796875 -0.06560393960995231 0.9933496723935435
6.1099453125 -0.06356102357563459 0.9924034181332982
6.11109375 -0.06224145080497795 0.9923755869102272
6.1122421875 -0.06163880551678855 0.993753396097325
6.113390625 -0.060536310813841615 0.9927931264384708
6.1145390625 -0.05842141355909075 0.9927063264745322
6.1156875 -0.056825617321266286 0.9922727529300956
6.1168359375 -0.05552298826986962 0.9924155216740044
6.117984375 -0.05495604626169004 0.993559987084227
6.1191328125 -0.05199803137224193 0.9928655408155009
6.12028125 -0.05125745609981394 0.9920262113504745
6.1214296875 -0.0480703179072309 0.9923415666635123
6.122578125 -0.04790791134812483 0.9926869167786438
6.1237265625 -0.04680514250211104 0.9922050428182928
6.124875 -0.04547204929325993 0.9917993751462354
6.1260234375 -0.0448117817499703 0.9920309299321727
6.127171875 -0.04331507447877456 0.9924611488704562
6.1283203125 -0.04236169640013841 0.9924879747989662
6.12946875 -0.042348831389917366 0.9940593779258028
6.1306171875 -0.040875668600178966 0.9941985501067198
6.131765625 -0.038649936720024494 0.9937677484801826
6.1329140625 -0.03624435088781028 0.9941252543230232
6.1340625 -0.03428047221700643 0.9951965859649008
6.1352109375 -0.03434430928930435 0.9954232349218972
6.136359375 -0.03231742788358702 0.9962931710644641
6.1375078125 -0.030294123874209586 0.995533746746757
6.13865625 -0.02951060412850305 0.9958284932710587
6.1398046875 -0.027501398397048793 0.9957269852663657
6.140953125 -0.02614702509887494 0.9960437854471696
6.1421015625 -0.02494667048326915 0.9963974883073131
6.14325 -0.02312265604143214 0.9955024133620127
6.1443984375 -0.02095557071126411 0.996384385064829
6.145546875 -0.02041336343211872 0.9955487781374379
6.1466953125 -0.01924057056700164 0.9966821727905859
6.14784375 -0.019081026350150743 0.996536076347703
6.1489921875 -0.015738335348523272 0.9953317659436861
6.150140625 -0.014332263615741511 0.9961692923571703
6.1512890625 -0.014120033667684218 0.9954501106434019
6.1524375 -0.012070312649324691 0.9954229938834406
6.1535859375 -0.011310135958160036 0.996368733620376
6.154734375 -0.010735386117144766 0.9965113886195487
6.1558828125 -0.009149465586687333 0.9959352155030993
6.15703125 -0.007188234799706067 0.9960272458632237
6.1581796875 -0.005627236342570133 0.9974436411857392
6.159328125 -0.00568463345310756 0.9981676239818276
6.1604765625 -0.0030124150683413092 0.9974358269598365
6.161625 -0.0015339906881208232 0.9971578687975381
6.1627734375 1.1469286635978904e-06 0.9974222362597471
6.163921875 0.001985422781813101 0.9974068030583066
6.1650703125 0.002323115287501995 0.9992542207871132
6.16621875 0.004678349142698615 0.9983633855423644
6.1673671875 0.006655901305694073 0.9975451822182386
6.168515625 0.00783263454846142 0.9972737136008706
6.1696640625 0.010299739325781439 0.9980454987230594
6.1708125 0.01155037056258297 0.9980916310608241
6.1719609375 0.01315572965772227 0.9989863661514083
6.173109375 0.014992607112617198 0.9988063065788103
6.1742578125 0.015887360957776042 0.9982723216584609
6.17540625 0.017586360736580472 0.9983175521490921
6.1765546875 0.018577014331269986 0.9980242835132441
6.177703125 0.020556976638130137 0.9979606590095489
6.1788515625 0.023050492154960203 0.9977597970125657
6.18 0.024591225391387465 0.996855192303874
6.1811484375 0.02537906540115048 0.9968981187890897
6.182296875 0.027681181996299722 0.9968602500882371
6.1834453125 0.02834873640368807 0.997431123258952
6.18459375 0.029357940950301385 0.9972434755293205
6.1857421875 0.03040022917859901 0.997553813326454
6.186890625 0.03320720993359264 0.9959902833584413
6.1880390625 0.03555009953001581 0.9973259642699979
6.1891875 0.03649505364706115 0.9988461757782514
6.1903359375 0.03795976887531893 0.9987069900253905
6.191484375 0.0404477269110374 0.9976391874696462
6.1926328125 0.04157885025047994 0.9978423828280103
6.19378125 0.043164383647895196 0.9983108729288062
6.1949296875 0.0439604080716238 0.9994102303415372
6.196078125 0.046027037846791 0.9983692719387832
6.1972265625 0.048613554197184064 0.99810128062911
6.198375 0.0507029763723416 0.9986730556879396
6.1995234375 0.05193576737802815 0.9985126101921569
6.200671875 0.0525711312043398 0.9992958240890976
6.2018203125 0.05427688486865433 0.99913238611092
6.20296875 0.056141075122303194 0.9982153801056288
6.2041171875 0.0576419041916177 0.9979328527894412
6.205265625 0.059240381352242744 0.9993200638478181
6.2064140625 0.061059911010237146 1.0001644819209063
6.2075625 0.06273587483989576 0.9996199092465587
6.2087109375 0.0644739576996112 0.998917258877115
6.209859375 0.06667842663937434 0.998467277075375
6.2110078125 0.06885715453704333 0.9988446635982017
6.21215625 0.06974676421587442 0.9976263317986839
6.2133046875 0.07277455230796312 0.9989067794046009
6.214453125 0.07569735713970402 0.9988364496774831
6.2156015625 0.0772502204283579 0.9970505990374072
6.21675 0.07781637082711061 0.9969317675051306
6.2178984375 0.07979355140866544 0.9964416006990762
6.219046875 0.08014304317196139 0.9970486135569153
6.2201953125 0.08184515052486198 0.9961090288212554
6.22134375 0.08473128731488837 0.9964454818788847
6.2224921875 0.08713461983601334 0.996023700249985
6.223640625 0.08916915899577146 0.9951562409680996
6.2247890625 0.09102583348504013 0.9953582043501401
6.2259375 0.09242099032712742 0.9940274883507992
6.2270859375 0.09404079308748713 0.9935604311776339
6.228234375 0.09537731265808429 0.9940952773781623
6.2293828125 0.09624809083791218 0.9940157854753159
6.23053125 0.09774089878966731 0.9943150865767872
6.2316796875 0.09921732623338202 0.9937664680169648
6.232828125 0.1006782148833673 0.9928011982068233
6.2339765625 0.102664921489134 0.992440314984745
6.235125 0.10434600439726104 0.9923658766631115
6.2362734375 0.10487153732575931 0.992011888458851
6.237421875 0.10696057242767029 0.9906690245624279
6.2385703125 0.10789718865057081 0.9901144891741348
6.23971875 0.11004189208619362 0.9894044616674378
6.2408671875 0.1107521499365332 0.9881504428874762
6.242015625 0.11208905513039065 0.987432976899993
6.2431640625 0.11279279944498725 0.9870117681049926
6.2443125 0.11581927742803168 0.9870829630668693
6.2454609375 0.11695465280124996 0.9855256922674124
6.246609375 0.11909553570343262 0.9848277967204855
6.2477578125 0.11980010800544694 0.9841627411180744
6.24890625 0.11982626311220947 0.9830702276482144
6.2500546875 0.1210882192467784 0.9829174083893184
6.251203125 0.12244137976613838 0.9816969621751118
6.2523515625 0.12320472445513053 0.980180311191586
6.2535 0.12407213532798507 0.98088371965243
6.2546484375 0.12406898328561254 0.9812713534687655
6.255796875 0.12581827633442344 0.9805763364162893
6.2569453125 0.12793737650828663 0.9804337914922672
6.25809375 0.12899151096156847 0.980705557231829
6.2592421875 0.12912149885664714 0.9805835636183947
6.260390625 0.13075660896067418 0.9803131478662892
6.2615390625 0.13043712269060678 0.9807701270823346
6.2626875 0.13214258232319784 0.9816560203384751
6.2638359375 0.13302022495573546 0.9817642557926436
6.264984375 0.13514656545332018 0.9813378207576511
6.2661328125 0.1371000482430813 0.983006985458219
6.26728125 0.13914492610990192 0.981375635364971
6.2684296875 0.14138537665609485 0.9808531222197046
6.269578125 0.14144599862851956 0.9809784370815933
6.2707265625 0.1439815586686117 0.979315675891313
6.271875 0.14428569017680423 0.9799190318017662
6.2730234375 0.14551248175511203 0.9789529693157342
6.274171875 0.14548648768890454 0.9791572845798525
6.2753203125 0.14672138641622418 0.977386812513507
6.27646875 0.14721279591443487 0.9769701715784471
6.2776171875 0.14760229906274053 0.9770768710618565
6.278765625 0.14870998474363725 0.9770721075179234
6.2799140625 0.15028510666494546 0.9765837101795322
6.2810625 0.15081171744309835 0.9769797626246826
6.2822109375 0.1520849014967786 0.9762199323093789
6.283359375 0.15228530163800624 0.9761130875712515
6.2845078125 0.15275815264654935 0.9770589951907629
6.28565625 0.15405932383276635 0.9764159720802715
6.2868046875 0.15534402012658557 0.9762855491874766
6.287953125 0.15609502319970267 0.9768402946786316
6.2891015625 0.15754129420881235 0.9787259328780171
6.29025 0.1586634227255256 0.9799210513066998
6.2913984375 0.15976154343324894 0.9804105641960077
6.292546875 0.16174492347135372 0.9805552705457956
6.2936953125 0.16528876473994683 0.9803251226758352
6.29484375 0.16595936526707483 0.9799025469225457
6.2959921875 0.16670234116484525 0.980668377722044
6.297140625 0.1697176989639251 0.9809039447932049
6.2982890625 0.17077676759124588 0.9805211365316578
6.2994375 0.17190673375590065 0.9808168357781111
6.3005859375 0.17423496903077512 0.9805518249238703
6.301734375 0.17529300341577453 0.9809225030935851
6.3028828125 0.1766043260242742 0.9804284240572596
6.30403125 0.1793674706961167 0.9816122174622608
6.3051796875 0.18088266077073684 0.9808102652084615
6.306328125 0.18222856176137564 0.9803028921368794
6.3074765625 0.18366439154282793 0.9799872178193797
6.308625 0.18456025559570877 0.9799402077362198
6.3097734375 0.18683597829086124 0.9795330612829273
6.310921875 0.1874860009344495 0.9793098993544271
6.3120703125 0.18911592838477204 0.9787989170120072
6.31321875 0.1905345369721444 0.9786167751089523
6.3143671875 0.19328294436207932 0.9774170788686343
6.315515625 0.19551358607352165 0.9773240659648291
6.3166640625 0.19520758256444654 0.9763656414389357
6.3178125 0.19743931287198369 0.976411171028136
6.3189609375 0.19914810559362245 0.9770975056494754
6.320109375 0.20004007573950855 0.9779223730129504
6.3212578125 0.2024061940547421 0.9770847793054593
6.32240625 0.20362551208131113 0.9765845821372695
6.3235546875 0.2043139633104854 0.9757092248631639
6.324703125 0.20587944285878151 0.9747759745952018
6.3258515625 0.20769146645780995 0.9750228825702629
6.327 0.20994861809330018 0.9744313290422716
6.3281484375 0.21102707601495152 0.9740673785620981
6.329296875 0.21229735626117946 0.9732559791782975
6.3304453125 0.21359531290587697 0.9735418475868418
6.33159375 0.21422216566801924 0.9734637832464378
6.3327421875 0.2161316251061331 0.9738595984643997
6.333890625 0.21753524517073022 0.9726248210105405
6.3350390625 0.2183691490279029 0.9732515892331914
6.3361875 0.2215435591511345 0.9732829918323416
6.3373359375 0.2222523759274701 0.9737664517128157
6.338484375 0.22531069377604623 0.9725857269413289
6.3396328125 0.22715571220974326 0.9715858290596275
6.34078125 0.22739223892195926 0.9700333678533581
6.3419296875 0.22908157616946756 0.9697529748755853
6.343078125 0.22973755262980716 0.968831276321034
6.3442265625 0.23047678216290318 0.969293862269746
6.345375 0.2312074714443866 0.9699611606734437
6.3465234375 0.23201681386546288 0.969935631967355
6.347671875 0.23394933690001032 0.9688825830821527
6.3488203125 0.23664254249501723 0.9689790908265166
6.34996875 0.23706882669840434 0.9692313331173247
6.3511171875 0.2382906901524072 0.9693915284087213
6.352265625 0.2407394738202746 0.9692652703396194
6.3534140625 0.24158812945395503 0.9696413614885219
6.3545625 0.24342957404191473 0.9695218699043283
6.3557109375 0.2452704211249329 0.9682577477727927
6.356859375 0.2474879288385524 0.9683246001080726
6.3580078125 0.24836550648867764 0.9680238224059969
6.35915625 0.249809175289802 0.9674068843458905
6.3603046875 0.2509166144970698 0.9663609909127722
6.361453125 0.2523120768947159 0.9668469618165827
6.3626015625 0.2535878284136326 0.9668535216002185
6.36375 0.2551905411903578 0.9663484423019111
6.3648984375 0.256946735516566 0.9661457736280196
6.366046875 0.25853704475906936 0.9667055861947815
6.3671953125 0.2600105020222312 0.9662860047992204
6.36834375 0.2626135277995304 0.9664674954980843
6.3694921875 0.2638670991455848 0.9663457597074222
6.370640625 0.26589283311283696 0.9652390927366343
6.3717890625 0.2681202519903848 0.9645496172789613
6.3729375 0.26975533954874625 0.9637832886903266
6.3740859375 0.27145132667830635 0.9636373082176536
6.375234375 0.273794388976068 0.9633620479052801
6.3763828125 0.27538529937750755 0.96181491663585
6.37753125 0.276566029833083 0.9608941652829142
6.3786796875 0.27781776775231937 0.9608618900517455
6.379828125 0.2794060218572709 0.9598895375476246
6.3809765625 0.28056920978282174 0.9582546768579315
6.382125 0.2811947083786428 0.9581228239316666
6.3832734375 0.2831947074647896 0.9576999857445609
6.384421875 0.2845110322234034 0.9572040065391733
6.3855703125 0.28500164555947594 0.9562130987288651
6.38671875 0.2871412783124218 0.9553642826811407
6.3878671875 0.288337991552959 0.9553101686495515
6.389015625 0.289795536408653 0.9549695591771192
6.3901640625 0.2903390908309293 0.9551569521220372
6.3913125 0.29180182731243587 0.9551324480604299
6.3924609375 0.29286620010351394 0.9546587391275909
6.393609375 0.29408312830218825 0.9540864336518768
6.3947578125 0.2949627292787656 0.9538109121005787
6.39590625 0.2969092363731551 0.9531885686375338
6.3970546875 0.29698887694510423 0.9536664191157281
6.398203125 0.29880264834373615 0.9532905757558502
6.3993515625 0.30069532950645883 0.9525886222492937
6.4005 0.3015522043859281 0.9525983843113826
6.4016484375 0.3036486856619092 0.9518782891352849
6.402796875 0.30544152469178176 0.9515983298278663
6.4039453125 0.3068365873779716 0.949662644777159
6.40509375 0.30797666973272586 0.9497111419678586
6.4062421875 0.308674640504943 0.9482633253149353
6.407390625 0.30950429113650757 0.9484621442218751
6.4085390625 0.31107925064699044 0.9474033433029796
6.4096875 0.3124489631676952 0.9472240082909033
6.4108359375 0.31373348956928404 0.9475771619052443
6.411984375 0.3143495585951884 0.9477448888378158
6.4131328125 0.3161059138758757 0.9476116371896696
6.41428125 0.317712191258785 0.9466345976431113
6.4154296875 0.319004819047661 0.9458410081863537
6.416578125 0.3200221969258476 0.945309891815748
6.4177265625 0.3210772105742791 0.9456899061020232
6.418875 0.3220336781351679 0.9452272538165561
6.4200234375 0.32297932596133194 0.9442672955092702
6.421171875 0.3246800006275735 0.9440401176319987
6.4223203125 0.3258711802336809 0.9443838177381492
6.42346875 0.32728374950693645 0.9436132255108908
6.4246171875 0.32956171659538075 0.943915514670043
6.425765625 0.3298604204515462 0.9437280283398302
6.4269140625 0.33180437070268065 0.943366912170314
6.4280625 0.3321656835131611 0.9427197151420571
6.4292109375 0.33458214095146166 0.9432199944670656
6.430359375 0.3356753440511715 0.9435167059316174
6.4315078125 0.33711108760372005 0.944015714400001
6.43265625 0.34000975705946 0.9445334594038726
6.4338046875 0.34068253591895076 0.9436395817495117
6.434953125 0.3433961798537601 0.9434620269619072
6.4361015625 0.3440665978212224 0.9420286167638335
6.43725 0.34634850047283455 0.9414976284746386
6.4383984375 0.348152781005739 0.9407193805560012
6.439546875 0.34937004270871536 0.9395406657362324
6.4406953125 0.3512316482253155 0.9382240843586138
6.44184375 0.352241390399719 0.9390425003981592
6.4429921875 0.3542600154247343 0.9379645378773303
6.444140625 0.35539795567960897 0.9378163532549464
6.4452890625 0.35729422600782335 0.9377202405462275
6.4464375 0.3575188418572481 0.9379815256732174
6.4475859375 0.3601803100777841 0.9378825715899516
6.448734375 0.3617685678230167 0.936157627740956
6.4498828125 0.3625614729711384 0.9365114285878586
6.45103125 0.3650040470650089 0.9359078804392396
6.4521796875 0.36529971300837094 0.9336211950877992
6.453328125 0.3663583342347697 0.9353522463438355
6.4544765625 0.3676632567510859 0.934534576128464
6.455625 0.3693210191438061 0.9357627609827013
6.4567734375 0.370979857965904 0.9355079520377774
6.457921875 0.37364920718099714 0.9338895012912349
6.4590703125 0.375552221034686 0.9326389499167708
6.46021875 0.3753671980998312 0.9330113111011712
6.4613671875 0.37638854180249876 0.931649905091877
6.462515625 0.37825345695865686 0.9321658380466996
6.4636640625 0.3801274072105007 0.9318738917934626
6.4648125 0.3820020493854921 0.9321437866585396
6.4659609375 0.38340320169544817 0.9327528865056114
6.467109375 0.3854621764462305 0.9323904244517431
6.4682578125 0.38791543779165655 0.9324237429764642
6.46940625 0.3890736218384587 0.9313586050113073
6.4705546875 0.3918185063234133 0.9299507249974888
6.471703125 0.39288291981686085 0.9306077923972856
6.4728515625 0.39429614127936463 0.9297795886473563
6.474 0.39764808552161834 0.929343305877522
6.4751484375 0.39932439918647683 0.9280324952690655
6.476296875 0.4003028324371857 0.9267487305211853
6.4774453125 0.40186157544534895 0.926859088878972
6.47859375 0.4030895359858266 0.9256463223326343
6.4797421875 0.40452425147858434 0.924529521071807
6.480890625 0.4063070730907514 0.9237778613851992
6.4820390625 0.40760916577184336 0.9223696189752071
6.4831875 0.40959110096105716 0.9208288128956936
6.4843359375 0.41181064052264127 0.9201789453597662
6.485484375 0.41350449318717225 0.9189813227294563
6.4866328125 0.4149854099251307 0.9190680662514665
6.48778125 0.41617905006587436 0.9173084733595547
6.4889296875 0.4178676045424496 0.9159013726497868
6.490078125 0.41817246130802505 0.9152824939664035
6.4912265625 0.4194128546954365 0.9146280937769254
6.492375 0.4217379258150613 0.9135934347814889
6.4935234375 0.4238676196970007 0.9127132497066939
6.494671875 0.42501989296378095 0.9110652238302245
6.4958203125 0.4259371662725191 0.9107206214244251
6.49696875 0.4277444866993191 0.9097285350474201
6.4981171875 0.4284115794109673 0.9085499956615334
6.499265625 0.42891812648884875 0.9072846186577791
6.5004140625 0.4295425969254951 0.9065068689362465
6.5015625 0.43097226871 0.9055349405376797
6.5027109375 0.43232224414469006 0.9052439088781177
6.503859375 0.43344473038337245 0.904742977712915
6.5050078125 0.435879633247018 0.9038663563964935
6.50615625 0.4357484368390086 0.9031449102316451
6.5073046875 0.4365829707040981 0.902195051520678
6.508453125 0.43812558167628357 0.9021200156927133
6.5096015625 0.4394746654545902 0.9010834599867613
6.51075 0.440736029719926 0.9009599304624076
6.5118984375 0.4435254406455242 0.8995751818729734
6.513046875 0.44492258040995836 0.8988838300137059
6.5141953125 0.4458457901586128 0.898285424669698
6.51534375 0.4477616200263855 0.8981205330166401
6.5164921875 0.4481468129202464 0.8968947315610021
6.517640625 0.4497439476462918 0.8952577279414071
6.5187890625 0.4517209978925689 0.8945444914590142
6.5199375 0.45270610779578135 0.8940445179592542
6.5210859375 0.4534876785085607 0.8929075028940093
6.522234375 0.4554104200095795 0.8927943421169494
6.5233828125 0.4569796878057002 0.8913400239242146
6.52453125 0.45870125962038233 0.8905624841292877
6.5256796875 0.45992389569281866 0.8902357583715949
6.526828125 0.4606634340657476 0.8898438587411625
6.5279765625 0.46129956952879353 0.88824091152428
6.529125 0.4625086568380403 0.8872529054231594
6.5302734375 0.4637123169652942 0.8863467273420361
6.531421875 0.4653558279502335 0.8863259359875204
6.5325703125 0.46677308677417784 0.885330991112879
6.53371875 0.4675506097720868 0.884367616303962
6.5348671875 0.4692216838423131 0.8841258837250359
6.536015625 0.46984683835180124 0.8824717628339448
6.5371640625 0.4705794821898511 0.8821844367054327
6.5383125 0.4725465146716736 0.8814156402897484
6.5394609375 0.47361394459703854 0.881455988121467
6.540609375 0.47434612450479396 0.8798903970179782
6.5417578125 0.47588417605527583 0.8789110590926293
6.54290625 0.4773397511437182 0.8784507629952876
6.5440546875 0.47855597959516916 0.8780573907112983
6.545203125 0.47959089200206895 0.8775456175238169
6.5463515625 0.48078982203894816 0.8772113074617806
6.5475 0.48205540152996623 0.8763333499421334
6.5486484375 0.4832409405087118 0.8763920441710271
6.549796875 0.4847715981239601 0.8748796563468164
6.5509453125 0.48509854683211623 0.8745490439193364
6.55209375 0.48605351659119295 0.8733103938294304
6.5532421875 0.48740490686530236 0.8725504656424432
6.554390625 0.4887233283587356 0.8715448921455989
6.5555390625 0.4896041158587556 0.8709418154209057
6.5566875 0.4910172352755098 0.8709937269935302
6.5578359375 0.4916250760352573 0.8709479789094103
6.558984375 0.49268200589115946 0.8697813092706004
6.5601328125 0.49427729158850564 0.8688279354519052
6.56128125 0.4955573372014338 0.8679102429666449
6.5624296875 0.4962384290835259 0.8676391322581827
6.563578125 0.4971862627468192 0.8667159162823294
6.5647265625 0.4988805167080404 0.8658294434540172
6.565875 0.4996349851576074 0.8646407461167183
6.5670234375 0.500484087998556 0.8644387351375222
6.568171875 0.502208812413889 0.864449137205476
6.5693203125 0.5034545978197803 0.8638635455537645
6.57046875 0.5047543560146817 0.8629834660741454
6.5716171875 0.505381612335341 0.8607228170287116
6.572765625 0.507102264796468 0.8611792607976079
6.5739140625 0.508057649207891 0.8596138140971176
6.5750625 0.5083094553880935 0.8589218289456028
6.5762109375 0.5106205281366837 0.8581488618457134
6.577359375 0.5120890226678096 0.8568653848897817
6.5785078125 0.5122525042946503 0.8561951945945516
6.57965625 0.5140842241183912 0.8566230503012321
6.5808046875 0.5152266880975582 0.8569809692325852
6.581953125 0.5169882268232405 0.8559355376801707
6.5831015625 0.5183189731358994 0.8539094565957384
6.58425 0.5194661811731963 0.8550049448288541
6.5853984375 0.5206381219063603 0.8535456168517103
6.586546875 0.5206336028035187 0.8533260074348132
6.5876953125 0.522924476133448 0.8528359230730975
6.58884375 0.5248207396290114 0.8504386954110932
6.5899921875 0.5259705941990817 0.8505498442224485
6.591140625 0.527771274591067 0.8504905709798776
6.5922890625 0.5288983796154852 0.8497204925566147
6.5934375 0.5295568200090914 0.8497703333655032
6.5945859375 0.5310067039459123 0.8482747332684288
6.595734375 0.5331986976379816 0.8466494183518076
6.5968828125 0.5342675391969693 0.8465817718530523
6.59803125 0.5359756572698613 0.8462899810296736
6.5991796875 0.537940990783293 0.845608063405159
6.600328125 0.5386742521655847 0.8453547808318307
6.6014765625 0.5400585200846695 0.8444440254458914
6.602625 0.5419320588228759 0.8447702940050101
6.6037734375 0.5430576933989273 0.8432545541953482
6.604921875 0.5449121392922054 0.8416270582382998
6.6060703125 0.5471857909511391 0.8416211310261219
6.60721875 0.5479104406746566 0.8393364690529588
6.6083671875 0.5492766053481564 0.8397281080418314
6.609515625 0.5506085073458592 0.8394246415951455
6.6106640625 0.552326519758355 0.8392329925143389
6.6118125 0.5533822745720369 0.8384352576671756
6.6129609375 0.5554107258975021 0.8376690560093841
6.614109375 0.5558480454271157 0.8374084984281651
6.6152578125 0.5566833475964189 0.8355319019951765
6.61640625 0.5577209961488689 0.835124949206501
6.6175546875 0.5597603228845096 0.8340986028465875
6.618703125 0.5604410848861469 0.8321353214572689
6.6198515625 0.560759720283901 0.8316205625412072
6.621 0.5629326582696683 0.8312930425535092
6.6221484375 0.5627068706639996 0.8289961631596462
6.623296875 0.5638298059820687 0.8288428516643273
6.6244453125 0.5650281282545129 0.8270587321378084
6.62559375 0.5665472508796912 0.82605464172182
6.6267421875 0.5678283334276495 0.8258573678853944
6.627890625 0.5681187216439907 0.8246610011139126
6.6290390625 0.5695703035087667 0.8237457051055117
6.6301875 0.5708662866630917 0.8223206773905304
6.6313359375 0.5705944407473396 0.8214267438914433
6.632484375 0.5719463842897591 0.8203215312645094
6.6336328125 0.5739202656253846 0.8206233133271565
6.63478125 0.5756762418913896 0.8196594918892234
6.6359296875 0.5771615254500193 0.8194261570276595
6.637078125 0.5786393033238668 0.8170490222465125
6.6382265625 0.5796960833108074 0.8174323716265688
6.639375 0.5810871628343781 0.8172425353362442
6.6405234375 0.5821238533654782 0.8153606049328863
6.641671875 0.5832909884207756 0.8142955283077052
6.6428203125 0.5849908493135824 0.8129571559048385
6.64396875 0.5851315689743446 0.8138733400696783
6.6451171875 0.58632613163014 0.8121488033893784
6.646265625 0.5875502304489777 0.8115578849201316
6.6474140625 0.5882625619418296 0.8109537311742336
6.6485625 0.5896646798751797 0.8073958338791682
6.6497109375 0.590791278356054 0.8080574869856829
6.650859375 0.5923605451835902 0.807621544228001
6.6520078125 0.593641382775326 0.8060445749631496
6.65315625 0.5947337395097541 0.8054379476054583
6.6543046875 0.5950978837121548 0.8039658064870573
6.655453125 0.5976328257653716 0.8035768850700999
6.6566015625 0.597593061902798 0.8013902992328412
6.65775 0.5982953025197653 0.8008005169406187
6.6588984375 0.5991937602101104 0.8001050520829496
6.660046875 0.6010447223707656 0.7987931627655094
6.6611953125 0.6026117752942708 0.7989995478940357
6.66234375 0.603659803072305 0.7984056286603762
6.6634921875 0.6049954207234964 0.797509730590283
6.664640625 0.605379912104611 0.7957840858341696
6.6657890625 0.6062354399989928 0.7952300483110875
6.6669375 0.6086637320329228 0.7936967369461211
6.6680859375 0.6086565074446426 0.7926294056943134
6.669234375 0.6101836171328155 0.7930264820942371
6.6703828125 0.6109474223826817 0.7925050428128246
6.67153125 0.6120059711606812 0.7925612964001647
6.6726796875 0.6144807987172967 0.7898112438220375
6.673828125 0.6156603402344644 0.7899216253930832
6.6749765625 0.6159592202916793 0.7885673563521195
6.676125 0.617455813834965 0.7876885069215601
6.6772734375 0.6184222487389024 0.7867776894445665
6.678421875 0.6213546871578539 0.784749145149881
6.6795703125 0.6212278620603093 0.7848470874541167
6.68071875 0.6233299234661067 0.7854256205316086
6.6818671875 0.6247447978665972 0.7841492684951575
6.683015625 0.625178058024534 0.7833265208334113
6.6841640625 0.6269943422233863 0.7822815482948559
6.6853125 0.6287361122407601 0.781459883349027
6.6864609375 0.6296421476151823 0.7812838061163502
6.687609375 0.6298324502717779 0.780375076262577
6.6887578125 0.6312027963325122 0.7798032988509848
6.68990625 0.6324664696000963 0.7779458664030943
6.6910546875 0.6340971038639847 0.7774476792334654
6.692203125 0.6349365639139055 0.7771210339570289
6.6933515625 0.6364989531267766 0.7760214680959339
6.6945 0.6367469305953553 0.7744388804739836
6.6956484375 0.638201136233999 0.7742686091961897
6.696796875 0.6398039104347732 0.7722362684743709
6.6979453125 0.6416259187060653 0.7715562304631276
6.69909375 0.6425519378951554 0.7703594321901703
6.7002421875 0.6436341473832528 0.7687720344528627
6.701390625 0.6451245886796926 0.7680435641468916
6.7025390625 0.6467431574686018 0.7656545859548125
6.7036875 0.6473619492697787 0.7650027859002476
6.7048359375 0.6477909198853018 0.764547757541281
6.705984375 0.6490399064675729 0.7638648632331992
6.7071328125 0.6494059670385144 0.7627630557143664
6.70828125 0.6508803461234992 0.7602615495305357
6.7094296875 0.6513276413639216 0.7607293270269921
6.710578125 0.651095772658447 0.7588801163864197
6.7117265625 0.6533658512795929 0.758285027646607
6.712875 0.6538813107911532 0.757093157594992
6.7140234375 0.654929641726033 0.755179202464805
6.715171875 0.6554632811653118 0.7544629413602959
6.7163203125 0.6565599583428744 0.7546316888577724
6.71746875 0.6577613956419088 0.7539545396434136
6.7186171875 0.6583749880471677 0.751988937539916
6.719765625 0.6604642093090294 0.7494196778011004
6.7209140625 0.6613266404720781 0.7489196583625157
6.7220625 0.661695615580522 0.7476432773578675
6.7232109375 0.6627794991053507 0.7473230088050867
6.724359375 0.6624987875059802 0.746938602611932
6.7255078125 0.6638772352840607 0.7459854088917722
6.72665625 0.6660956110284002 0.7443968579212022
6.7278046875 0.6660605726095359 0.7441816688269819
6.728953125 0.6678448152194914 0.7432062525144953
6.7301015625 0.669471637493895 0.7430723519071474
6.73125 0.6706375093937087 0.7421753607364654
6.7323984375 0.6719095244365275 0.7405039416668409
6.733546875 0.6719986258741649 0.7398319954133714
6.7346953125 0.6738808340431259 0.73874235616864
6.73584375 0.6749491190742972 0.73762252396998
6.7369921875 0.6760803199253427 0.7362887384293648
6.738140625 0.6777395013294256 0.7344767762405157
6.7392890625 0.6783181802193107 0.7337867370840194
6.7404375 0.6786217752571952 0.7329416003622662
6.7415859375 0.6802675252081739 0.732656056450217
6.742734375 0.6807751055751545 0.7317159745907067
6.7438828125 0.6819379224977954 0.7290515798011618
6.74503125 0.6831198293214835 0.7282073662533202
6.7461796875 0.6847124759978906 0.7277501525546011
6.747328125 0.6847548363416145 0.7277174611842236
6.7484765625 0.6869850851555684 0.7262479092819264
6.749625 0.6881635335069581 0.7247404226474641
6.7507734375 0.6886297425546829 0.7244613515479513
6.751921875 0.6904566872768909 0.7241703483401452
6.7530703125 0.6916387797873511 0.7235765839874972
6.75421875 0.691914536528828 0.7232124169858734
6.7553671875 0.6924591766199706 0.7217768627754684
6.756515625 0.694715198667419 0.7214494921948698
6.7576640625 0.6943281429472605 0.7209653080290893
6.7588125 0.6959339757139226 0.7202185474089784
6.7599609375 0.6961785404023779 0.7199639932533245
6.761109375 0.6970467081159801 0.7182202292077758
6.7622578125 0.6979303446533305 0.7167790518793223
6.76340625 0.6988234290000044 0.7173443070302664
6.7645546875 0.7006013575263638 0.715131673186084
6.765703125 0.7011550593748291 0.7149518869188565
6.7668515625 0.7024931161796932 0.7137054220060735
6.768 0.7035245758485972 0.7121197400993678
6.7691484375 0.7044826433449963 0.7114825845999928
6.770296875 0.7054202898438116 0.7111263956806662
6.7714453125 0.7068473071999581 0.7105864191636931
6.77259375 0.7083246156503483 0.7098729728557991
6.7737421875 0.7101298423782479 0.7075926093413062
6.774890625 0.7112492229047462 0.7072948401608835
6.7760390625 0.712997143305912 0.7062649958204295
6.7771875 0.7134119846536479 0.7052843713400943
6.7783359375 0.7132560978399566 0.7040744330783112
6.779484375 0.7153239456924176 0.7011433946052176
6.7806328125 0.7159988374996633 0.7015088508641748
6.78178125 0.7169844014201174 0.7006044039057284
6.7829296875 0.7184846484293392 0.7003044393523781
6.784078125 0.7192437070872958 0.6996773553205566
6.7852265625 0.7211363208271271 0.6979220479917035
6.786375 0.7217232068661827 0.6966559209046674
6.7875234375 0.7232905389232571 0.6963018829026816
6.788671875 0.7233387221987246 0.6952392912377177
6.7898203125 0.7249409130244583 0.6940106512082423
6.79096875 0.7257320305764519 0.6913726416883745
6.7921171875 0.7258262022197215 0.6903519389311411
6.793265625 0.726927327908679 0.6898838193863265
6.7944140625 0.7281156638355267 0.6888987467670589
6.7955625 0.7288350094459457 0.6871444005397048
6.7967109375 0.7301727436301664 0.6854004595513675
6.797859375 0.7317291179952642 0.685848043485328
6.7990078125 0.7323233187359401 0.6852647257328627
6.80015625 0.7337734332442621 0.6853709151685219
6.8013046875 0.7340285104093094 0.6827997577555176
6.802453125 0.7354135070513628 0.6817769293012064
6.8036015625 0.7365393995639256 0.6804718308517709
6.80475 0.7383768500449702 0.6793410216434018
6.8058984375 0.7403998259356991 0.6777259162624374
6.807046875 0.7411817048618331 0.6762232801134873
6.8081953125 0.7415266579437381 0.6755835102052625
6.80934375 0.7432680389211366 0.6730348799087573
6.8104921875 0.7439197994071702 0.6732855266648692
6.811640625 0.744680283717408 0.6715372380613989
6.8127890625 0.7462330185047035 0.6708232018411837
6.8139375 0.7474095235737648 0.6692607968611063
6.8150859375 0.7487696672914039 0.6679161947146506
6.816234375 0.7497226244685846 0.6677118964137467
6.8173828125 0.7517434131607348 0.6661365548362804
6.81853125 0.751950594159277 0.6659875607922977
6.8196796875 0.7530756714326705 0.6655066566617428
6.820828125 0.7552321081778094 0.6636240927265507
6.8219765625 0.7556303373932816 0.662933204129431
6.823125 0.7562140834372464 0.6630876373796651
6.8242734375 0.757693896500115 0.6622842190330908
6.825421875 0.7577478541416507 0.6604937791773436
6.8265703125 0.758913390422256 0.6580982977006694
6.82771875 0.7595918390824563 0.6576324692424947
6.8288671875 0.7598973167423155 0.6572775303950378
6.830015625 0.7618062536622567 0.6568342740605813
6.8311640625 0.7636982233751091 0.655547668722499
6.8323125 0.7647017469451614 0.6537863949532944
6.8334609375 0.7653675357625098 0.6526530241687264
6.834609375 0.7657732906003712 0.6520935440444644
6.8357578125 0.7668805647878283 0.6500015077061144
6.83690625 0.7686414632698446 0.6486430105744573
6.8380546875 0.7680228112459466 0.6480077301071786
6.839203125 0.7690681909061019 0.6451270668719545
6.8403515625 0.7696175340603572 0.6448237439877883
6.8415 0.7701229442794744 0.6437558574172041
6.8426484375 0.7726073155746471 0.6430319115130887
6.843796875 0.7735639808591046 0.6411901513904985
6.8449453125 0.7738530250295088 0.6393256511741461
6.84609375 0.7749578899823206 0.6392729409679847
6.8472421875 0.7758403018447635 0.6374829089083072
6.848390625 0.7761472086902994 0.6368191026351511
6.8495390625 0.7762503577999238 0.6362680629461173
6.8506875 0.777259202325275 0.6344028109877096
6.8518359375 0.7778411098634637 0.6330549273050778
6.852984375 0.7791534153961641 0.6326055742660327
6.8541328125 0.7802429837930787 0.6310593162677156
6.85528125 0.7810717163091954 0.6294264199834453
6.8564296875 0.7824002223308788 0.6278327489233487
6.857578125 0.7829068011918938 0.626270325658146
6.8587265625 0.7847727021214217 0.6250530206717188
6.859875 0.7851220172916584 0.6249169572623211
6.8610234375 0.7859114477865916 0.6233737222105916
6.862171875 0.7874707994266037 0.621475068567336
6.8633203125 0.787503148752299 0.6197797706814256
6.86446875 0.7884548661447148 0.6199191495283949
6.8656171875 0.7892608875940397 0.6186166448161291
6.866765625 0.7895202964275416 0.6170359521509983
6.8679140625 0.7902637804961534 0.6158204702670045
6.8690625 0.7917786862415537 0.6134281355398516
6.8702109375 0.7924811417480101 0.6132666649862365
6.871359375 0.7927493632781208 0.6124040688233447
6.8725078125 0.7941145308281246 0.6122380186278437
6.87365625 0.7953495665927923 0.610437080630573
6.8748046875 0.7968633418430422 0.6083735169460767
6.875953125 0.796908693318094 0.6075755727752797
6.8771015625 0.7981702060981322 0.6063993695247196
6.87825 0.7979655255802552 0.6059617049968162
6.8793984375 0.7988412353125848 0.6044751564151402
6.880546875 0.8004588387740843 0.6020088137425066
6.8816953125 0.8007620914001616 0.6014136806768624
6.88284375 0.8010452828978727 0.5999961711031179
6.8839921875 0.8019617303556489 0.5990213175539887
6.885140625 0.8031386665519348 0.5974890339646162
6.8862890625 0.8039423915923711 0.5960008377804049
6.8874375 0.8050038979192211 0.5953459368368712
6.8885859375 0.8064857009847172 0.5945678913257568
6.889734375 0.8065664931534176 0.5932299804800383
6.8908828125 0.8080164180879197 0.591971616825219
6.89203125 0.8081482997075367 0.5904910945480069
6.8931796875 0.8096591484602036 0.5896291343507384
6.894328125 0.8109361505820678 0.5888413655394257
6.8954765625 0.8117491559613355 0.5876315570064954
6.896625 0.8128795849451144 0.5866706103280495
6.8977734375 0.8139724349677717 0.5847943144382087
6.898921875 0.8148564303249214 0.5835961568089763
6.9000703125 0.8164510644819888 0.582665664730484
6.90121875 0.8167682743280379 0.5819153531862762
6.9023671875 0.8175142656295118 0.5809488614601847
6.903515625 0.8178245731907429 0.5795700698579966
6.9046640625 0.81924094063729 0.5777353173261003
6.9058125 0.8195850372195503 0.5773000134314673
6.9069609375 0.8202383757036468 0.5761046337479467
6.908109375 0.8208624360782909 0.5752485043541499
6.9092578125 0.8212407329782095 0.5743855765795294
6.91040625 0.8227086168813349 0.5723415029310343
6.9115546875 0.8237004178285403 0.5711425067731941
6.912703125 0.8245664084765937 0.5709819475539665
6.9138515625 0.8249166937682246 0.569854611129689
6.915 0.8265738979216504 0.5687103045412376
6.9161484375 0.8267856715803298 0.5666298531440298
6.917296875 0.8279763437325214 0.5652262914929505
6.9184453125 0.8290544286564188 0.5642134859813436
6.91959375 0.8298596892608873 0.5634713982239373
6.9207421875 0.8315312054028262 0.5623299832032527
6.921890625 0.8316666481000239 0.5599187416237925
6.9230390625 0.8331686877166882 0.5587915700274142
6.9241875 0.8331586485444653 0.5586689500713818
6.9253359375 0.833428308472289 0.558219889352424
6.926484375 0.8338903482149806 0.5571151903170026
6.9276328125 0.8350768280885236 0.5548631285874273
6.92878125 0.8357736591237359 0.5543282254451872
6.9299296875 0.8365904662751784 0.552635226023307
6.931078125 0.8376662207116209 0.5514363415779466
6.9322265625 0.838198245419215 0.5502301385827857
6.933375 0.838890018270331 0.5491897311730296
6.9345234375 0.8409379896921563 0.5479246510987983
6.935671875 0.8413417671572558 0.5472414568933129
6.9368203125 0.841894331349746 0.5464788455533152
6.93796875 0.8423601507262757 0.5445155494339464
6.9391171875 0.8423579178151281 0.5432460765227642
6.940265625 0.843104789294302 0.5416336415986192
6.9414140625 0.8445999070631635 0.5406492139927541
6.9425625 0.8458499762066245 0.5389896037755427
6.9437109375 0.8471059696028714 0.5385727961498403
6.944859375 0.8471478830164161 0.5371396158288415
6.9460078125 0.8484941671713576 0.5352478218640058
6.94715625 0.8492862973046447 0.5346502297924083
6.9483046875 0.8497147568237625 0.5339573831044331
6.949453125 0.8506639879073444 0.5320634355951825
6.9506015625 0.8507453382230127 0.5314701491291781
6.95175 0.8519395490712283 0.5293802916148118
6.9528984375 0.8533253335721824 0.5279594447910199
6.954046875 0.8537788125645215 0.5260861033922942
6.9551953125 0.8542797971363196 0.5254883780788516
6.95634375 0.8553426621494474 0.5239239653937346
6.9574921875 0.856330585777743 0.5219723932942113
6.958640625 0.8567959009788709 0.5205791140333278
6.9597890625 0.8570887168735329 0.5200378250946672
6.9609375 0.8586618746872304 0.5183206632408044
6.9620859375 0.8594526341701126 0.5178758529113088
6.963234375 0.859954501902224 0.5164387144301132
6.9643828125 0.8617435434178042 0.5146473509705736
6.96553125 0.8619806001766402 0.5135408195094122
6.9666796875 0.8630425074941912 0.5136056198930626
6.967828125 0.863737082413089 0.5115739094646969
6.9689765625 0.863741781352534 0.5105700894209895
6.970125 0.8645185472828256 0.509031156917674
6.9712734375 0.8646908538485407 0.5085190032476394
6.972421875 0.865971283128639 0.5071223591043584
6.9735703125 0.8662698574093218 0.5056210263387348
6.97471875 0.8679240995974439 0.5044442531099538
6.9758671875 0.8684031076894243 0.5028062948990688
6.977015625 0.8693671714291235 0.5021204944476727
6.9781640625 0.8695704619716023 0.5008053571103944
6.9793125 0.8700924435170745 0.49971492627994324
6.9804609375 0.8710822945463962 0.4984523307886091
6.981609375 0.8715234445609032 0.49681874159525774
6.9827578125 0.8730746815077354 0.4960392421929066
6.98390625 0.8733662811056128 0.49450551029737516
6.9850546875 0.8742593384962328 0.4932807844799682
6.986203125 0.8750428693196215 0.4922211038951399
6.9873515625 0.8760847489216118 0.4903731641907413
6.9885 0.876427622222193 0.4897352077464368
6.9896484375 0.877162866485043 0.48844165879391765
6.990796875 0.8775731682841749 0.486691182268424
6.9919453125 0.8783848636049301 0.485787820995452
6.99309375 0.8791355779162976 0.48397321938570564
6.9942421875 0.8807587214241207 0.482940189641635
6.995390625 0.8810277330766634 0.48209536139366754
6.9965390625 0.8815155491991323 0.4807218924056522
6.9976875 0.8821030269238888 0.4790479934378074
6.9988359375 0.8834284267599337 0.47743259383291015
6.999984375 0.8835880255000291 0.47696436398966735
7.0011328125 0.8843215978645502 0.474874533541013
7.00228125 0.8854285539452573 0.47340200235370034
7.0034296875 0.8852771010675954 0.47243529403126494
7.004578125 0.8859778507628363 0.4707500485029313
7.0057265625 0.8869632948725912 0.4693892231354841
7.006875 0.8871640326861234 0.4684046975733299
7.0080234375 0.8877172844640575 0.46763451849566195
7.009171875 0.8891146389001927 0.4660407177354482
7.0103203125 0.8898399272476759 0.46472182233810255
7.01146875 0.8903401679287971 0.4630619170912737
7.0126171875 0.890760108677558 0.4616912079061554
7.013765625 0.8918006588355794 0.46007582994177876
7.0149140625 0.8921066328811593 0.4593107512770729
7.0160625 0.8924952113650602 0.4583479826687052
7.0172109375 0.8934281582053167 0.4565368736608865
7.018359375 0.8939437142074209 0.4553652348165175
7.0195078125 0.8944093266892943 0.4542219752203072
7.02065625 0.8950781320188469 0.45340767544135574
7.0218046875 0.896295573332655 0.4524018845926469
7.022953125 0.8969024879877645 0.45058549131240444
7.0241015625 0.8974713598288618 0.44876803222991146
7.02525 0.8981292822581481 0.4470780711512081
7.0263984375 0.8989764273547254 0.4463883543302727
7.027546875 0.899526266296796 0.4455672142251218
7.0286953125 0.9007578139771589 0.4438068313824325
7.02984375 0.9009587464601976 0.44289656424304635
7.0309921875 0.9018010442719002 0.4412103311533496
7.032140625 0.9021641956697812 0.4393281658923863
7.0332890625 0.9021391632214659 0.4383577138892547
7.0344375 0.9030880660784089 0.43629762145541523
7.0355859375 0.9041659079348764 0.4347406987298831
7.036734375 0.9046897935518211 0.4345644218511219
7.0378828125 0.9052377103552512 0.4328618123797208
7.03903125 0.9058724755868262 0.4314659846587047
7.0401796875 0.9067059044227375 0.4301247941759785
7.041328125 0.907059279874065 0.4285549457802945
7.0424765625 0.9073531111292626 0.4277782996241506
7.043625 0.9086926640562576 0.4258320211636151
7.0447734375 0.9098537887221521 0.4244748334401414
7.045921875 0.9101923475832239 0.423631929156498
7.0470703125 0.9112973464786891 0.4222987555679202
7.04821875 0.910878922536531 0.4209226490905222
7.0493671875 0.9120547968603374 0.41917541834344946
7.050515625 0.9124547801514082 0.4177915500334677
7.0516640625 0.9131922414335221 0.41645217783903726
7.0528125 0.913342647461682 0.4153244562863016
7.0539609375 0.9139431071985683 0.4142265473076726
7.055109375 0.9150519394384675 0.4125607791276317
7.0562578125 0.9154735719552731 0.4115753075810519
7.05740625 0.9168242741612999 0.4103985765855665
7.0585546875 0.9182224035243038 0.4083794215935729
7.059703125 0.9181495717311888 0.4077105699045528
7.0608515625 0.9184287867637101 0.4069095893433674
7.062 0.9189534798160806 0.4052325673565674
7.0631484375 0.9193435865345092 0.40358301622239384
7.064296875 0.919976652980967 0.4023034295452057
7.0654453125 0.920320781022466 0.4011242765931544
7.06659375 0.9213292758771667 0.3996928851426137
7.0677421875 0.9220559210937735 0.39840987137184714
7.068890625 0.9227057455711262 0.3967056066674571
7.0700390625 0.923330647479244 0.3953923246994876
7.0711875 0.9233777829297192 0.3943092185295811
7.0723359375 0.9234066713444005 0.3929465320734376
7.073484375 0.9243738407818924 0.3915913163404193
7.0746328125 0.9243692599414091 0.3906270762493555
7.07578125 0.925030240209213 0.3894449192282892
7.0769296875 0.9259477700058864 0.3873331991621372
7.078078125 0.9261631309989504 0.3858354299757554
7.0792265625 0.9264287349187474 0.38470668513713235
7.080375 0.9270137774348471 0.38299190741352246
7.0815234375 0.9277283931175124 0.3819302162583277
7.082671875 0.9274916043527414 0.38144396381855894
7.0838203125 0.9281377425240798 0.37971383953107885
7.08496875 0.9297592854859876 0.3783845868645177
7.0861171875 0.9299303682397599 0.3768114350162429
7.087265625 0.930052233795688 0.37521274653105297
7.0884140625 0.9301868353201642 0.3744283078585554
7.0895625 0.9307648650351024 0.37326356515098147
7.0907109375 0.9320749968127741 0.3713709906882384
7.091859375 0.9321228759880119 0.36994915216266744
7.0930078125 0.9334486427429562 0.3686332537590439
7.09415625 0.9333101610096026 0.3680547660169005
7.0953046875 0.9339256458344982 0.3677161208737712
7.096453125 0.9342541780847895 0.3660451854557355
7.0976015625 0.9341211121764976 0.36453764243104547
7.09875 0.9348771133151065 0.363063389432412
7.0998984375 0.9357558341365605 0.36104969938374065
7.101046875 0.9364422120411426 0.35986455634348014
7.1021953125 0.9369607909072794 0.35877653180227304
7.10334375 0.9376400580024967 0.3578675005433571
7.1044921875 0.9376889995101056 0.35563024292974293
7.105640625 0.9385582235430455 0.355450170530184
7.1067890625 0.9386614600191906 0.3541155552271481
7.1079375 0.9393638133809278 0.3526352320671653
7.1090859375 0.939629328423178 0.35106325253844917
7.110234375 0.9405080025963819 0.3499777950577375
7.1113828125 0.9419746178644774 0.3486212745378142
7.11253125 0.9423775206157754 0.34815643249383493
7.1136796875 0.9430441788038795 0.3464902562331169
7.114828125 0.943877900560696 0.34584880183717687
7.1159765625 0.9437661451276842 0.3442134394426835
7.117125 0.9442994174143364 0.34270916415492647
7.1182734375 0.9461721787424563 0.34092281308640515
7.119421875 0.9460582107405893 0.3394457849661872
7.1205703125 0.9464760539100785 0.3384023828764202
7.12171875 0.9467617911482437 0.3376066161769324
7.1228671875 0.9482425214360963 0.3355529337232103
7.124015625 0.9479797603121691 0.3350468360553854
7.1251640625 0.9484095713406748 0.33297055820656385
7.1263125 0.9488647875630181 0.3318805936252302
7.1274609375 0.9487316154767744 0.33128132922282805
7.128609375 0.9503443971986579 0.3293292919552181
7.1297578125 0.9513849041684094 0.32790255672166774
7.13090625 0.9508217090802953 0.3267996034552416
7.1320546875 0.951455138379091 0.325365798329821
7.133203125 0.9518396768516597 0.3246670190749669
7.1343515625 0.9531348799573365 0.32288032953163476
7.1355 0.9534570964179777 0.32120308340133435
7.1366484375 0.9544282206967807 0.31957414225531516
7.137796875 0.9550865642576997 0.317699851892907
7.1389453125 0.95575600407136 0.3164775399969524
7.14009375 0.9558780341104298 0.31530535426376627
7.1412421875 0.9569533270134005 0.3134980163993325
7.142390625 0.9570206650728568 0.31268767470522296
7.1435390625 0.9571590037899144 0.31070471765617147
7.1446875 0.9580440775656204 0.3088550335344627
7.1458359375 0.9594930028727381 0.3069712767492021
7.146984375 0.9597683077890019 0.30591148521960077
7.1481328125 0.9600130443832303 0.3049845945331102
7.14928125 0.9604780239712303 0.30315667686143133
7.1504296875 0.9598244903415821 0.301246387687653
7.151578125 0.9604390794242272 0.3000347016257529
7.1527265625 0.9605595610370239 0.2983399863975964
7.153875 0.9621802648003618 0.29691544049522145
7.1550234375 0.9627887492312955 0.2952568231150736
7.156171875 0.9636375858041731 0.2942595780923366
7.1573203125 0.9646532138135331 0.2934313469314146
7.15846875 0.963847163250892 0.2927459471552976
7.1596171875 0.9650055081902387 0.29153934805440507
7.160765625 0.9652507344091926 0.2895947586353832
7.1619140625 0.9655121814926452 0.28769970607402184
7.1630625 0.9652841658085791 0.28606778874482924
7.1642109375 0.9669331309330439 0.284502861385547
7.165359375 0.9665914830616547 0.2837024007622847
7.1665078125 0.9676224306643885 0.28228680628431446
7.16765625 0.9678861676991377 0.2812246836913943
7.1688046875 0.9681884938696721 0.2797768551940839
7.169953125 0.9686448974804445 0.27819254745873256
7.1711015625 0.9692676859537689 0.27656375969043834
7.17225 0.9697428968860624 0.27551374739349277
7.1733984375 0.9697122760991861 0.27377585488664913
7.174546875 0.969246365826208 0.27205167278354686
7.1756953125 0.9708703989581879 0.27027922758085904
7.17684375 0.9716987407245855 0.26888917134080614
7.1779921875 0.9718307227573207 0.2683247243161459
7.179140625 0.9722358927833209 0.2664637451696034
7.1802890625 0.9724504717421043 0.26565765125616797
7.1814375 0.9726428839898166 0.26365508851602243
7.1825859375 0.9745555758577831 0.2612161898989243
7.183734375 0.9748937968150491 0.2603969243636892
7.1848828125 0.9752089198282612 0.25849878900725826
7.18603125 0.9753499445880895 0.2578357752889042
7.1871796875 0.9751563296879391 0.2563447159707586
7.188328125 0.9756072385587702 0.2549028548593341
7.1894765625 0.9767603579595987 0.2535637821925973
7.190625 0.9771399824850125 0.25105582063059206
7.1917734375 0.9775243006402834 0.25027230328234384
7.192921875 0.9777184993918868 0.24952613447020866
7.1940703125 0.9791353291516851 0.24753093145030752
7.19521875 0.9798188211219808 0.24681276989968223
7.1963671875 0.9791608840295216 0.2453874624152024
7.197515625 0.9801772057766549 0.24270103516033695
7.1986640625 0.9800587542585644 0.24215461090778995
7.1998125 0.9805860064494791 0.24039719411607227
7.2009609375 0.9815123390130367 0.2391306613312428
7.202109375 0.9812530579299108 0.2374677220171918
7.2032578125 0.9816658074370359 0.23635101715685067
7.20440625 0.9815204056725123 0.2341540728829288
7.2055546875 0.9821135439004227 0.23192556521643706
7.206703125 0.9817950075081889 0.23034712218131834
7.2078515625 0.9821900608464182 0.2289220153727676
7.209 0.9829058405907969 0.22788915827317208
7.2101484375 0.9829845304459847 0.22642245025530133
7.211296875 0.9826722602284564 0.22462507023203854
7.2124453125 0.9832691504284079 0.22319860522578686
7.21359375 0.9842048883145188 0.22261054216331375
7.2147421875 0.9837800366956873 0.22034867499551952
7.215890625 0.9847723261479304 0.21866796586345144
7.2170390625 0.9844226096981032 0.21679578150563236
7.2181875 0.9853201350357301 0.21536735768841828
7.2193359375 0.9861893759019138 0.21483723275190483
7.220484375 0.9857049091855932 0.21273653476692858
7.2216328125 0.9859443192194708 0.21157457084380668
7.22278125 0.9855145749323524 0.21005137315284964
7.2239296875 0.9860760529279256 0.20789916472584402
7.225078125 0.9859430742239619 0.20762700419417668
7.2262265625 0.9864161537520968 0.20622164753583294
7.227375 0.986862310745796 0.20455563746231487
7.2285234375 0.9874083357235739 0.202794482381082
7.229671875 0.9887066941302022 0.20142911432687988
7.2308203125 0.9886028099198656 0.20132104466340156
7.23196875 0.9887649120555422 0.1997342314957705
7.2331171875 0.9878567669017314 0.19754476428035855
7.234265625 0.9896178025591056 0.19651583496527547
7.2354140625 0.9890572477788638 0.194483994109254
7.2365625 0.9898684141382421 0.19371919431300497
7.2377109375 0.9899487227072405 0.1920012776557758
7.238859375 0.9900454170963047 0.19013981294649623
7.2400078125 0.9903371102507229 0.18886978997421472
7.24115625 0.9904289860925228 0.1877208953871548
7.2423046875 0.9902557690605255 0.18596709805786127
7.243453125 0.991653852707602 0.18471081524659883
7.2446015625 0.99163330418117 0.18247159584244504
7.24575 0.9921036004619153 0.18119548249910727
7.2468984375 0.9919974758738594 0.18056904338746294
7.248046875 0.9921288748654278 0.17918261882403305
7.2491953125 0.9923674907571174 0.17851587591353416
7.25034375 0.993168691691174 0.17581104208293782
7.2514921875 0.9932811032364475 0.1749578769768368
7.252640625 0.9938720723329992 0.17352459877018714
7.2537890625 0.9950949636423159 0.17245321388257068
7.2549375 0.9955730763321506 0.171822840938414
7.2560859375 0.9942711860208318 0.16943053747112696
7.257234375 0.9937182390531424 0.16768639860143159
7.2583828125 0.994750449676834 0.16440984970218225
7.25953125 0.9944737589228286 0.1641903780798577
7.2606796875 0.9951836619576699 0.16369965580520535
7.261828125 0.9943952321311436 0.1614977075284157
7.2629765625 0.9950956717075787 0.15967612160730849
7.264125 0.996009256136905 0.15774757455401034
7.2652734375 0.9967419002621056 0.15675515095467113
7.266421875 0.9964566068437173 0.1559162975532632
7.2675703125 0.9967303182171762 0.15452276262152112
7.26871875 0.9964939308916946 0.15129929159478966
7.2698671875 0.9980035359961557 0.15051998764540325
7.271015625 0.9979251863313878 0.1490439148916864
7.2721640625 0.9985281416906511 0.14808625065315878
7.2733125 0.9984542262512206 0.14653336456297258
7.2744609375 0.999978628622235 0.14555884590853652
7.275609375 0.9984720531674188 0.1442706468055161
7.2767578125 0.9990401847710979 0.14205510078009537
7.27790625 0.9999380945094067 0.14197549312784985
7.2790546875 0.9998031419318326 0.1415382534444423
7.280203125 0.9998042057081477 0.13971965272590386
7.2813515625 1.0000148422085835 0.13678609754624954
7.2825 1.000544969142136 0.134994934217673
7.2836484375 1.0004115262830577 0.13285704378102192
7.284796875 1.001906273100158 0.13315220645786624
7.2859453125 1.0011895000063917 0.13146773737930534
7.28709375 1.001686224207877 0.12993746019768138
7.2882421875 1.001821025363851 0.1274244250399993
7.289390625 1.0023034758917169 0.12661754643556924
7.2905390625 1.0027096233332213 0.12662143700152118
7.2916875 1.0027632923952348 0.12483565897939969
7.2928359375 1.0030736646043747 0.1220209644520446
7.293984375 1.0035331611271503 0.12108445153071429
7.2951328125 1.0038610490507667 0.11951627291593289
7.29628125 1.0037411098036373 0.11832576409532691
7.2974296875 1.0037159595449925 0.11703384173502915
7.298578125 1.0042972055015233 0.11564144462264372
7.2997265625 1.0044048937897405 0.11361709080689181
7.300875 1.0044704397936328 0.1127689320304477
7.3020234375 1.005197312582949 0.11216203391201311
7.303171875 1.0058487981978277 0.1099052917457207
7.3043203125 1.0044415274999852 0.1085109819182887
7.30546875 1.0057027009920154 0.10752823715007548
7.3066171875 1.0064005165133483 0.10467108779051879
7.307765625 1.00792453128268 0.10417098640619388
7.3089140625 1.00829923148428 0.10222973225024029
7.3100625 1.007814500918645 0.10063612742704417
7.3112109375 1.0076581630980561 0.09923311539187417
7.312359375 1.0058572225692533 0.09890859978702643
7.3135078125 1.0064719850890755 0.09721185073015033
7.31465625 1.0070721532506044 0.09724177196180551
7.3158046875 1.0070596437879757 0.09480187479327404
7.316953125 1.0086429587382806 0.09305642786726351
7.3181015625 1.008526416224108 0.09075573539670975
7.31925 1.0092916470020727 0.08995115233290221
7.3203984375 1.00933390772514 0.08937708843575484
7.321546875 1.0086030903514207 0.0863893569390688
7.3226953125 1.010125029125017 0.0856423233541836
7.32384375 1.0091093199020407 0.08398408244849319
7.3249921875 1.0099559325148761 0.08193683114138782
7.326140625 1.010190312126183 0.08220652009477954
7.3272890625 1.0108300069381733 0.07988606673056259
7.3284375 1.0113849975887794 0.0781450675881819
7.3295859375 1.012153629459891 0.07669577675308589
7.330734375 1.0110691527042965 0.07359156399173584
7.3318828125 1.0121940304013142 0.07377355379303091
7.33303125 1.011626471658497 0.06941654769231853
7.3341796875 1.0119835821697125 0.0677637464347179
7.335328125 1.0126896232614466 0.0662437599678091
7.3364765625 1.0121333195038689 0.06404563220196938
7.337625 1.0140356988860635 0.06410466842574093
7.3387734375 1.0130144995804076 0.06235014302469784
7.339921875 1.0140008104252785 0.05989409538854924
7.3410703125 1.0147563439435927 0.05850592742298558
7.34221875 1.0139539960789656 0.05714143466675155
7.3433671875 1.0134531417891397 0.05565216252778922
7.344515625 1.0138254982582797 0.05379550286960882
7.3456640625 1.01350834738822 0.05068885891456264
7.3468125 1.0134360591145501 0.04903178769879851
7.3479609375 1.0135299138452893 0.0473438562426807
7.349109375 1.0139159557075705 0.04518007387216916
7.3502578125 1.0152953514605119 0.04416811190923034
7.35140625 1.0153996705854564 0.04142982840890038
7.3525546875 1.0148920115810547 0.040585578118754226
7.353703125 1.0152504590561349 0.03782005848152159
7.3548515625 1.0151045588930452 0.035028488655772266
7.356 1.0168025668073755 0.03438028093367361
7.3571484375 1.0155510661193257 0.03209977579473555
7.358296875 1.0153166944539929 0.030738262930978116
7.3594453125 1.015563256162937 0.0273222158596933
7.36059375 1.0159960160930492 0.024572352336551154
7.3617421875 1.0153546099875375 0.025541407297381344
7.362890625 1.0140308125752497 0.02323837371304821
7.3640390625 1.0145160616468933 0.02182616741807991
7.3651875 1.0149847034430945 0.02026639002666289
7.3663359375 1.015972369808595 0.017088199398407222
7.367484375 1.0154627448345113 0.01625444247568672
7.3686328125 1.0159344394720968 0.015735897094799084
7.36978125 1.0151136576986406 0.014332610887848207
7.3709296875 1.0144237960583251 0.012294585492806598
7.372078125 1.015545663851595 0.0097484422010638
7.3732265625 1.0160125009094751 0.008542343740717051
7.374375 1.0143833595041678 0.008044443858649691
7.3755234375 1.013576922561254 0.004094681091355856
7.376671875 1.0134436835195357 0.0010048041800068686
7.3778203125 1.0130209730599717 -0.00016579404015873433
7.37896875 1.012965303968155 -0.0009334157407696331
7.3801171875 1.0129691832696799 -0.0022333524539991934
7.381265625 1.0130641119971597 -0.005494154514468275
7.3824140625 1.013950275446151 -0.007531553146940595
7.3835625 1.0127989278363143 -0.008895763323722328
7.3847109375 1.0115174224577892 -0.009892701201941356
7.385859375 1.0123838823353335 -0.01065326730532129
7.3870078125 1.0110402693215164 -0.014211919889635605
7.38815625 1.0100162583531396 -0.015994348188638652
7.3893046875 1.0094687667616424 -0.017689089176653294
7.390453125 1.0081855934174855 -0.018994670257601154
7.3916015625 1.0075340745689618 -0.01866479456625869
7.39275 1.0064433875978895 -0.019396969735403446
7.3938984375 1.0047240435294988 -0.019503773265608426
7.395046875 1.0044413256534448 -0.02089311283563744
7.3961953125 1.0041793811502562 -0.021837516416629787
7.39734375 1.004844193513414 -0.022510921537491235
7.3984921875 1.004347880536342 -0.023481699572740322
7.399640625 1.0032447814273426 -0.026620584259756774
7.4007890625 1.002995017585768 -0.02736541417670102
7.4019375 1.002260939189852 -0.028568501342243036
7.4030859375 1.002439998533554 -0.028219142038828637
7.404234375 1.001849307527114 -0.0302280891997333
7.4053828125 1.0021198716243265 -0.03083357904467382
7.40653125 1.002406094839 -0.03223337501879264
7.4076796875 1.0028753233492607 -0.03347829817449288
7.408828125 1.0022172573563801 -0.03364644652731513
7.4099765625 1.0022687802884096 -0.03415408614872684
7.411125 1.0008236993792918 -0.03684711555882636
7.4122734375 1.0018299554060435 -0.037330124620648275
7.413421875 1.0010359420574477 -0.03760952196521372
7.4145703125 1.00102712529507 -0.03847092497570087
7.41571875 1.0021426686376564 -0.038692039963172276
7.4168671875 1.003697015989924 -0.041661712415458685
7.418015625 1.0025502088559872 -0.04307015834849137
7.4191640625 1.002447849487453 -0.04387406176729469
7.4203125 1.0012527459601699 -0.046127542424235835
7.4214609375 1.0020409926901035 -0.04605984264271357
7.422609375 1.0035939066420152 -0.04875923902026674
7.4237578125 1.0041251003678173 -0.050704482141995855
7.42490625 1.0041402936526331 -0.05161219856002719
7.4260546875 1.0041502401933267 -0.05348806458226513
7.427203125 1.0044486444005687 -0.05382557892218476
7.4283515625 1.0021289354391472 -0.05662201030193087
7.4295 1.0035908863343275 -0.05890446379129122
7.4306484375 1.0043480137301752 -0.06050610721720162
7.431796875 1.0042803729478995 -0.06220467404089669
7.4329453125 1.0048363751692335 -0.06326152249889022
7.43409375 1.005249537336491 -0.06375926583501079
7.4352421875 1.0052857703726625 -0.06683944958276666
7.436390625 1.0043342274071607 -0.06881273729581938
7.4375390625 1.005056724239914 -0.06969493638355728
7.4386875 1.0060629370317498 -0.06911487027698282
7.4398359375 1.0049372610500957 -0.06999706751905027
7.440984375 1.003578937333639 -0.07172423211883916
7.4421328125 1.0035245023183568 -0.07390808260499016
7.44328125 1.0037087471534605 -0.07653732183524087
7.4444296875 1.0045286867871122 -0.07712036659809135
7.445578125 1.0042474973351125 -0.07784333341583077
7.4467265625 1.0037233790083928 -0.07972227289215755
7.447875 1.0032870153513853 -0.08090515898460382
7.4490234375 1.0028951796115781 -0.08200966459107434
7.450171875 1.0036766563426913 -0.08520685069872075
7.4513203125 1.003839394916466 -0.08530102173738524
7.45246875 1.0041359538301897 -0.08717333685292122
7.4536171875 1.0040757036041281 -0.09011435876248436
7.454765625 1.005145359849519 -0.09228939765444161
7.4559140625 1.0050857586760629 -0.09305310270357525
7.4570625 1.0057039966800674 -0.09452080148345199
7.4582109375 1.0035772425837695 -0.09698498921472881
7.459359375 1.0042814700769969 -0.09819014439517004
7.4605078125 1.0046974744171357 -0.10151332302994664
7.46165625 1.0030876665718917 -0.10202154211944342
7.4628046875 1.0026311372372885 -0.10116269338283024
7.463953125 1.0035346499602453 -0.10187404394046767
7.4651015625 1.0028576558231785 -0.10328712810355128
7.46625 1.0030543373405385 -0.10479854878462164
7.4673984375 1.0024456447961207 -0.10691206522327251
7.468546875 1.0015811740755245 -0.10784249221386605
7.4696953125 1.0008592257179643 -0.10940376143986286
7.47084375 1.0010571004420354 -0.11140467241486102
7.4719921875 1.0010121889398507 -0.11360850401352357
7.473140625 1.0010686283255774 -0.1154747572813768
7.4742890625 1.0006024128952633 -0.11785972782541254
7.4754375 0.9994189295491255 -0.1187626943797383
7.4765859375 0.9985462564872646 -0.12045183916829821
7.477734375 0.9976172061275141 -0.12075269644763992
7.4788828125 0.996563983175784 -0.1205346474881347
7.48003125 0.9972137179327784 -0.1211593045638662
7.4811796875 0.99639876736795 -0.1213510126394533
7.482328125 0.9966579746145098 -0.1233977527293812
7.4834765625 0.9956298431123104 -0.12504800101024732
7.484625 0.9951879478374781 -0.1261585431905924
7.4857734375 0.9942810339610046 -0.12809506854458785
7.486921875 0.994796261802396 -0.12763580519455597
7.4880703125 0.9936511075553799 -0.12962640447558282
7.48921875 0.9938495674661758 -0.13044075927174453
7.4903671875 0.9942912881121467 -0.13192121493457354
7.491515625 0.9936162846062229 -0.13372414476051692
7.4926640625 0.9931901469927381 -0.13498594485077123
7.4938125 0.9928499931387226 -0.13727247364927406
7.4949609375 0.99236430443695 -0.14028794043517706
7.496109375 0.9929522688276513 -0.13739591211414984
7.4972578125 0.9927316971703647 -0.13655931345061786
7.49840625 0.9946408023008838 -0.1368425351971384
7.4995546875 0.9927877001354125 -0.13813146191706344
7.500703125 0.9918791899091627 -0.1396083034756541
7.5018515625 0.9929582223791857 -0.1394837044140766
7.503 0.992214032310226 -0.1397816891632332
7.5041484375 0.9939493607749352 -0.1406864305812134
7.505296875 0.9961160219712735 -0.14169551720027368
7.5064453125 0.9965778999681139 -0.14390878381403682
7.50759375 0.9971728113686582 -0.14601597989791976
7.5087421875 0.999009687702744 -0.14703484750954116
7.509890625 0.9986722154181318 -0.14811518670887197
7.5110390625 0.9983323575456058 -0.15097125883005671
7.5121875 0.9992617297614403 -0.15374166925153107
7.5133359375 1.0006707852752497 -0.15380136289687343
7.514484375 1.001273123269432 -0.15371523395081757
7.5156328125 1.0023535870379925 -0.1549203664172458
7.51678125 1.00245671359147 -0.1565352322758148
7.5179296875 1.0023932936658437 -0.15931198439566274
7.519078125 1.002023582176234 -0.1610355784254976
7.5202265625 1.0044221950124133 -0.16095732929921658
7.521375 1.0045222375926308 -0.16269361574991514
7.5225234375 1.0069411803196926 -0.16308887572371888
7.523671875 1.0080360737172813 -0.16737848035770453
7.5248203125 1.0097591730940418 -0.17104251401166698
7.52596875 1.0108237167257481 -0.17433978906682113
7.5271171875 1.0113556567298922 -0.17586699295513286
7.528265625 1.0113328038970333 -0.1764686383886283
7.5294140625 1.0108239664367953 -0.1794750802592029
7.5305625 1.0088686961125248 -0.18111736571517872
7.5317109375 1.0107124514953392 -0.1841553807358146
7.532859375 1.0127956747158509 -0.18801216909620816
7.5340078125 1.0134367569247833 -0.19122907127619948
7.53515625 1.0128761333198186 -0.19439133865594838
7.5363046875 1.0126290803195934 -0.19669477313232203
7.537453125 1.0107963538697433 -0.20074003801904955
7.5386015625 1.010902231615247 -0.20410812284896152
7.53975 1.0099937151568212 -0.20636120279007375
7.5408984375 1.0095463386346744 -0.2089131201831485
7.542046875 1.0092974586571701 -0.21154547387196948
7.5431953125 1.0092496489895857 -0.21387269530033842
7.54434375 1.0088518328935316 -0.21636860054835316
7.5454921875 1.006841994866594 -0.21942031331258816
7.546640625 1.0051003331424804 -0.22091097072006716
7.5477890625 1.0028136037129138 -0.2237849134146837
7.5489375 1.0008353360062814 -0.22541677438393737
7.5500859375 1.0002669003190472 -0.22603721608273952
7.551234375 0.9999642019940732 -0.2281298527182677
7.5523828125 0.9973014685733559 -0.23059649075438193
7.55353125 0.9966376575536922 -0.2324540292345217
7.5546796875 0.9959041821788611 -0.23574424754841777
7.555828125 0.9947396555838899 -0.23634100734919333
7.5569765625 0.9932477538128394 -0.2373974648813798
7.558125 0.9921206583623221 -0.23839849973492538
7.5592734375 0.9905628445121708 -0.23934287506295682
7.560421875 0.990723622022301 -0.23947229084841148
7.5615703125 0.9901897360669534 -0.24128619389851574
7.56271875 0.989507345786536 -0.24224514738776048
7.5638671875 0.9892768102047776 -0.24332088286725656
7.565015625 0.9888348803195315 -0.2466218410428726
7.5661640625 0.9877896814454077 -0.24814927011646742
7.5673125 0.9868614347576827 -0.2491516632224821
7.5684609375 0.9870673356909707 -0.2503720397933394
7.569609375 0.9862170611658916 -0.2513938587612705
7.5707578125 0.9857759859556552 -0.25304154035371507
7.57190625 0.9842514784628522 -0.25599974014467053
7.5730546875 0.984583119222698 -0.25524205975871594
7.574203125 0.9838209691047795 -0.25718458689484164
7.5753515625 0.9815971558530429 -0.2600022744690153
7.5765 0.9826028584551898 -0.26054028684058295
7.5776484375 0.9819580219067189 -0.26261696097948917
7.578796875 0.9815348712628902 -0.2625723792839624
7.5799453125 0.980632126508191 -0.2659525029242414
7.58109375 0.9810953318738762 -0.2679289488785132
7.5822421875 0.98061448365716 -0.26993069087923377
7.583390625 0.9810838054373524 -0.2712559055591875
7.5845390625 0.9796253149507461 -0.2734932170755902
7.5856875 0.9777217106503662 -0.27335092281478424
7.5868359375 0.9759637602528921 -0.27513700133896807
7.587984375 0.9747929737341793 -0.2760194951847675
7.5891328125 0.9746335136260005 -0.2787016032973097
7.59028125 0.9732983317409623 -0.28038850793304537
7.5914296875 0.9728999972968368 -0.27987932039347657
7.592578125 0.9717289553946877 -0.2801359491454162
7.5937265625 0.970946757430166 -0.2809843385215636
7.594875 0.9711884560935429 -0.2830345302111179
7.5960234375 0.971734722215626 -0.2840495010603261
7.597171875 0.9711002537838708 -0.2853512988774045
7.5983203125 0.9710848563298453 -0.2885689443967778
7.59946875 0.9700682278812037 -0.28940417525076934
7.6006171875 0.9699889319740638 -0.29111482662397636
7.601765625 0.9701985917864252 -0.2921229251155031
7.6029140625 0.9693454256298417 -0.29353184342874616
7.6040625 0.9684477649582115 -0.2952537003391752
7.6052109375 0.9684042062159948 -0.29741371936535044
7.606359375 0.967768825060025 -0.299407188289712
7.6075078125 0.9661011307619247 -0.30114510933515415
7.60865625 0.9672147972189314 -0.30307686967099534
7.6098046875 0.9662795896170147 -0.3044807769904715
7.610953125 0.9658448030758366 -0.3046252083481118
7.6121015625 0.9664653671548089 -0.30705449233312476
7.61325 0.9646329360592693 -0.30876700739262974
7.6143984375 0.9662509534663482 -0.3076190091946861
7.615546875 0.9657619270953387 -0.30965235273333314
7.6166953125 0.9640720264977903 -0.31241745982727664
7.61784375 0.9637896216832958 -0.3133531606888017
7.6189921875 0.9619207818520638 -0.31355079810920083
7.620140625 0.9614783413152292 -0.31622159141050654
7.6212890625 0.9622219151843099 -0.32032848739302666
7.6224375 0.9612821457007786 -0.32009587568825626
7.6235859375 0.9615409608815336 -0.32191873151502914
7.624734375 0.9572833983733473 -0.3233455613852735
7.6258828125 0.9569844493687647 -0.32345646634372605
7.62703125 0.9541874019110262 -0.3251309090214418
7.6281796875 0.9536795443578465 -0.3262488899921644
7.629328125 0.9520638142556355 -0.32910282651333367
7.6304765625 0.9519442413858599 -0.3304847245519592
7.631625 0.9511582021095983 -0.3313678682624478
7.6327734375 0.9524093434960268 -0.3320237386456404
7.633921875 0.9504518446792499 -0.333599904340519
7.6350703125 0.9497822173597438 -0.3346299001526003
7.63621875 0.950181618861515 -0.3380683171421288
7.6373671875 0.9500792398057566 -0.3379224360824168
7.638515625 0.950222852840589 -0.3397908779257979
7.6396640625 0.9495647487746793 -0.3393263992938145
7.6408125 0.948541982475479 -0.34039938123824254
7.6419609375 0.946976755152395 -0.3411594381241976
7.643109375 0.946817758346951 -0.3471510955904661
7.6442578125 0.9444882171985052 -0.3448393306839438
7.64540625 0.9440451736081494 -0.34518723985232636
7.6465546875 0.9437368670269196 -0.34653033768330277
7.647703125 0.9427109678641793 -0.3478531209700867
7.6488515625 0.9431048340101149 -0.3500863168228374
7.65 0.9425881974131299 -0.34943324865792924
7.6511484375 0.9420075996540446 -0.3504728642937496
7.652296875 0.9409955192274237 -0.3518771256462022
7.6534453125 0.9424111623637599 -0.3555437884737299
7.65459375 0.939754715773205 -0.3567034383348229
7.6557421875 0.9393776319386239 -0.36159869761522445
7.656890625 0.9392439215134964 -0.3622022288703334
7.6580390625 0.9402413159190013 -0.3622736856768016
7.6591875 0.939391633335349 -0.36284484608687706
7.6603359375 0.9367648711304131 -0.3644717908513616
7.661484375 0.9346938328491771 -0.3679735307202704
7.6626328125 0.9346248308855671 -0.36847808285363126
7.66378125 0.9331635227305789 -0.36747237914060116
7.6649296875 0.9338918542734013 -0.3681334950105217
7.666078125 0.9319431648202648 -0.370722145882712
7.6672265625 0.9302481281034722 -0.3737201090397314
7.668375 0.929661344241086 -0.3755404644400425
7.6695234375 0.9279944831130639 -0.3759055227937614
7.670671875 0.927217940152272 -0.3767737947688474
7.6718203125 0.9268807131314284 -0.379679673275107
7.67296875 0.9264733090733679 -0.38120503158411334
7.6741171875 0.9276053145291125 -0.379570090335701
7.675265625 0.9263900274988641 -0.3824541552718633
7.6764140625 0.9248509558258227 -0.38386644686196847
7.6775625 0.9242212106485842 -0.3856503292854627
7.6787109375 0.9224289154898065 -0.387706795925728
7.679859375 0.9226048537943627 -0.390130653794567
7.6810078125 0.923552091066763 -0.39001760645454153
7.68215625 0.9215127621485618 -0.38934350607646184
7.6833046875 0.9205702422148365 -0.39155493444726297
7.684453125 0.9183063149664716 -0.39402272268728133
7.6856015625 0.9200122162934853 -0.3947255405491676
7.68675 0.9196647983476471 -0.39566016357604394
7.6878984375 0.9197065557547544 -0.3975964637998525
7.689046875 0.9175168174507153 -0.3969578744968094
7.6901953125 0.9153808051265291 -0.3992909927596791
7.69134375 0.9138911048110546 -0.4006495091387566
7.6924921875 0.9111483376624747 -0.4005701206303574
7.693640625 0.9112175265120731 -0.4019124096873305
7.6947890625 0.9103831657285859 -0.40316751895411396
7.6959375 0.9098269502950134 -0.4051318633722678
7.6970859375 0.9075645429018269 -0.40578585617341595
7.698234375 0.9063498687102542 -0.4080326224267132
7.6993828125 0.9049864257684034 -0.40783336120771124
7.70053125 0.9028316974889333 -0.40905921066416956
7.7016796875 0.9027198894257437 -0.41162597182500205
7.702828125 0.9036473716915301 -0.4137769524056957
7.7039765625 0.9044006006005999 -0.41348412515400884
7.705125 0.9021858737891792 -0.4150874723764646
7.7062734375 0.9007134009738674 -0.41664165296595096
7.707421875 0.9015563298850751 -0.41620679712262465
7.7085703125 0.8978435077672553 -0.4183337159797797
7.70971875 0.896881213824923 -0.41662597330530776
7.7108671875 0.8956966580772097 -0.4172902659539204
7.712015625 0.8968479624794485 -0.4177248029609223
7.7131640625 0.8947060411904448 -0.41884692110180793
7.7143125 0.8943395790296051 -0.42215740615277997
7.7154609375 0.8917016854849693 -0.42208294572569416
7.716609375 0.8929297297830772 -0.42457515143228575
7.7177578125 0.893742426784847 -0.4243997541599116
7.71890625 0.8933712424700616 -0.4244286140916019
7.7200546875 0.8909446640829549 -0.42427251771021046
7.721203125 0.889138679381886 -0.42766379155026985
7.7223515625 0.8898365223341659 -0.4272249854471203
7.7235 0.8895127435323636 -0.4279488868953182
7.7246484375 0.88961300652011 -0.4298591913656069
7.725796875 0.8869132025798484 -0.42860339257620766
7.7269453125 0.8856601742397427 -0.4291170464920234
7.72809375 0.8848870011419211 -0.42982832610455746
7.7292421875 0.883821650753408 -0.4302196361564275
7.730390625 0.882599784430132 -0.43183978367658576
7.7315390625 0.8821192165263124 -0.42874044823362745
7.7326875 0.8826519369712722 -0.4269150253734302
7.7338359375 0.8822447935978608 -0.4293132189668817
7.734984375 0.8803515398660406 -0.43244253239358266
7.7361328125 0.8808611470257768 -0.4310796776575279
7.73728125 0.8801187155372417 -0.4324812334425445
7.7384296875 0.8796902911914783 -0.43145660300747857
7.739578125 0.8789191192065877 -0.43173195504589956
7.7407265625 0.8773278641821235 -0.43273784197795095
7.741875 0.8789815239066842 -0.43189073182278187
7.7430234375 0.8793078258651704 -0.43039282955133
7.744171875 0.8766486866971781 -0.4308167827070706
7.7453203125 0.8775782747594624 -0.4310640083021555
7.74646875 0.8790171624586842 -0.43301794810179106
7.7476171875 0.8790544068872408 -0.43476280290649083
7.748765625 0.8826709355458155 -0.43530977715400443
7.7499140625 0.8802768771491098 -0.4384363879698102
7.7510625 0.8848995097034926 -0.43746587643656676
7.7522109375 0.8834017560908509 -0.4367185603678764
7.753359375 0.884759939881507 -0.4360088491874864
7.7545078125 0.8886034309771702 -0.4382978431777049
7.75565625 0.8839952329363309 -0.43918249902355555
7.7568046875 0.8861545375239194 -0.44061941106538716
7.757953125 0.8873208667200523 -0.4419599763029689
7.7591015625 0.8887741233280366 -0.44276118124304487
7.76025 0.8907799545134378 -0.4432353268836191
7.7613984375 0.8913652688991331 -0.4443889962268607
7.762546875 0.8910176268227896 -0.4487019425877087
7.7636953125 0.8950096897905293 -0.44980912485743696
7.76484375 0.8952544897402352 -0.4536095954060173
7.7659921875 0.8958718012421016 -0.4552427600304312
7.767140625 0.8985359597317342 -0.4571382972581691
7.7682890625 0.8976275370665177 -0.4617052349803267
7.7694375 0.8976196246816767 -0.46562971224650784
7.7705859375 0.8964516793777342 -0.4687643827278202
7.771734375 0.8966358362002632 -0.4680401611448558
7.7728828125 0.8998229586937713 -0.4717326097855258
7.77403125 0.8959833719204003 -0.47283454115031465
7.7751796875 0.8976774718725724 -0.4769295648161942
7.776328125 0.8934078520348494 -0.4821238828426272
7.7774765625 0.8966418383704948 -0.4849437441915635
7.778625 0.8973799770052149 -0.48712409249667155
7.7797734375 0.8938828032041478 -0.48922684766183555
7.780921875 0.8956162438703393 -0.49112962028092466
7.7820703125 0.8979719977008385 -0.49477933306190147
7.78321875 0.8947355351523307 -0.4983214395547563
7.7843671875 0.8960021670296221 -0.5043543708067918
7.785515625 0.8917666166864128 -0.5101373821038547
7.7866640625 0.8918530639153903 -0.5133828253133546
7.7878125 0.8898966560217743 -0.5130428214671383
7.7889609375 0.8837054364929009 -0.5156003152442974
7.790109375 0.8820796573500956 -0.518913355048704
7.7912578125 0.880155783846376 -0.5209437098210667
7.79240625 0.8787909294535707 -0.5263367353595764
7.7935546875 0.8782277761663477 -0.5294223320479183
7.794703125 0.8774670180934432 -0.5320832027575683
7.7958515625 0.8755512761793984 -0.5332783335219531
7.797 0.8710228948213351 -0.5324718110825315
7.7981484375 0.8664806966452858 -0.5369496866900518
7.799296875 0.8612581629889893 -0.5381934123376958
7.8004453125 0.858317362573553 -0.5403301955963329
7.80159375 0.8590332094457047 -0.5400717168230527
7.8027421875 0.8568999019037042 -0.5418527781261007
7.803890625 0.8538703462039938 -0.5432388138063304
7.8050390625 0.8518809012548326 -0.5432832569842886
7.8061875 0.8517726975518838 -0.5411336392607009
7.8073359375 0.8479590028919071 -0.5420477521709163
7.808484375 0.8479358343749674 -0.5426213695244619
7.8096328125 0.8408846233911534 -0.5450495454160951
7.81078125 0.8422089556521837 -0.5465550247202983
7.8119296875 0.8393638366071047 -0.5469148895271055
7.813078125 0.8385824014864565 -0.5476488290774744
7.8142265625 0.8379109980898003 -0.5465918644116785
7.815375 0.8333355941525941 -0.5471943274988444
7.8165234375 0.8325888730100492 -0.5476784530957
7.817671875 0.8332291140284079 -0.5475391602245258
7.8188203125 0.8318772248541871 -0.5460850669488263
7.81996875 0.8309141736287619 -0.5474515424873865
7.8211171875 0.8283162577917166 -0.5502164087608479
7.822265625 0.8274346665698948 -0.5520015229756873
7.8234140625 0.8252778489790453 -0.5536067506229972
7.8245625 0.8234583041718089 -0.5523628390924123
7.8257109375 0.8216858615953611 -0.552548411887659
7.826859375 0.8146273320987503 -0.5519383136793747
7.8280078125 0.8156595328373328 -0.5549208072165674
7.82915625 0.8143424162214801 -0.5531195580508448
7.8303046875 0.8134081772412342 -0.5523688089292271
7.831453125 0.8087967132210458 -0.5518694355873417
7.8326015625 0.8076863809933243 -0.5521565445508534
7.83375 0.8054237489201538 -0.551799434577854
7.8348984375 0.8080245423491341 -0.550374249279562
7.836046875 0.806828811846037 -0.5486489675621203
7.8371953125 0.8052997144477005 -0.5499041401315115
7.83834375 0.8058500080444057 -0.5488336194997949
7.8394921875 0.7995947722095452 -0.5484020982686006
7.840640625 0.8018269390260145 -0.5456029950559494
7.8417890625 0.8016263675724782 -0.5449643239491724
7.8429375 0.8017532949371368 -0.5447391642804362
7.8440859375 0.8011108712912742 -0.544457536532781
7.845234375 0.7998565665833894 -0.5481443244355342
7.8463828125 0.8032544575110938 -0.5411473808977187
7.84753125 0.804701229964226 -0.540100916301995
7.8486796875 0.8091335983029369 -0.5437961951909157
7.849828125 0.8118512804146064 -0.5411513039396233
7.8509765625 0.8103539447857371 -0.5450554107541634
7.852125 0.8106509945159461 -0.5459620050553458
7.8532734375 0.8124733501107599 -0.5430229017272716
7.854421875 0.8108824894902316 -0.5417136601967227
7.8555703125 0.8134830447854962 -0.5423882545046746
7.85671875 0.8123738811409862 -0.5452563923132405
7.8578671875 0.8168214386753266 -0.5489126037399202
7.859015625 0.8194144399090313 -0.5497612011226694
7.8601640625 0.8184888515282154 -0.5493450399684768
7.8613125 0.8194580919161125 -0.5510254008863607
7.8624609375 0.8172263866323892 -0.5545042789442214
7.863609375 0.8195209078635903 -0.5565277067727286
7.8647578125 0.8218252702253575 -0.5589509200123339
7.86590625 0.8223007407392962 -0.5571777955439816
7.8670546875 0.8217074187518332 -0.5566167950403023
7.868203125 0.8227263735105308 -0.5585521429412963
7.8693515625 0.8190507533426308 -0.5607633242261035
7.8705 0.8217321609844702 -0.5621526868227048
7.8716484375 0.8195173561789025 -0.5670564590187115
7.872796875 0.8194946377237136 -0.5698620133595058
7.8739453125 0.8205058081361211 -0.568729730500253
7.87509375 0.8201953329165053 -0.570710954949037
7.8762421875 0.8225620165474548 -0.5703878318467238
7.877390625 0.8240542054357832 -0.572983887960063
7.8785390625 0.8223188815656735 -0.5723353709571485
7.8796875 0.8220779239475465 -0.5777570020202172
7.8808359375 0.8196982838440584 -0.5805850403633463
7.881984375 0.8208846027240513 -0.5856918040719372
7.8831328125 0.8196600686252353 -0.5866024745787427
7.88428125 0.8192776450935191 -0.5910410579279903
7.8854296875 0.819951404793096 -0.5929076639816038
7.886578125 0.8183242894488922 -0.5946784785410468
7.8877265625 0.816473199041644 -0.5965488906845857
7.888875 0.8164815413590635 -0.599179709219086
7.8900234375 0.8177910395906658 -0.6016564346749982
7.891171875 0.8152815003523708 -0.6060679190440341
7.8923203125 0.8155378415545755 -0.6072210984821125
7.89346875 0.8138190579659755 -0.6122409401098453
7.8946171875 0.8157491291525351 -0.6141061019639198
7.895765625 0.8135881882794026 -0.6128644843742125
7.8969140625 0.8119017810747197 -0.6123603835968467
7.8980625 0.8087619256159546 -0.6166968444264987
7.8992109375 0.806469467873273 -0.6188126162020336
7.900359375 0.8060620879127434 -0.620797091888332
7.9015078125 0.8062397059466297 -0.6248392710525109
7.90265625 0.8024491630297363 -0.6292385357428905
7.9038046875 0.80304975464987 -0.6302848413627127
7.904953125 0.7994723017005563 -0.6313639102266357
7.9061015625 0.7976531623151081 -0.6351033444223245
7.90725 0.7996221649144465 -0.6343689612017377
7.9083984375 0.8006223670238117 -0.6344745329459731
7.909546875 0.7962017437951008 -0.6362695821658845
7.9106953125 0.7882139448919194 -0.6380737268200132
7.91184375 0.7891840986452541 -0.6373174629654942
7.9129921875 0.7876384789573314 -0.6384692772616491
7.914140625 0.7892363729356644 -0.6407941833147983
7.9152890625 0.7873168472326092 -0.6392951648678219
7.9164375 0.7820523105265791 -0.643179909469511
7.9175859375 0.7853086103244242 -0.6415019209866623
7.918734375 0.7859966687076965 -0.6455668410049895
7.9198828125 0.7831461693224269 -0.6466260260343739
7.92103125 0.7843829818910222 -0.6466749019623576
7.9221796875 0.7833415847937933 -0.6529350205741172
7.923328125 0.7828339688300329 -0.6511714211847478
7.9244765625 0.7792878613458791 -0.6511742034848852
7.925625 0.7746619696474691 -0.6532288450884666
7.9267734375 0.7774168503505459 -0.6587838688232475
7.927921875 0.7721038881369116 -0.658936829034326
7.9290703125 0.7710747427606147 -0.6617944631873011
7.93021875 0.7690415592422274 -0.6607540858242985
7.9313671875 0.7663161787191599 -0.6642526362715304
7.932515625 0.7634970796928475 -0.6646808524361849
7.9336640625 0.761040258079235 -0.6645399137555743
7.9348125 0.7576545128019179 -0.6678367181630519
7.9359609375 0.7600972711974032 -0.6696328527218736
7.937109375 0.7584687542112726 -0.6704561580981261
7.9382578125 0.7555874151923347 -0.6681356826457884
7.93940625 0.7564015757450905 -0.6699716384811287
7.9405546875 0.7536337793091258 -0.6734242382939634
7.941703125 0.7531895466399199 -0.6754834972101218
7.9428515625 0.7523601545787679 -0.676390087598834
7.944 0.7533933349047972 -0.6773818914552467
7.9451484375 0.75176898555772 -0.6773081392246899
7.946296875 0.744432408121371 -0.6794243420217557
7.9474453125 0.7475766947620968 -0.6800038908369966
7.94859375 0.7447773754325124 -0.6802666671127187
7.9497421875 0.7424382731774749 -0.6790225866018046
7.950890625 0.7429103877081489 -0.6804542542928569
7.9520390625 0.7379103088497602 -0.6834157784285435
7.9531875 0.73852757909293 -0.6817770536055028
7.9543359375 0.7342662424634995 -0.6813863291704543
7.955484375 0.7333124965541433 -0.6816336395147456
7.9566328125 0.7326231686338607 -0.6854901265227967
7.95778125 0.7295141608940746 -0.6881388511941688
7.9589296875 0.7285803501857732 -0.686421653065297
7.960078125 0.7322727403611112 -0.6811092276713175
7.9612265625 0.7287252751044688 -0.6806956077477041
7.962375 0.7281204403426073 -0.6843411775779407
7.9635234375 0.7263106487561973 -0.6848727030528409
7.964671875 0.7288632956368919 -0.6851515389084468
7.9658203125 0.7270929385242464 -0.6864381099989272
7.96696875 0.727491636147531 -0.6900662265127218
7.9681171875 0.7243725675122977 -0.6883189338464752
7.969265625 0.7200981156310755 -0.6870373319620139
7.9704140625 0.7187140950509403 -0.6906743399865931
7.9715625 0.7180508328283679 -0.6919842942774314
7.9727109375 0.7204740499317454 -0.6952446168228862
7.973859375 0.7202286930622452 -0.6939412844073526
7.9750078125 0.719184568912947 -0.6950702915260072
7.97615625 0.7165776753058674 -0.6985387421207361
7.9773046875 0.7143862225691155 -0.7005035321330946
7.978453125 0.7172585234968061 -0.7087209994515282
7.9796015625 0.7173475967951647 -0.7020743019464818
7.98075 0.7197640593686869 -0.7049217717723884
7.9818984375 0.713219324138533 -0.7081425940249805
7.983046875 0.7135283968080262 -0.7069751492064171
7.9841953125 0.7156259130329716 -0.7066896817842598
7.98534375 0.715186623737583 -0.7078485776524637
7.9864921875 0.7192704915803887 -0.7102197415604924
7.987640625 0.7149206976063109 -0.7145804304593868
7.9887890625 0.7110441644815615 -0.7135334512264411
7.9899375 0.7114409448701867 -0.7148439005121173
7.9910859375 0.7134531508592636 -0.7166913870082332
7.992234375 0.7069446769489818 -0.7200659157404226
7.9933828125 0.702832072502462 -0.7217662479228629
7.99453125 0.7035034092829735 -0.7220420613735313
7.9956796875 0.7027960276760061 -0.7188579752360401
7.996828125 0.7011042466354507 -0.719251293566366
7.9979765625 0.697942832516762 -0.7157099244540456
7.999125 0.6962711261575033 -0.7191229364726899
8.0002734375 0.6926058351408841 -0.7234127679204609
8.001421875 0.6929385922824698 -0.7232955438806394
8.0025703125 0.6987196652119063 -0.7223829482955559
8.00371875 0.692628976954673 -0.7262224281482795
8.0048671875 0.6886495832115338 -0.7252920079702279
8.006015625 0.6904536792188671 -0.7257526255734348
8.0071640625 0.6904875240122761 -0.7261859874368581
8.0083125 0.68900744512099 -0.7303688761988243
8.0094609375 0.6887103516711446 -0.7296991407514799
8.010609375 0.6924580702113289 -0.731516740051307
8.0117578125 0.6867693854182835 -0.7317422491691443
8.01290625 0.6870776502290714 -0.7329033880195284
8.0140546875 0.6825455185553039 -0.7349011489280602
8.015203125 0.6808265420593228 -0.7341756336341076
8.0163515625 0.681059884055427 -0.7383019124366388
8.0175 0.6772475612243044 -0.7347566886699484
8.0186484375 0.6788863602004709 -0.7362299203408484
8.019796875 0.6801463442685108 -0.740980989036727
8.0209453125 0.6778920981656748 -0.7381309341925018
8.02209375 0.6774180183431466 -0.7392025381418863
8.0232421875 0.6768018089438029 -0.7385134303354882
8.024390625 0.6747554414747856 -0.7382834168789438
8.0255390625 0.6760658300459179 -0.7410252293819454
8.0266875 0.676617488702988 -0.7410570011068931
8.0278359375 0.6733200352192791 -0.7433358469649024
8.028984375 0.6694223351810573 -0.7408429554726981
8.0301328125 0.6663536827720355 -0.742692879485468
8.03128125 0.6706314252011002 -0.7404429716178461
8.0324296875 0.6709383818526 -0.7381506803990462
8.033578125 0.6703305505774277 -0.7436841389473111
8.0347265625 0.6678441187134401 -0.741184094596817
8.035875 0.6654624491596077 -0.7445392784575651
8.0370234375 0.6639247246762776 -0.7445238168333048
8.038171875 0.6683971125091444 -0.7426971496650421
8.0393203125 0.6647053026959167 -0.742889683149466
8.04046875 0.6617476200439433 -0.7465525580128138
8.0416171875 0.6555476242468443 -0.749681692653716
8.042765625 0.6601292309316682 -0.7477323833292369
8.0439140625 0.6541478206186276 -0.7512834806841054
8.0450625 0.657455043336657 -0.7546526082043019
8.0462109375 0.6558406102263696 -0.7547354625875455
8.047359375 0.6494832081541 -0.7551889733036543
8.0485078125 0.6505232659890035 -0.7539569586042283
8.04965625 0.6484428751994811 -0.7522556291679776
8.0508046875 0.6470899818846536 -0.7557267731762936
8.051953125 0.6449259600859103 -0.7519391757212674
8.0531015625 0.6429063777499867 -0.754729868167528
8.05425 0.6405935928858597 -0.7521298010430482
8.0553984375 0.6429861019014151 -0.7516809141710851
8.056546875 0.641636795168487 -0.7519227300034454
8.0576953125 0.6376038722577299 -0.7532747842162937
8.05884375 0.633771732455132 -0.7560255022257555
8.0599921875 0.6352614611844812 -0.7543337020047249
8.061140625 0.6333112591582883 -0.7537739028823478
8.0622890625 0.6337893516456579 -0.7535558778214907
8.0634375 0.63432264156292 -0.7582874619057061
8.0645859375 0.6325396842711342 -0.7595525399185807
8.065734375 0.6323810709291391 -0.7597897593878753
8.0668828125 0.6337465029577538 -0.7595580448082271
8.06803125 0.6300578030901858 -0.758795504146088
8.0691796875 0.6287160170339041 -0.7616881097249146
8.070328125 0.6307344761813014 -0.7612443732507339
8.0714765625 0.624639644177052 -0.7650950820790605
8.072625 0.6249673881385488 -0.7664891710692767
8.0737734375 0.6252279757854159 -0.765473157613732
8.074921875 0.6247546458116203 -0.7656469183286061
8.0760703125 0.6236389178644951 -0.7707282083200253
8.07721875 0.6201698920446175 -0.7714129487234359
8.0783671875 0.6234741318343253 -0.7736458512106654
8.079515625 0.6198671583765091 -0.7732389994362098
8.0806640625 0.6211376091603455 -0.7756462739237924
8.0818125 0.6182002259801002 -0.7765160016692374
8.0829609375 0.6150362492969483 -0.7796264746954811
8.084109375 0.6139073318877712 -0.7816749021497398
8.0852578125 0.6131123741264393 -0.781439137354175
8.08640625 0.6123597261491386 -0.7857927667769942
8.0875546875 0.6118564673198159 -0.784605052385325
8.088703125 0.6108702088349668 -0.7817231697379712
8.0898515625 0.6113453309351454 -0.7835557131570603
8.091 0.6120390635627746 -0.7842678893023887
8.0921484375 0.6111873234500373 -0.7841255867463423
8.093296875 0.610868638589805 -0.7831671319201379
8.0944453125 0.6057817137244866 -0.7896216517110992
8.09559375 0.6096279476627278 -0.7860759306920191
8.0967421875 0.6064183994966555 -0.7887155542719486
8.097890625 0.6091533456672397 -0.7876044288956424
8.0990390625 0.6091419141399954 -0.7929192969782359
8.1001875 0.6043801054863577 -0.7937501464065473
8.1013359375 0.6053544549747181 -0.7921285236383202
8.102484375 0.6062280109668763 -0.7974206012014261
8.1036328125 0.6038440045409834 -0.7977041461561944
8.10478125 0.6006629266506082 -0.7976028392376089
8.1059296875 0.5981568362023623 -0.7933141645580642
8.107078125 0.5960211771409257 -0.799351374932484
8.1082265625 0.5970289935490353 -0.7942323122322859
8.109375 0.5991060744530096 -0.7957990191101483
8.1105234375 0.5972072168000743 -0.7973668870584559
8.111671875 0.600193056114603 -0.7970694280004385
8.1128203125 0.5926868354411569 -0.7971027823315019
8.11396875 0.5961734421113307 -0.8023637365179014
8.1151171875 0.6016346401198943 -0.8044899404461836
8.116265625 0.599634770503207 -0.8069301472465636
8.1174140625 0.5963037666530151 -0.8055956314913248
8.1185625 0.5914241198518734 -0.8020965137403847
8.1197109375 0.5957942619634191 -0.8033080149771514
8.120859375 0.595631797027423 -0.8112143604674192
8.1220078125 0.596873080806009 -0.8027767162917824
8.12315625 0.5942067229751177 -0.8041208139301034
8.1243046875 0.5859950151545595 -0.8110229854252529
8.125453125 0.5870757064262463 -0.8101965958420831
8.1266015625 0.5886522083061461 -0.8092221700515002
8.12775 0.5850664473407661 -0.8109585150195747
8.1288984375 0.5852229032664915 -0.8182387993486537
8.130046875 0.5834380519779894 -0.8138828233365429
8.1311953125 0.5826817866112394 -0.8164090041521711
8.13234375 0.5819579532473235 -0.8190147505153793
8.1334921875 0.5791641292704248 -0.8202392380584045
8.134640625 0.5755549764039355 -0.8177410212108313
8.1357890625 0.5707589341049444 -0.8210803362333557
8.1369375 0.5703692219795745 -0.8246482596606841
8.1380859375 0.5717082677293313 -0.8227150462144489
8.139234375 0.5702153413990743 -0.8234612998442512
8.1403828125 0.5683863019178158 -0.8237194264656169
8.14153125 0.5655455501361104 -0.8259261921643133
8.1426796875 0.5625128931881855 -0.8285263098648742
8.143828125 0.5626420621778481 -0.8289863374066823
8.1449765625 0.5600585041035585 -0.8280048297648128
8.146125 0.5619580891542612 -0.8309287766526932
8.1472734375 0.5608150453321888 -0.830733454908667
8.148421875 0.5559885866621391 -0.8326445283116408
8.1495703125 0.5584554498559592 -0.8326269394091811
8.15071875 0.5554446326924889 -0.8337176863769614
8.1518671875 0.5550912584677292 -0.8334630603503055
8.153015625 0.5534891096278265 -0.8308127595165428
8.1541640625 0.5495210210888335 -0.8351408589581811
8.1553125 0.5477028428147653 -0.8327423292558179
8.1564609375 0.5486646373390469 -0.8353631376903764
8.157609375 0.5471924810417315 -0.836005284326542
8.1587578125 0.5473098777607192 -0.8366009988550179
8.15990625 0.5402634101266095 -0.835439467926748
8.1610546875 0.5420971694554999 -0.8371027741237467
8.162203125 0.5427764233089319 -0.8356995526691628
8.1633515625 0.5442048002556253 -0.8400127483955555
8.1645 0.5414027012774666 -0.8379015056552489
8.1656484375 0.5376985691257525 -0.8380024768167158
8.166796875 0.5342625335868574 -0.8399506870011174
8.1679453125 0.5380433763261141 -0.841391706666974
8.16909375 0.5357543983158264 -0.8452738723753501
8.1702421875 0.5360319630179297 -0.8432609332307311
8.171390625 0.5327377276741221 -0.8473161840755016
8.1725390625 0.5309575868220284 -0.845966168535291
8.1736875 0.5304631892811242 -0.8439876325574214
8.1748359375 0.5289432501228725 -0.8434370999490011
8.175984375 0.5317432061088204 -0.8493269062464832
8.1771328125 0.5268684412749287 -0.8480461897172454
8.17828125 0.524765854219212 -0.8502757515873414
8.1794296875 0.5256391954273549 -0.8497843958392204
8.180578125 0.5250749094552523 -0.8516813824702204
8.1817265625 0.5235509335899918 -0.8528924783688746
8.182875 0.5219958754867821 -0.8518274175740347
8.1840234375 0.5154025291025472 -0.8525031785755901
8.185171875 0.5230034090666509 -0.8573329275081596
8.1863203125 0.5229374971626646 -0.8572618142246275
8.18746875 0.5216802098751514 -0.853832882290148
8.1886171875 0.518844276329882 -0.8562781840684052
8.189765625 0.5162689120473088 -0.8590802720144612
8.1909140625 0.5159451420607162 -0.8575493567777033
8.1920625 0.5150152348069048 -0.8611957489385507
8.1932109375 0.5128319256777407 -0.8616461895665493
8.194359375 0.5092398205026516 -0.85981164231877
8.1955078125 0.5075083024148604 -0.8582359064537608
8.19665625 0.5083968024667603 -0.8629151836587368
8.1978046875 0.511014013608507 -0.8651642352726971
8.198953125 0.5092002176117914 -0.8649089464469448
8.2001015625 0.5066962202542097 -0.8637222001567781
8.20125 0.5065616157596047 -0.8660167848724096
8.2023984375 0.5030825370953738 -0.8635213260089413
8.203546875 0.5045742945296562 -0.8628469928987932
8.2046953125 0.5032345150096718 -0.8648147252322216
8.20584375 0.5019193225782018 -0.8619541752498816
8.2069921875 0.5036558505382186 -0.8644668047709236
8.208140625 0.4980865882667723 -0.8670334683822475
8.2092890625 0.49710519588227564 -0.8646630989316063
8.2104375 0.49512570581590964 -0.8666655022797788
8.2115859375 0.4958669827572393 -0.8673338677473816
8.212734375 0.49609135587539344 -0.8709089463647617
8.2138828125 0.4893846478813526 -0.8683443599130797
8.21503125 0.4894577407901153 -0.8718440443496552
8.2161796875 0.49114977606892773 -0.8705211015390252
8.217328125 0.49306770484311657 -0.8701829905646504
8.2184765625 0.48648469093815416 -0.8707924413522588
8.219625 0.4837751728964338 -0.8748940099974468
8.2207734375 0.485734133753838 -0.874919662464789
8.221921875 0.48277065046384404 -0.8753716498010704
8.2230703125 0.4788840639119104 -0.8774312437451645
8.22421875 0.4776453547457895 -0.875199715521168
8.2253671875 0.47323393592012686 -0.876763756585689
8.226515625 0.47644638048367227 -0.8771176102788657
8.2276640625 0.4735114553555104 -0.8790268098946555
8.2288125 0.4753221692291374 -0.8752136943659534
8.2299609375 0.47277969942434395 -0.8785563468318862
8.231109375 0.46655726028428446 -0.8795617743965162
8.2322578125 0.4673811503532854 -0.8769617201881232
8.23340625 0.47046250601244644 -0.8784972435031659
8.2345546875 0.46823290193532685 -0.8835450911614751
8.235703125 0.46658065423429174 -0.8849689455482735
8.2368515625 0.46338274734152274 -0.8872892349895307
8.238 0.4614647122555935 -0.8822155887447125
8.2391484375 0.46291966047250455 -0.8830816764120228
8.240296875 0.4632494045597658 -0.8874821187004855
8.2414453125 0.4627256446910132 -0.8888347894134914
8.24259375 0.458775172637653 -0.889696373649153
8.2437421875 0.4576030842227927 -0.8895198029279037
8.244890625 0.45756869305298475 -0.8895905279445491
8.2460390625 0.45613049959711893 -0.8907434984235825
8.2471875 0.45553988114246535 -0.8898929794298109
8.2483359375 0.4549551607825707 -0.8901566734818362
8.249484375 0.4474206716871868 -0.889891700141848
8.2506328125 0.4513668090002747 -0.8924278304560698
8.25178125 0.45379105337727343 -0.8923443202551338
8.2529296875 0.4504696158086787 -0.899302461872707
8.254078125 0.4495432650484993 -0.8967708129334457
8.2552265625 0.446693886298405 -0.8983823558191624
8.256375 0.4487174233615415 -0.9011761550957761
8.2575234375 0.4472205603199323 -0.9012852316571124
8.258671875 0.4468000935624987 -0.8985909576633027
8.2598203125 0.44347498186208945 -0.8994521832423843
8.26096875 0.4349712702441457 -0.9004826566602596
8.2621171875 0.43966458947898346 -0.9009749217323861
8.263265625 0.4364889990612313 -0.9002473558665806
8.2644140625 0.43997996032380415 -0.8996063946580495
8.2655625 0.4419936602653616 -0.9009819001838429
8.2667109375 0.43228372922625224 -0.9031923160843385
8.267859375 0.43389069900486166 -0.9015846331411371
8.2690078125 0.43732544005750584 -0.9029877597197853
8.27015625 0.439270352712103 -0.9017636186632757
8.2713046875 0.4391718125174112 -0.9047085567953944
8.272453125 0.43268485050372574 -0.9060852990823668
8.2736015625 0.4317956269277885 -0.90631042109238
8.27475 0.43097645819316077 -0.9052562517166036
8.2758984375 0.43103091792121373 -0.904220946947784
8.277046875 0.4303301671249591 -0.9054238534272332
8.2781953125 0.42849218868725514 -0.909487607819861
8.27934375 0.42539450353633734 -0.9082450623834118
8.2804921875 0.4260424518518289 -0.9073168364960624
8.281640625 0.4267021109714997 -0.908170581017159
8.2827890625 0.4263174306278783 -0.9064622574956636
8.2839375 0.42572901790958206 -0.906836756127596
8.2850859375 0.4222162513526917 -0.9096079615983963
8.286234375 0.4223234630954491 -0.9097719687267916
8.2873828125 0.4204684820526806 -0.9097835213979866
8.28853125 0.41835997838831884 -0.9092486101916901
8.2896796875 0.41832056867102063 -0.9110834065287963
8.290828125 0.41166230386890534 -0.911430869318703
8.2919765625 0.41205495970696626 -0.909526187170136
8.293125 0.4137571252858063 -0.9125465566150189
8.2942734375 0.4123739236048486 -0.9132575917344699
8.295421875 0.40903606382561664 -0.9144150693256616
8.2965703125 0.40275742784357077 -0.9143924470908329
8.29771875 0.4060170404779959 -0.9169072141200567
8.2988671875 0.4072063221347818 -0.9152316107948395
8.300015625 0.40490293785218506 -0.9166466175692531
8.3011640625 0.403359428588633 -0.9181968217993463
8.3023125 0.40008480539018165 -0.9184269322264185
8.3034609375 0.4009342859634432 -0.9177202204417401
8.304609375 0.4017799769242148 -0.917051806791181
8.3057578125 0.4005690369782752 -0.9173338602922295
8.30690625 0.39678651073565796 -0.9170376362693887
8.3080546875 0.3940929868191627 -0.9173582482492126
8.309203125 0.39409251979666815 -0.9182368389116493
8.3103515625 0.3908038929418816 -0.9175422690547883
8.3115 0.3931662267616156 -0.9178236137517941
8.3126484375 0.39107279218166846 -0.9188224992013666
8.313796875 0.3858803487966912 -0.920097223208195
8.3149453125 0.3855131413433476 -0.9238641711470452
8.31609375 0.38533910044844855 -0.9242298078094573
8.3172421875 0.3846875009223563 -0.9261796776294782
8.318390625 0.38080979550447214 -0.9232698006116953
8.3195390625 0.3796956332464746 -0.9258820556848746
8.3206875 0.3753795714158251 -0.9264126801463676
8.3218359375 0.37957579535010605 -0.9264636447412267
8.322984375 0.3799234566874467 -0.9280296150271775
8.3241328125 0.3782140573584804 -0.9294015195141423
8.32528125 0.37573466757643553 -0.9274235240204853
8.3264296875 0.3665194061023528 -0.9311462251843483
8.327578125 0.3713344937505612 -0.9318198028782856
8.3287265625 0.3682796487447235 -0.9313383354080984
8.329875 0.36946707800702255 -0.9357967781311818
8.3310234375 0.3658648758553778 -0.9326975519467663
8.332171875 0.3652796456823713 -0.9310718878759761
8.3333203125 0.3640358443989383 -0.9328820129542547
8.33446875 0.36224001765310304 -0.9365281935369238
8.3356171875 0.36470916512802837 -0.9375491165470844
8.336765625 0.35962699188681047 -0.9387184184631548
8.3379140625 0.35841789261993684 -0.938704048347531
8.3390625 0.3552185854058409 -0.9419793984809706
8.3402109375 0.3538187682332046 -0.9440709108023613
8.341359375 0.3559016858993898 -0.9425566491661933
8.3425078125 0.35369679687120625 -0.9416091668800531
8.34365625 0.3528227738826228 -0.9432906246606712
8.3448046875 0.35198706211450714 -0.9451318272004736
8.345953125 0.3531286616466976 -0.9478536116619793
8.3471015625 0.352290339729499 -0.9468325052880776
8.34825 0.3493577651651402 -0.946568710819179
8.3493984375 0.35122814605866126 -0.9472098001571646
8.350546875 0.34793233278896846 -0.9460636116553035
8.3516953125 0.3468728680507273 -0.9470898190891205
8.35284375 0.3469917054315271 -0.9461843307859151
8.3539921875 0.34634118226291494 -0.9447852962899206
8.355140625 0.34325934751119297 -0.9464106995238539
8.3562890625 0.34372122913882114 -0.9445333618893
8.3574375 0.3442390021328481 -0.9454735468032625
8.3585859375 0.338878544344846 -0.9507192432122067
8.359734375 0.33854386674235004 -0.9520480047266209
8.3608828125 0.33959863501514664 -0.9514427515824387
8.36203125 0.33760522656795394 -0.9525809894682258
8.3631796875 0.33705753067932676 -0.9526135042312436
8.364328125 0.3353016226659301 -0.951677297507385
8.3654765625 0.3351842837957886 -0.9524924676353617
8.366625 0.3353254100622647 -0.9529555303836107
8.3677734375 0.3299640811642657 -0.9522995324796029
8.368921875 0.3285442810415835 -0.9535731166645863
8.3700703125 0.330730453615653 -0.9557930903029764
8.37121875 0.327951964175373 -0.9542648988993236
8.3723671875 0.32935389299761675 -0.9551895166875806
8.373515625 0.32406663773926225 -0.9559195952943863
8.3746640625 0.3214594747148102 -0.9560248953152427
8.3758125 0.3210040913640404 -0.9564465815238038
8.3769609375 0.31975128659679863 -0.9549320126129605
8.378109375 0.32107276168861565 -0.9590005892848543
8.3792578125 0.3203945424803968 -0.9576393876397782
8.38040625 0.317569532664732 -0.9575169309995031
8.3815546875 0.31609209590887366 -0.9581894397647313
8.382703125 0.313289107107218 -0.9591284275786859
8.3838515625 0.31208534938703225 -0.9587530409217073
8.385 0.3112681787491851 -0.9609452028419748
8.3861484375 0.30677042427331613 -0.9589427113619382
8.387296875 0.3070600538863877 -0.9621186764499239
8.3884453125 0.3038960440616021 -0.9603632130454309
8.38959375 0.3028806590372115 -0.961097941984043
8.3907421875 0.3042709167476253 -0.962313408928802
8.391890625 0.2991714839048002 -0.9625566070880112
8.3930390625 0.3000093096673023 -0.9631914944924866
8.3941875 0.29838433183758084 -0.9646274454652608
8.3953359375 0.2988946711752344 -0.9646680252301894
8.396484375 0.29785233024059976 -0.9678275216604952
8.3976328125 0.2936339595642202 -0.9647406616371869
8.39878125 0.29568503889031506 -0.9663933296755938
8.3999296875 0.29475059509322943 -0.9651351895076558
8.401078125 0.2928541028160836 -0.9659595954825082
8.4022265625 0.29054109250537374 -0.9665445265780823
8.403375 0.2860384980887771 -0.9659773712136669
8.4045234375 0.28585401911007235 -0.9670299220398764
8.405671875 0.28662533920195954 -0.9696757808389715
8.4068203125 0.2850500362058147 -0.9696034579480786
8.40796875 0.28286056852697605 -0.96868603335682
8.4091171875 0.2802793197840969 -0.9676700991177236
8.410265625 0.2789828470562363 -0.9692170953679201
8.4114140625 0.2789845083925936 -0.9705754713071062
8.4125625 0.2795292779935318 -0.9711149941910997
8.4137109375 0.2765915570906995 -0.9698912814027856
8.414859375 0.2752611026937931 -0.9726295985908232
8.4160078125 0.2730152869142429 -0.972557747608924
8.41715625 0.27432201228670305 -0.9744537265185894
8.4183046875 0.2716989405924466 -0.9731994967416372
8.419453125 0.2706610284277987 -0.9745299769049398
8.4206015625 0.26940687154962506 -0.9737565971069984
8.42175 0.2671637095647904 -0.9748829969363269
8.4228984375 0.2672466289928661 -0.976396093983182
8.424046875 0.26718608578582986 -0.9759119787851408
8.4251953125 0.26460730265421967 -0.9771127006894293
8.42634375 0.264421442399644 -0.9764878736711221
8.4274921875 0.2603031796857199 -0.9782497719053822
8.428640625 0.2614141404649905 -0.9772938917993326
8.4297890625 0.26035878113303335 -0.97769797715368
8.4309375 0.2579166622505794 -0.9797265270556632
8.4320859375 0.2582800334892411 -0.9788758594281217
8.433234375 0.25459493894356167 -0.9791012829700353
8.4343828125 0.25482338900480567 -0.980241209413564
8.43553125 0.25394101655191686 -0.9825301216545473
8.4366796875 0.25320072044141684 -0.9831700838408071
8.437828125 0.25157464672167795 -0.9835562491947216
8.4389765625 0.24827832242136755 -0.9834265074607315
8.440125 0.24811085679947792 -0.9821281558872593
8.4412734375 0.249104642286893 -0.9837384093903934
8.442421875 0.24730816899334868 -0.9843731938489557
8.4435703125 0.24623198736213592 -0.9855319308318918
8.44471875 0.24439516777310571 -0.9859886061146084
8.4458671875 0.24252514989101842 -0.9864569589287331
8.447015625 0.24249016795170159 -0.9871814030535212
8.4481640625 0.2419348327447059 -0.9871078579451954
8.4493125 0.23825389590963025 -0.9872105744322113
8.4504609375 0.236143371981892 -0.9895322852533532
8.451609375 0.23427402845458978 -0.9890761887974144
8.4527578125 0.23596569813396112 -0.9900886905726092
8.45390625 0.23509014415779717 -0.989981902690565
8.4550546875 0.23300024904332894 -0.9915433606692996
8.456203125 0.23190997911237815 -0.9900181045585802
8.4573515625 0.22831045530072164 -0.9935545312288281
8.4585 0.22765087200507156 -0.9937436506963977
8.4596484375 0.22746475161089724 -0.9933287899273258
8.460796875 0.2254234585445845 -0.9923773502771368
8.4619453125 0.22451802227725437 -0.9947381768761009
8.46309375 0.2219099009939136 -0.9952949903763112
8.4642421875 0.220322573892891 -0.9970732516116223
8.465390625 0.2198840688276416 -0.9962503257909922
8.4665390625 0.2172783634861506 -0.9975842155796516
8.4676875 0.21447203833573608 -0.998295656723466
8.4688359375 0.21138919784105842 -0.9968443952312026
8.469984375 0.21166484464159996 -0.9967513916166446
8.4711328125 0.20805676761728642 -1.000039426462671
8.47228125 0.20747372373359269 -1.0000404004941252
8.4734296875 0.2080640751887491 -0.999685491280051
8.474578125 0.20445565770474422 -0.9996032445636874
8.4757265625 0.2024152939055796 -1.000456310608587
8.476875 0.20113890057444267 -0.9997593396528387
8.4780234375 0.19936996961850073 -1.0012975312134114
8.479171875 0.19554780633826785 -1.0026689173840517
8.4803203125 0.19613465281305803 -1.0036567389363042
8.48146875 0.19306158283522767 -1.0025711834912032
8.4826171875 0.19010378798589078 -1.0034999504039994
8.483765625 0.18939074308026554 -1.0051938903410869
8.4849140625 0.18885522694642193 -1.0060214989065728
8.4860625 0.18476868316795547 -1.0053029748315532
8.4872109375 0.18150663129062927 -1.0046052367865075
8.488359375 0.1827979321751511 -1.0042286807882073
8.4895078125 0.18116254880016774 -1.0065828313904541
8.49065625 0.180204715133375 -1.0069355712717594
8.4918046875 0.17827684316931164 -1.0074966060588428
8.492953125 0.1739862829507084 -1.0075404506226473
8.4941015625 0.1745961275866199 -1.0073634584622235
8.49525 0.17202206064419495 -1.007627317780973
8.4963984375 0.17085934072513398 -1.0087435836052754
8.497546875 0.16838340054469847 -1.0062409089542
8.4986953125 0.1654809176318366 -1.0071967228475254
8.49984375 0.16663226367242656 -1.0065366094574235
8.5009921875 0.16656935387372235 -1.0093771569917651
8.502140625 0.16240955258125095 -1.0103240369706874
8.5032890625 0.16209632788593759 -1.0083003452563168
8.5044375 0.16147173288997674 -1.0086160695050668
8.5055859375 0.16190967030174075 -1.0083400738558703
8.506734375 0.16014046543219285 -1.0087045130306684
8.5078828125 0.15744561411949493 -1.0075708295718737
8.50903125 0.1551957071982395 -1.0053103064061562
8.5101796875 0.15356418797748883 -1.0067312208467725
8.511328125 0.15243331775924307 -1.004341530468036
8.5124765625 0.15287602585761606 -1.006769428105733
8.513625 0.15153981276935152 -1.0064485064802853
8.5147734375 0.15046731441610106 -1.007071772691405
8.515921875 0.1481873143647287 -1.0067277252281444
8.5170703125 0.1449195410240271 -1.0069631876335303
8.51821875 0.14625207266920948 -1.0075135033527154
8.5193671875 0.14485446013229614 -1.00645052368896
8.520515625 0.143446709855239 -1.0062002187920114
8.5216640625 0.14268946404775984 -1.0068861627561108
8.5228125 0.13897673344104 -1.0066606875509367
8.5239609375 0.14020919289958128 -1.0075557569097293
8.525109375 0.13937080522341272 -1.0080535357990479
8.5262578125 0.13633641550203263 -1.0069145380591358
8.52740625 0.13676941750678434 -1.0068490234203549
8.5285546875 0.1329647308088306 -1.006502244473902
8.529703125 0.13324991553478738 -1.0073058754779864
8.5308515625 0.13283102489584064 -1.0066676804106645
8.532 0.13016212648353265 -1.0078002331756453
8.5331484375 0.13031993466054598 -1.0080413423413324
8.534296875 0.12834844499479336 -1.0073787019793867
8.5354453125 0.12676462086349705 -1.0078918154799887
8.53659375 0.12467031001717344 -1.0088767534407224
8.5377421875 0.12534579319005662 -1.0090576188641696
8.538890625 0.12486254966879112 -1.0075360086186325
8.5400390625 0.12173911959625106 -1.0081847568523903
8.5411875 0.12083646045134788 -1.0085257392148228
8.5423359375 0.11990183428209955 -1.0091683869715795
8.543484375 0.11711249283791991 -1.0088064806702304
8.5446328125 0.11493511285976032 -1.0085996262911823
8.54578125 0.11522042562227403 -1.0086257109235597
8.5469296875 0.11079098356509598 -1.0094080695831944
8.548078125 0.11130523598819375 -1.0097081644999002
8.5492265625 0.10993563879207491 -1.0095610870175087
8.550375 0.10810152362259373 -1.0089298943203406
8.5515234375 0.10776749872461105 -1.0093479750933982
8.552671875 0.106425238972713 -1.009840865841348
8.5538203125 0.10618695172868126 -1.0102731176752453
8.55496875 0.10463881739156916 -1.0095456604897466
8.5561171875 0.10235985177754886 -1.010358952554865
8.557265625 0.10069613772957148 -1.0107273840470048
8.5584140625 0.09889504614447925 -1.0119864014696942
8.5595625 0.09785225933380176 -1.011057233717799
8.5607109375 0.09796044968033057 -1.0117055080522932
8.561859375 0.09593818136431126 -1.0123997851375384
8.5630078125 0.09361869250286631 -1.0117962262869307
8.56415625 0.09081870494878164 -1.0107437666273116
8.5653046875 0.0910718558234348 -1.0100537434340533
8.566453125 0.08880327101441554 -1.0108571187826108
8.5676015625 0.08707810231221264 -1.012706710592377
8.56875 0.08522908362053189 -1.0130327015207177
8.5698984375 0.08217515038184897 -1.0141938401893433
8.571046875 0.0821777028363962 -1.014152242713911
8.5721953125 0.08054621442660298 -1.0136236423510092
8.57334375 0.0784557010088292 -1.0139597620488687
8.5744921875 0.0773392344836279 -1.0138512359880263
8.575640625 0.07578504719121837 -1.01388978200663
8.5767890625 0.07380161661808093 -1.013656964301164
8.5779375 0.07116504022689879 -1.012826194612845
8.5790859375 0.07112050132968833 -1.0119078464904403
8.580234375 0.07061156899793358 -1.0131638191315453
8.5813828125 0.06723288504879077 -1.013328902801637
8.58253125 0.06597636940724799 -1.0123027295926585
8.5836796875 0.0653311953681498 -1.0110582106857735
8.584828125 0.06203375009819706 -1.0107659817670551
8.5859765625 0.06188388136558898 -1.0112463566556729
8.587125 0.06127699205451531 -1.0100100961803204
8.5882734375 0.0586425537228597 -1.0105234613413514
8.589421875 0.058590384381242144 -1.0106666848073047
8.5905703125 0.05887585060520578 -1.010138716008794
8.59171875 0.05746971810982948 -1.0106263510703137
8.5928671875 0.05564729317830111 -1.0105566324103863
8.594015625 0.053690074267855714 -1.0103595663194957
8.5951640625 0.053404706037683825 -1.009533885035913
8.5963125 0.051130483618754 -1.009606947057186
8.5974609375 0.05066466397506078 -1.0102944818779305
8.598609375 0.05037036932038852 -1.0093393784019886
8.5997578125 0.047895776881600016 -1.0086976618922678
8.60090625 0.04848414483700711 -1.0102591814130626
8.6020546875 0.04838605985762287 -1.0093499091472142
8.603203125 0.046839847273302926 -1.010130686269331
8.6043515625 0.04622715588094464 -1.0108112118623511
8.6055 0.04512551218682176 -1.0109323750972723
8.6066484375 0.04481164529074694 -1.0101028225994426
8.607796875 0.04328148197538606 -1.0109271475885038
8.6089453125 0.04295607256536832 -1.0106236463847187
8.61009375 0.04253996913867994 -1.0106133385127198
8.6112421875 0.04026769602335206 -1.0106663911395117
8.612390625 0.039588919624063745 -1.011599421166467
8.6135390625 0.0386197132793718 -1.0117714692868438
8.6146875 0.037692107153570575 -1.0128142488545302
8.6158359375 0.03577171873880064 -1.0134566840843071
8.616984375 0.03445532881293761 -1.0145966815901524
8.6181328125 0.033066537765582216 -1.0140529644630223
8.61928125 0.031553845919825435 -1.013465300642007
8.6204296875 0.02970201513443796 -1.0143324452258855
8.621578125 0.029188132869638644 -1.0137031180939937
8.6227265625 0.02728284837463643 -1.013881338073678
8.623875 0.02645210119889141 -1.0145147605779579
8.6250234375 0.025386751436060118 -1.0146837652797318
8.626171875 0.023234888333467096 -1.0157802766723258
8.6273203125 0.023342386109824392 -1.0173992985797502
8.62846875 0.02024013506618122 -1.0168329074274696
8.6296171875 0.018550686034236707 -1.0174613865393356
8.630765625 0.01753353453015738 -1.01660724448805
8.6319140625 0.017303817792857612 -1.0163576003372539
8.6330625 0.01454177306051796 -1.0162139953642908
8.6342109375 0.013269036587537975 -1.0165914296263687
8.635359375 0.010843956394656906 -1.0167383021665004
8.6365078125 0.010032388540788806 -1.0165080726950984
8.63765625 0.008446631597754273 -1.017108563488584
8.6388046875 0.007824584124656753 -1.0170946218041048
8.639953125 0.007487875290751567 -1.0175595942122102
8.6411015625 0.0052137324517984585 -1.018199757685053
8.64225 0.004873305127044036 -1.017914807749626
8.6433984375 0.0022897206956304927 -1.0190565531981481
8.644546875 0.0014597899773603484 -1.0178210769911624
8.6456953125 -0.0017317506595138088 -1.01913743555656
8.64684375 -0.0029233480175006044 -1.0190063499300634
8.6479921875 -0.004107431088916369 -1.019978910928982
8.649140625 -0.006086821730105996 -1.0202451642783967
8.6502890625 -0.006387317975155293 -1.0195283443200527
8.6514375 -0.006820912213644836 -1.020618651146195
8.6525859375 -0.010078399586577302 -1.0191038678461024
8.653734375 -0.011260840286691998 -1.0189951923546032
8.6548828125 -0.013231229895313334 -1.0197209005863919
8.65603125 -0.015784332947143487 -1.0204595870507733
8.6571796875 -0.016398466840055415 -1.0199857597767545
8.658328125 -0.017241522807189547 -1.019952150210488
8.6594765625 -0.019106945529979602 -1.0202847328537485
8.660625 -0.021409435212675965 -1.020601709900067
8.6617734375 -0.021970649707477308 -1.0200047666695036
8.662921875 -0.023685918223552094 -1.0207372673965156
8.6640703125 -0.02649119194147026 -1.0210886195677653
8.66521875 -0.027256637620630575 -1.020855479409484
8.6663671875 -0.027745546915390884 -1.0203005055304144
8.667515625 -0.02938267702824393 -1.0205532248529579
8.6686640625 -0.03116521102961395 -1.0205045365483492
8.6698125 -0.03358281865802221 -1.0206565354463855
8.6709609375 -0.03567643724394998 -1.0205932426497817
8.672109375 -0.03656778572042374 -1.020954228269806
8.6732578125 -0.03839378644877417 -1.02084976493586
8.67440625 -0.039525777036892196 -1.0207543717807568
8.6755546875 -0.041768124895876835 -1.0209288084975774
8.676703125 -0.04303703673878306 -1.0209964944316101
8.6778515625 -0.044805669301127726 -1.0204218804174157
8.679 -0.046737903683193416 -1.0201231783971914
8.6801484375 -0.047887086958483926 -1.0200781468981472
8.681296875 -0.049492914509391916 -1.0190058948297258
8.6824453125 -0.0516101320031192 -1.019311409122218
8.68359375 -0.051908378834651936 -1.0192239567875725
8.6847421875 -0.052229536459130504 -1.0193344611777782
8.685890625 -0.054425098760592594 -1.0188326945514885
8.6870390625 -0.05650709874257567 -1.0195644634819554
8.6881875 -0.058076322974877415 -1.0190322703357582
8.6893359375 -0.05899871902127224 -1.0193636892348754
8.690484375 -0.06035213232189529 -1.0192191615216013
8.6916328125 -0.06067554428549776 -1.019722966712003
8.69278125 -0.06215468569538518 -1.0193866967833056
8.6939296875 -0.06544416956618193 -1.0201531279324736
8.695078125 -0.06642057057533554 -1.0204511218013865
8.6962265625 -0.06752497088848902 -1.0206922834841128
8.697375 -0.06952789753355404 -1.0191459137622896
8.6985234375 -0.0719066780975923 -1.0197205013994894
8.699671875 -0.07321943799328068 -1.0183509835071638
8.7008203125 -0.07371207886649306 -1.019099726442087
8.70196875 -0.0758179923027083 -1.0181327417437869
8.7031171875 -0.07688783259876422 -1.0174743152445995
8.704265625 -0.07834016314785025 -1.0179629667868004
8.7054140625 -0.08132844158615848 -1.0171347588494888
8.7065625 -0.08107295019579067 -1.0182701359584059
8.7077109375 -0.08221432674028128 -1.017654261016493
8.708859375 -0.08428756041651424 -1.018113132745965
8.7100078125 -0.08491467489875124 -1.0177426463064947
8.71115625 -0.08651777483348722 -1.0173254833717493
8.7123046875 -0.0882378405746057 -1.0171615926645208
8.713453125 -0.09015879547595632 -1.017936318066373
8.7146015625 -0.09047370022260914 -1.0179850393125482
8.71575 -0.09305481216950814 -1.018017452822874
8.7168984375 -0.09552894623276681 -1.0180547098172914
8.718046875 -0.0954933703083942 -1.0184037360545721
8.7191953125 -0.09662599776101707 -1.0183737421336
8.72034375 -0.09833772922361503 -1.0181994016391283
8.7214921875 -0.09999269287896728 -1.0173960941555356
8.722640625 -0.10087276911359792 -1.0167026138340622
8.7237890625 -0.10360016869806438 -1.0163669474065289
8.7249375 -0.10482660930864039 -1.0167862237851897
8.7260859375 -0.1056339106489622 -1.0167201227150902
8.727234375 -0.10714353024890287 -1.0161097548604323
8.7283828125 -0.10946963162138418 -1.0162376038725744
8.72953125 -0.11082428209928159 -1.0156056148342192
8.7306796875 -0.11167686184259477 -1.01504650599759
8.731828125 -0.11445329217520306 -1.0144221736804147
8.7329765625 -0.11534287582186076 -1.0140966674182263
8.734125 -0.11588242759290512 -1.0139471652348067
8.7352734375 -0.11772797162841747 -1.0131651216554922
8.736421875 -0.1196746275986757 -1.0127560777347915
8.7375703125 -0.12019935748735762 -1.0120767827518757
8.73871875 -0.1211744098635682 -1.0125711109934945
8.7398671875 -0.12416423641598846 -1.0117677632797344
8.741015625 -0.12462258170114279 -1.0115039833482433
8.7421640625 -0.1258528654337473 -1.0112492976877443
8.7433125 -0.1280270283953377 -1.0102318240252721
8.7444609375 -0.1286900734096541 -1.009799041513598
8.745609375 -0.12928828382174645 -1.0092711594305903
8.7467578125 -0.13149363647300719 -1.0094640559283055
8.74790625 -0.13198967597657413 -1.0089898891898665
8.7490546875 -0.13337117260018158 -1.0088475829576034
8.750203125 -0.13457604925297767 -1.007525748734583
8.7513515625 -0.13633182344307496 -1.007495050870672
8.7525 -0.1376719231935251 -1.0075760081593248
8.7536484375 -0.1382719035460508 -1.0065987256878004
8.754796875 -0.13986509515767398 -1.0074267294174637
8.7559453125 -0.1395577883702554 -1.0054557400783055
8.75709375 -0.1400638099905147 -1.006601976746318
8.7582421875 -0.14253446919487398 -1.0051550442653945
8.759390625 -0.1422821782532767 -1.0049037808941443
8.7605390625 -0.14273371134218585 -1.0049917665496522
8.7616875 -0.1453349149346903 -1.0048191282350913
8.7628359375 -0.14613835784158838 -1.0041213644647846
8.763984375 -0.146669602978872 -1.005152065245856
8.7651328125 -0.1471501298749371 -1.004288170326696
8.76628125 -0.14795436117249006 -1.0038218488936013
8.7674296875 -0.14817719511788335 -1.0044411612260284
8.768578125 -0.1489255931471984 -1.0044594632534911
8.7697265625 -0.15061866831705328 -1.004846982979828
8.770875 -0.15050537334370215 -1.0053112116970182
8.7720234375 -0.15086645107684615 -1.0060485117365618
8.773171875 -0.15370325318286873 -1.0063655524661432
8.7743203125 -0.15484014446317595 -1.007027052221028
8.77546875 -0.15599147438487598 -1.007085265472869
8.7766171875 -0.15720291693167757 -1.0073405991881392
8.777765625 -0.15780019540202234 -1.0081502491531804
8.7789140625 -0.16028194080871677 -1.010024865851439
8.7800625 -0.16071273920380763 -1.009333593709847
8.7812109375 -0.1632273490432611 -1.0093374486113942
8.782359375 -0.16418974907205408 -1.0109136367198936
8.7835078125 -0.16520392804917516 -1.0119705196276434
8.78465625 -0.16764706139546248 -1.0120979142996598
8.7858046875 -0.16928209973850997 -1.0132023571136017
8.786953125 -0.1711579156419156 -1.0139383916660887
8.7881015625 -0.17417477612098387 -1.0134835241304812
8.78925 -0.17601828547087972 -1.014483529290989
8.7903984375 -0.176937101367 -1.014320239811756
8.791546875 -0.17986909018557687 -1.0148409335866306
8.7926953125 -0.18187518895359683 -1.014460865076884
8.79384375 -0.18371683318129736 -1.0146694948201227
8.7949921875 -0.18632171757076613 -1.0148815136052083
8.796140625 -0.18986048229942948 -1.0148535170341573
8.7972890625 -0.19198081600526753 -1.0138385804082377
8.7984375 -0.19374842507839218 -1.0130402665042635
8.7995859375 -0.19514757882103645 -1.0124024157717892
8.800734375 -0.19720775358202186 -1.0116977664924107
8.8018828125 -0.19840045265546555 -1.011758179383458
8.80303125 -0.199891383442897 -1.0110521100137753
8.8041796875 -0.20265136189116 -1.010608972967779
8.805328125 -0.2053626336540531 -1.0101835534968602
8.8064765625 -0.2070955473526674 -1.0093477682345031
8.807625 -0.20894023669359524 -1.0097326228901846
8.8087734375 -0.2100375663354498 -1.0088748080107017
8.809921875 -0.21100351199766362 -1.0091062271208169
8.8110703125 -0.21240774729473266 -1.0078145818919106
8.81221875 -0.21418209591442267 -1.0075858594189335
8.8133671875 -0.21556188912980306 -1.0076227064894825
8.814515625 -0.21737644824655314 -1.007892208626764
8.8156640625 -0.21891084694742857 -1.006462612761625
8.8168125 -0.22013841903384251 -1.0049910102620103
8.8179609375 -0.2211089498702375 -1.00498054694747
8.819109375 -0.22308640459281825 -1.0036274933448202
8.8202578125 -0.22409543322515185 -1.0043363643237153
8.82140625 -0.22537130206321052 -1.0034069165279527
8.8225546875 -0.2275917671198768 -1.0032419355892974
8.823703125 -0.22825986800309614 -1.0032748615932212
8.8248515625 -0.2301328679682648 -1.00202577470021
8.826 -0.2306938046531813 -1.002543493449627
8.8271484375 -0.2330040049958853 -1.0020789907598746
8.828296875 -0.23439372027981464 -1.0021518223112968
8.8294453125 -0.23564081060350733 -1.0008892646702805
8.83059375 -0.2378565093156533 -1.0001294779653485
8.8317421875 -0.2385819204071627 -1.001028628670952
8.832890625 -0.2402933713879612 -1.0002540311165218
8.8340390625 -0.24396018735147687 -0.9998574628342807
8.8351875 -0.24406858541703663 -0.9992161355799312
8.8363359375 -0.24519858876223843 -0.9984827712506665
8.837484375 -0.24709878392542212 -0.9983119908077096
8.8386328125 -0.24774563661840687 -0.9972201821350841
8.83978125 -0.24842283687806163 -0.997067695133603
8.8409296875 -0.2504250187283623 -0.99644287482038
8.842078125 -0.2515857599005091 -0.9963895954470929
8.8432265625 -0.2520277569103113 -0.9968749108636855
8.844375 -0.253272784623473 -0.9964910285906616
8.8455234375 -0.2555189804384792 -0.9950807223673029
8.846671875 -0.25561589704028365 -0.9952870259949329
8.8478203125 -0.2570568193902395 -0.9946172117472876
8.84896875 -0.26015807762197174 -0.9951837950198454
8.8501171875 -0.260576674978312 -0.9951560963235984
8.851265625 -0.2621513054557616 -0.9948482074916296
8.8524140625 -0.2640288304111703 -0.9943326441274905
8.8535625 -0.26495889596071553 -0.9939023269282019
8.8547109375 -0.26642535093201103 -0.9934267206466785
8.855859375 -0.2674094911783572 -0.9936361856746403
8.8570078125 -0.2703278537956847 -0.9934602478475921
8.85815625 -0.2722369409963881 -0.9930762988428598
8.8593046875 -0.27326965523895586 -0.9933666958473651
8.860453125 -0.27552882912292886 -0.9919825938298529
8.8616015625 -0.27615516080741287 -0.9926881563053831
8.86275 -0.27788136911859507 -0.9904826953135109
8.8638984375 -0.2814433103287922 -0.9897251362049082
8.865046875 -0.281682587143048 -0.9895215040193506
8.8661953125 -0.2831930232624754 -0.9895012582927516
8.86734375 -0.28372135967100665 -0.9896840067212204
8.8684921875 -0.28506039301251956 -0.9889440170927412
8.869640625 -0.28632647611741896 -0.9877177528259223
8.8707890625 -0.28706598905300823 -0.9879401215071268
8.8719375 -0.28968354954188785 -0.9874967720569945
8.8730859375 -0.29055281002543315 -0.9869793413971558
8.874234375 -0.291948777825242 -0.9869579404952973
8.8753828125 -0.2935641837238196 -0.9858387681939167
8.87653125 -0.29605008412011125 -0.9858621892169184
8.8776796875 -0.2979066206188169 -0.9851513091113608
8.878828125 -0.2989121068173971 -0.9848588939222942
8.8799765625 -0.3007813461550116 -0.9843603566437027
8.881125 -0.3022036658069486 -0.9838731313312254
8.8822734375 -0.3049461421088056 -0.9840652667674106
8.883421875 -0.30560493640562514 -0.9838709735468021
8.8845703125 -0.3061882173899033 -0.9828441922449287
8.88571875 -0.30812720052702347 -0.9830005790050003
8.8868671875 -0.31038276497720924 -0.9819463889807885
8.888015625 -0.3111091311675639 -0.98142477995156
8.8891640625 -0.312750855233878 -0.980387805475687
8.8903125 -0.31477770488331386 -0.9785339877401489
8.8914609375 -0.3155248251152112 -0.9789198528110055
8.892609375 -0.3171249253116469 -0.9779169997456149
8.8937578125 -0.3186473313457303 -0.9780014908813235
8.89490625 -0.3206348409232458 -0.9767633931938429
8.8960546875 -0.32105367960030223 -0.9761833155417112
8.897203125 -0.32260050264046947 -0.97743906479192
8.8983515625 -0.32461982791576927 -0.9759006422716398
8.8995 -0.32502046282556885 -0.9756376144533537
8.9006484375 -0.3256635897369068 -0.9753651214244701
8.901796875 -0.32796590258198655 -0.9745459817157346
8.9029453125 -0.3287563894809842 -0.9743259997642022
8.90409375 -0.33006170959468234 -0.9726324416408328
8.9052421875 -0.3326003099150415 -0.971759599749658
8.906390625 -0.3332810409609739 -0.971190825515263
8.9075390625 -0.3353855116498594 -0.9710922086996837
8.9086875 -0.3364194746162933 -0.9711295807824154
8.9098359375 -0.3382035522198269 -0.9708890275790472
8.910984375 -0.33906694945319876 -0.9705064401777354
8.9121328125 -0.3404027563692818 -0.9702256603516345
8.91328125 -0.3422051160004407 -0.9692520276592991
8.9144296875 -0.3422068996593688 -0.9689134590032982
8.915578125 -0.34362519459449475 -0.9689973762130831
8.9167265625 -0.34662143416328184 -0.9676437759085095
8.917875 -0.3479050734284207 -0.9675085745290353
8.9190234375 -0.3481082951423218 -0.9673541667075629
8.920171875 -0.35107294383907084 -0.9664841263229975
8.9213203125 -0.3517755699382887 -0.9662666375279401
8.92246875 -0.35332051981600704 -0.965475302390116
8.9236171875 -0.3547480648944675 -0.9659991478029044
8.924765625 -0.35691643809239987 -0.9652105550589791
8.9259140625 -0.3572808245586666 -0.9641334152520274
8.9270625 -0.35868031913318477 -0.963587883958018
8.9282109375 -0.3614718416608189 -0.9622852444020524
8.929359375 -0.362015340472513 -0.9630107409220405
8.9305078125 -0.363134197214923 -0.9629494238355127
8.93165625 -0.36533387928415595 -0.9621196175724778
8.9328046875 -0.36603742225643204 -0.9620121110298054
8.933953125 -0.368822764197289 -0.9615564883417376
8.9351015625 -0.370002429085932 -0.9605550731020499
8.93625 -0.37174906799128826 -0.9593517727474425
8.9373984375 -0.37313072150681015 -0.9585546411899403
8.938546875 -0.37453134705086477 -0.9585157861643001
8.9396953125 -0.37642236097512927 -0.9580334954543583
8.94084375 -0.3778629764853243 -0.9586079132066819
8.9419921875 -0.37849945181647293 -0.9575548346194546
8.943140625 -0.38172269072176457 -0.9571387065248456
8.9442890625 -0.38159183338936986 -0.9566646975756692
8.9454375 -0.38391175892412127 -0.9566162973181009
8.9465859375 -0.3877966269173524 -0.9554839466930897
8.947734375 -0.3877026090036827 -0.9542601344377875
8.9488828125 -0.3888462902422181 -0.9545765258813492
8.95003125 -0.39033681663092434 -0.9537068273007151
8.9511796875 -0.39162772293356607 -0.9519790298676151
8.952328125 -0.3935811824808244 -0.9523233309995112
8.9534765625 -0.3943912085610263 -0.9527145891642201
8.954625 -0.39666678680152456 -0.9507362244076369
8.9557734375 -0.3979724705771978 -0.9506437999377386
8.956921875 -0.39860533753127947 -0.9502324954498294
8.9580703125 -0.40089034870349394 -0.9490260555421044
8.95921875 -0.40225539179940417 -0.9484811557431102
8.9603671875 -0.4035030612373855 -0.9482150456292666
8.961515625 -0.4053324925636285 -0.9474360836512703
8.9626640625 -0.4067958605866994 -0.9465754852851165
8.9638125 -0.4080494360217597 -0.9456707855017832
8.9649609375 -0.409376095084266 -0.9449965495304222
8.966109375 -0.4115085717901096 -0.9437636375141985
8.9672578125 -0.41181255719401055 -0.9435473690299072
8.96840625 -0.4131764043436118 -0.943158240203351
8.9695546875 -0.414940775069791 -0.9420325642042585
8.970703125 -0.4170225595299502 -0.9416346783253011
8.9718515625 -0.4185392050881419 -0.9409606086701436
8.973 -0.4200516161194405 -0.9401282452800563
8.9741484375 -0.4203329330734359 -0.9397075167673261
8.975296875 -0.4215852106409522 -0.9384170650314179
8.9764453125 -0.423771597872421 -0.9375677179541915
8.97759375 -0.4255132836792389 -0.9356682054417442
8.9787421875 -0.42640628086082 -0.9350761889047557
8.979890625 -0.4263123664375629 -0.9352381652972832
8.9810390625 -0.4282974316359157 -0.9340491520772478
8.9821875 -0.428635575161603 -0.934100325874096
8.9833359375 -0.4304013030762015 -0.9334510769936873
8.984484375 -0.43246530598058647 -0.9324585168065808
8.9856328125 -0.43373492381488166 -0.9324548158127675
8.98678125 -0.4349331609340663 -0.9323609174790438
8.9879296875 -0.4373371048650173 -0.931912604811497
8.989078125 -0.43990517468614293 -0.9316307898568498
8.9902265625 -0.4411987247210988 -0.9303153143291414
8.991375 -0.4441565871920009 -0.9279733956426792
8.9925234375 -0.44415110103959055 -0.925866007579829
8.993671875 -0.4457134294499303 -0.9266956210494766
8.9948203125 -0.44666104632670806 -0.9251049189075526
8.99596875 -0.4482286169661785 -0.9242505401719003
8.9971171875 -0.4492777237329204 -0.9239670923761131
8.998265625 -0.45150093065384284 -0.9238254148322924
8.9994140625 -0.4533420662086008 -0.9220476386885375
9.0005625 -0.45362669669398403 -0.9198115989966714
9.0017109375 -0.4569942334028796 -0.9196085222956234
9.002859375 -0.45816425421242435 -0.9179844817352045
9.0040078125 -0.45918939450822654 -0.9168710920633285
9.00515625 -0.46129719154265897 -0.9173356267025986
9.0063046875 -0.46163143094470627 -0.9162040688807895
9.007453125 -0.46456006164219416 -0.9152032113869624
9.0086015625 -0.46543705091429877 -0.9148529673377559
9.00975 -0.46651476361967725 -0.9143182399597323
9.0108984375 -0.46772388359091005 -0.9128737897893083
9.012046875 -0.4701892810807754 -0.911162139939488
9.0131953125 -0.47082448918536335 -0.9099033673625886
9.01434375 -0.4733599163251676 -0.9075030787851777
9.0154921875 -0.47533904083938006 -0.9054292054482923
9.016640625 -0.4759056657182682 -0.9048737607656197
9.0177890625 -0.4782407103235896 -0.9021266983161691
9.0189375 -0.4796699070170283 -0.9003662245089894
9.0200859375 -0.4801655285455686 -0.8983029766609287
9.021234375 -0.4802948372921867 -0.8956589297249943
9.0223828125 -0.4793164099052879 -0.8966521395009568
9.02353125 -0.4795452098731001 -0.8944595005763039
9.0246796875 -0.4799088348858215 -0.8927720783900034
9.025828125 -0.4808762664165561 -0.8932234514806796
9.0269765625 -0.48046725367829035 -0.8923619692245011
9.028125 -0.4807860527333721 -0.8918412956457359
9.0292734375 -0.48151726093471714 -0.8915225331215637
9.030421875 -0.48393408729493215 -0.8907573231880407
9.0315703125 -0.4836206984412388 -0.8901476513050326
9.03271875 -0.4836612516895182 -0.8886536420369504
9.0338671875 -0.48586485674488333 -0.887156545796184
9.035015625 -0.4857137954085119 -0.8869088809433985
9.0361640625 -0.48629687246911907 -0.8861310273703207
9.0373125 -0.48754440676701194 -0.8849466174044751
9.0384609375 -0.48670064633223764 -0.8854002856613168
9.039609375 -0.48788340536771363 -0.8852660215690575
9.0407578125 -0.48835825506747327 -0.8840583152907932
9.04190625 -0.4896829192668292 -0.8831208916600565
9.0430546875 -0.48876966477419964 -0.8839313841464113
9.044203125 -0.49023609485160446 -0.883815661461029
9.0453515625 -0.49125489322190075 -0.8836452719357668
9.0465 -0.49185657777878455 -0.8845665954096051
9.0476484375 -0.49429991242864413 -0.8828033460227879
9.048796875 -0.49543299669962493 -0.8812016505812595
9.0499453125 -0.4962415236494629 -0.8822161235947076
9.05109375 -0.49764047250292176 -0.8821600681110482
9.0522421875 -0.49906928094612535 -0.8815834063819417
9.053390625 -0.4999108885842724 -0.8816123110471668
9.0545390625 -0.5011926692160348 -0.8812974210476572
9.0556875 -0.5037238012026206 -0.8813801328135987
9.0568359375 -0.5049996760612452 -0.8803822137723534
9.057984375 -0.5062554738340872 -0.8791935331456151
9.0591328125 -0.5072453187423178 -0.8781135641804075
9.06028125 -0.5092281304915874 -0.8771939883690334
9.0614296875 -0.509740124627884 -0.8776329827798257
9.062578125 -0.5096426825315074 -0.8763463081642964
9.0637265625 -0.5118428768061356 -0.8757804824136877
9.064875 -0.5124911708434183 -0.8758328820152124
9.0660234375 -0.5134524202732572 -0.8755409194119106
9.067171875 -0.5155831808519535 -0.8739673421165755
9.0683203125 -0.5164781029768079 -0.8746762623093507
9.06946875 -0.5169426060550084 -0.8748731329085835
9.0706171875 -0.5171481126583279 -0.8737305112470168
9.071765625 -0.5194651975961694 -0.8731299038524254
9.0729140625 -0.5208578541897901 -0.873190178811523
9.0740625 -0.5227355396038903 -0.8733340140111633
9.0752109375 -0.5253302087997592 -0.8724222579426844
9.076359375 -0.5267273554319327 -0.8717337399107292
9.0775078125 -0.5281548964431269 -0.8713935504661295
9.07865625 -0.5302296995765492 -0.8705681224151411
9.0798046875 -0.5311131438956401 -0.8699357045895091
9.080953125 -0.5321351173333799 -0.8684042619391608
9.0821015625 -0.5342207466805649 -0.8681062126151493
9.08325 -0.535044888879586 -0.8681799380283519
9.0843984375 -0.5347943501674237 -0.867376344813753
9.085546875 -0.5378194774278251 -0.8667449576877737
9.0866953125 -0.539101793966941 -0.8667993435209022
9.08784375 -0.5401516315758417 -0.8655665657649649
9.0889921875 -0.5418706793913907 -0.8641605654970089
9.090140625 -0.543327998090121 -0.8643393940158509
9.0912890625 -0.5445569008779511 -0.8632051051673502
9.0924375 -0.5459820826208769 -0.8629715287570829
9.0935859375 -0.5470367659667428 -0.8620943219506115
9.094734375 -0.5492381453736589 -0.8623962421470731
9.0958828125 -0.5497830078798344 -0.8602578593265355
9.09703125 -0.5513207653194425 -0.8595835112107362
9.0981796875 -0.5527469901389931 -0.8585006879437269
9.099328125 -0.5547091583558815 -0.8593047996532583
9.1004765625 -0.5559859049151816 -0.8575195119659051
9.101625 -0.5580855057146678 -0.8564331764921667
9.1027734375 -0.5594059295570715 -0.8552534446493816
9.103921875 -0.5603474490293404 -0.8548533830159857
9.1050703125 -0.5616791813747459 -0.8532621721155859
9.10621875 -0.5632324597687293 -0.8529123181893399
9.1073671875 -0.5642844857325038 -0.8526494728423182
9.108515625 -0.5665612593190507 -0.8507300005714771
9.1096640625 -0.5677465575465056 -0.850343397416658
9.1108125 -0.5684328120251972 -0.8501607137116676
9.1119609375 -0.5697656767228927 -0.8493860364823766
9.113109375 -0.57161884979296 -0.8474562964523163
9.1142578125 -0.5727223448777125 -0.846705305745524
9.11540625 -0.5744040050503383 -0.8460261402233675
9.1165546875 -0.5765061097197881 -0.8450939707806768
9.117703125 -0.5774408688104182 -0.8437881356107486
9.1188515625 -0.5785169969200344 -0.8424915296494471
9.12 -0.5794548657495973 -0.8418310598714359
9.1211484375 -0.5810667664783297 -0.840746965285859
9.122296875 -0.5823968842447614 -0.8399732008048377
9.1234453125 -0.583954754947067 -0.8393359413131644
9.12459375 -0.5858567871604787 -0.8391606295766151
9.1257421875 -0.5872096771627715 -0.8381639939050325
9.126890625 -0.587818299765916 -0.8369967388524144
9.1280390625 -0.5902982131108311 -0.8355134285561439
9.1291875 -0.590795826396866 -0.8357113174284301
9.1303359375 -0.5929953752385945 -0.8346970367406052
9.131484375 -0.594603356418627 -0.8332888208866881
9.1326328125 -0.5957207837460949 -0.831083301670174
9.13378125 -0.5959574405138524 -0.8295058727699005
9.1349296875 -0.5971742284780919 -0.8292873905898237
9.136078125 -0.5975914753139694 -0.8290627502526491
9.1372265625 -0.5992762307763375 -0.8271472067713606
9.138375 -0.600929949980567 -0.8272411551774386
9.1395234375 -0.6033159532596728 -0.8259752783857537
9.140671875 -0.6037290834831514 -0.8248692965129358
9.1418203125 -0.6052771222681758 -0.8238850437637288
9.14296875 -0.606458077696773 -0.823662977785112
9.1441171875 -0.60733267069832 -0.8231491120156175
9.145265625 -0.6078841379856299 -0.8197099516045151
9.1464140625 -0.6098295267566487 -0.8210719169467684
9.1475625 -0.6114311324411428 -0.8183328166405383
9.1487109375 -0.6132655061246979 -0.8179327092445565
9.149859375 -0.6154983050823064 -0.8171386245728129
9.1510078125 -0.6161069608679814 -0.8157378851528596
9.15215625 -0.6174096304920147 -0.8143681405741081
9.1533046875 -0.6181362304965594 -0.8134311258439353
9.154453125 -0.6196641068605488 -0.8119507866337661
9.1556015625 -0.620371501863384 -0.8120554694807874
9.15675 -0.621540565170847 -0.8108210304656104
9.1578984375 -0.6233516304411089 -0.8097534179714473
9.159046875 -0.6241089748233152 -0.8081814221315958
9.1601953125 -0.6252501158363146 -0.807436996233109
9.16134375 -0.6276361446701386 -0.8061003443313755
9.1624921875 -0.6276401745469369 -0.8051392659394223
9.163640625 -0.6291293473635478 -0.8035963534244026
9.1647890625 -0.6305824836572544 -0.8035783363813196
9.1659375 -0.6331604944408056 -0.8009522131167868
9.1670859375 -0.6336393969808934 -0.7995679495476239
9.168234375 -0.6338299277711288 -0.799117735122609
9.1693828125 -0.6357358390843105 -0.7981510036265582
9.17053125 -0.6355909756886099 -0.7966480160079308
9.1716796875 -0.6368088883913732 -0.7958358809204962
9.172828125 -0.6390630850998505 -0.7933567881968522
9.1739765625 -0.6393610134948202 -0.7926404917941569
9.175125 -0.6398797730575146 -0.7918823769079414
9.1762734375 -0.6414141836935543 -0.7900932028143907
9.177421875 -0.6435111740424184 -0.7912980609599923
9.1785703125 -0.6448009901169033 -0.790020394247204
9.17971875 -0.6456457017482622 -0.7891374968362299
9.1808671875 -0.6469632477658315 -0.7872510072651883
9.182015625 -0.6477266417502562 -0.7874388669494167
9.1831640625 -0.6482375334308597 -0.785369723220609
9.1843125 -0.6500235943952963 -0.7842172627584293
9.1854609375 -0.6501007736300964 -0.7829492043588235
9.186609375 -0.6522295859246617 -0.7825561044945725
9.1877578125 -0.6532077843368757 -0.7806875881226373
9.18890625 -0.6543508898104943 -0.7793569889362642
9.1900546875 -0.6550969208700439 -0.7783787922057037
9.191203125 -0.6568079578682341 -0.7775957666707689
9.1923515625 -0.6582451408750503 -0.7785709220012227
9.1935 -0.6588498369236082 -0.7768184835975626
9.1946484375 -0.6596791893121806 -0.7751360722640501
9.195796875 -0.6610501393740339 -0.7736891249657755
9.1969453125 -0.6613478395112489 -0.7728647855993106
9.19809375 -0.6631678320971706 -0.7721972738290703
9.1992421875 -0.6655927493379747 -0.7705069640002884
9.200390625 -0.6661015283470422 -0.7698411473346443
9.2015390625 -0.6672214380638666 -0.7682718948513373
9.2026875 -0.667716625459585 -0.7664664922460561
9.2038359375 -0.6689453676402579 -0.7656198716061597
9.204984375 -0.6702087971738937 -0.7632623540779655
9.2061328125 -0.671066445598169 -0.7630054811118535
9.20728125 -0.6729669699579406 -0.7616019134898718
9.2084296875 -0.6724730196161118 -0.7610610263020615
9.209578125 -0.6729744483479425 -0.7597747833650965
9.2107265625 -0.6753373774639632 -0.7581290375513523
9.211875 -0.6755962566930482 -0.7572573558631023
9.2130234375 -0.677415445051625 -0.7557464709011328
9.214171875 -0.6780542781897346 -0.7553669221385351
9.2153203125 -0.6794902398821394 -0.7531997616045892
9.21646875 -0.6804750657232075 -0.7528544541857908
9.2176171875 -0.6806537747509018 -0.7512252427486773
9.218765625 -0.6824747819268423 -0.7491529562429912
9.2199140625 -0.6831791033217367 -0.7486544134534078
9.2210625 -0.684290918472754 -0.7478015880328531
9.2222109375 -0.6855921385715041 -0.7457459230913456
9.223359375 -0.6865656084304947 -0.7452590962761725
9.2245078125 -0.6867245090540739 -0.7437030552393857
9.22565625 -0.6883502393108374 -0.7426168129368985
9.2268046875 -0.6890321005087174 -0.7419126207095794
9.227953125 -0.6904729758548216 -0.7412313612774764
9.2291015625 -0.6918250185437893 -0.7399627197815202
9.23025 -0.6928604341265434 -0.7386178076846505
9.2313984375 -0.6930285613488145 -0.7378428075600425
9.232546875 -0.6936071684103655 -0.7366975819786493
9.2336953125 -0.695907325987596 -0.7347610674419974
9.23484375 -0.6970556875957341 -0.7347371431850533
9.2359921875 -0.6984995959957139 -0.7330224949891982
9.237140625 -0.6997169893841537 -0.7314920563819386
9.2382890625 -0.7001570465598759 -0.7303616527348707
9.2394375 -0.7002670540928815 -0.7303239717866917
9.2405859375 -0.7017229490258163 -0.7288399143320519
9.241734375 -0.70296970899943 -0.7282014477547515
9.2428828125 -0.7037649706796143 -0.7279896228216627
9.24403125 -0.7045451560436091 -0.7259806520773969
9.2451796875 -0.7056966513369773 -0.724985885514993
9.246328125 -0.7062955900435337 -0.7232988344844524
9.2474765625 -0.7070549984463592 -0.7215095572562382
9.248625 -0.7091490421938468 -0.7220477521610632
9.2497734375 -0.7093508960580239 -0.720954241463597
9.250921875 -0.7109442792789229 -0.7200423945139245
9.2520703125 -0.7122027434385727 -0.7184327877676507
9.25321875 -0.7128996141038815 -0.7180698255014623
9.2543671875 -0.7141774935796449 -0.7168139075914652
9.255515625 -0.714242185995509 -0.7159739330273514
9.2566640625 -0.7154078117617282 -0.7139693883616081
9.2578125 -0.7173289540411265 -0.7139019533499604
9.2589609375 -0.718274868214954 -0.7130992281059031
9.260109375 -0.7204078827043746 -0.7110315264538017
9.2612578125 -0.7212166652889861 -0.7101469838038876
9.26240625 -0.7207029254071099 -0.7099572128270658
9.2635546875 -0.7235164700105057 -0.7086518847239183
9.264703125 -0.7244115622680523 -0.7075145832940306
9.2658515625 -0.7249974876062388 -0.7068432407221277
9.267 -0.726342437380695 -0.7047741051282689
9.2681484375 -0.7273851455179572 -0.7039187379404134
9.269296875 -0.7273849481452854 -0.702880200126478
9.2704453125 -0.7287668569069159 -0.7010190466276396
9.27159375 -0.7306619188873038 -0.6992156902276704
9.2727421875 -0.7322917574560114 -0.6992370152202497
9.273890625 -0.7325716230287109 -0.6985632094214403
9.2750390625 -0.733773690836704 -0.6957167544490699
9.2761875 -0.7337283363717193 -0.6956443609653279
9.2773359375 -0.7356502803029985 -0.6939486886290744
9.278484375 -0.7384351779811388 -0.6916480329394269
9.2796328125 -0.7366805668907441 -0.6902253779011027
9.28078125 -0.7381617753225425 -0.690177571457568
9.2819296875 -0.7390123308624019 -0.6876757217160057
9.283078125 -0.7389706107972582 -0.685546979493558
9.2842265625 -0.740300081090115 -0.6846294944379296
9.285375 -0.7413052364034807 -0.6845358165412996
9.2865234375 -0.7425215024552744 -0.6820196808453501
9.287671875 -0.743245191760676 -0.681152494770957
9.2888203125 -0.7449517441900623 -0.6813237747991249
9.28996875 -0.743769900157779 -0.6790892513571841
9.2911171875 -0.744981912325458 -0.6780007402342706
9.292265625 -0.7441153423446409 -0.6763242089199969
9.2934140625 -0.7468055021650676 -0.6752240615455295
9.2945625 -0.7479684725454446 -0.6756455178739065
9.2957109375 -0.7485529928084614 -0.6744442640092316
9.296859375 -0.7503286562321159 -0.6742690864538993
9.2980078125 -0.7509344035742119 -0.6730808082559244
9.29915625 -0.7524023875554703 -0.6718334404433071
9.3003046875 -0.7539193173437857 -0.670832931844849
9.301453125 -0.7547002940877221 -0.6681762579134309
9.3026015625 -0.7574625501946459 -0.666821090963672
9.30375 -0.7569313981031713 -0.6654618838762881
9.3048984375 -0.7571000972579552 -0.664564016744142
9.306046875 -0.7598219794463964 -0.6623374364737978
9.3071953125 -0.7610737765407076 -0.6629285375665862
9.30834375 -0.7633537180997023 -0.66058820388684
9.3094921875 -0.7623101014165508 -0.6607822666803866
9.310640625 -0.7626405151365048 -0.6599486390062385
9.3117890625 -0.7633630760046303 -0.6576429527564945
9.3129375 -0.764507487464713 -0.6556641313394346
9.3140859375 -0.7657542179917262 -0.6551697659506218
9.315234375 -0.7660236215301891 -0.6538998491958067
9.3163828125 -0.7658366482638415 -0.6507351219243376
9.31753125 -0.7674464024841094 -0.6501552274168138
9.3186796875 -0.7681949462188818 -0.648643939273956
9.319828125 -0.7697291555766628 -0.6481192069596865
9.3209765625 -0.7703510395629896 -0.6473118226111013
9.322125 -0.7716884993940856 -0.6456940733632257
9.3232734375 -0.7728734383960201 -0.6453677081120395
9.324421875 -0.7728204653347411 -0.6448545169835144
9.3255703125 -0.7728864385290277 -0.6428157334109789
9.32671875 -0.7741053225198341 -0.6404861457380644
9.3278671875 -0.7745596366150185 -0.639935050022455
9.329015625 -0.7754797050125266 -0.6380585170231676
9.3301640625 -0.7748128339177315 -0.6380080693494367
9.3313125 -0.7773038963781531 -0.6353401687098927
9.3324609375 -0.7780882226047428 -0.634018155105396
9.333609375 -0.7790955579780272 -0.6336268772001404
9.3347578125 -0.7787891222652144 -0.6344017911682214
9.33590625 -0.7791775123287203 -0.6312747959796361
9.3370546875 -0.780754531997524 -0.6304174910601364
9.338203125 -0.7808590236934498 -0.6309111857788523
9.3393515625 -0.7845070787968249 -0.6277706302556848
9.3405 -0.7830723512970671 -0.6274396133729159
9.3416484375 -0.7836199190077558 -0.6266155864035864
9.342796875 -0.7843882444956991 -0.624507358853815
9.3439453125 -0.7850828359576272 -0.6231169264746298
9.34509375 -0.7859705496081173 -0.6226614455361281
9.3462421875 -0.7857408251473674 -0.6217125916926419
9.347390625 -0.7884238535233798 -0.6197239211425319
9.3485390625 -0.7891370589502783 -0.6196437078814021
9.3496875 -0.7904672551682075 -0.617397532334546
9.3508359375 -0.7897333454406408 -0.6145242328175421
9.351984375 -0.79169046285163 -0.6139000076294076
9.3531328125 -0.7934224227089253 -0.6130854694387018
9.35428125 -0.7924005856522954 -0.6115691968723447
9.3554296875 -0.7949945277868032 -0.6104141079835221
9.356578125 -0.7951187927421889 -0.609284904630775
9.3577265625 -0.7970461324023379 -0.6067437536934266
9.358875 -0.7954471192219121 -0.6061079217430341
9.3600234375 -0.7954409508254687 -0.6052572882501092
9.361171875 -0.7967659298251629 -0.6014450703014951
9.3623203125 -0.7973283295853527 -0.6031940515053493
9.36346875 -0.7991668481404044 -0.6018801619650042
9.3646171875 -0.7997755426196179 -0.6003935502236726
9.365765625 -0.7995204108341645 -0.5985342957422843
9.3669140625 -0.8019192707683875 -0.5967616836844928
9.3680625 -0.8030004053349016 -0.5955981724513251
9.3692109375 -0.8036157133950335 -0.5940520112251408
9.370359375 -0.8041946909820825 -0.5930703848460672
9.3715078125 -0.8046137561132372 -0.5913693588332513
9.37265625 -0.8052460810972036 -0.590393923349654
9.3738046875 -0.8066406852687347 -0.5888631032424334
9.374953125 -0.8078383126971592 -0.5873588335936916
9.3761015625 -0.8086839931842842 -0.5875372187620519
9.37725 -0.8096934388959637 -0.5860659308645892
9.3783984375 -0.8123241170440411 -0.5834103193581082
9.379546875 -0.813574125328742 -0.5832363744432894
9.3806953125 -0.8139108824446578 -0.5819710647005165
9.38184375 -0.8148883573583019 -0.5816979361103417
9.3829921875 -0.8142415058348977 -0.5797607102408995
9.384140625 -0.8161980029913 -0.5788876125178429
9.3852890625 -0.8163508311773705 -0.5778075026395352
9.3864375 -0.8164916037663994 -0.5759165475339505
9.3875859375 -0.8185826310445579 -0.5748913840309485
9.388734375 -0.8188901664781746 -0.573761366889034
9.3898828125 -0.8203101987663879 -0.5737315711592843
9.39103125 -0.8212845477144292 -0.5714292717555427
9.3921796875 -0.8207022707250141 -0.5712056470305831
9.393328125 -0.8223899248838441 -0.5695002284257741
9.3944765625 -0.8231761695860718 -0.5687237827783622
9.395625 -0.8238536517352093 -0.5680263751656376
9.3967734375 -0.8248128163111208 -0.5645761319047664
9.397921875 -0.8260490858080914 -0.5643327870707731
9.3990703125 -0.8271350698256494 -0.563918997211893
9.40021875 -0.8268129407244389 -0.5629907348041974
9.4013671875 -0.8287724781508823 -0.5609504438303695
9.402515625 -0.828203948744161 -0.5588435347090812
9.4036640625 -0.8286993465237471 -0.5578381234165628
9.4048125 -0.8299548730445668 -0.5567851313795771
9.4059609375 -0.8314666648754607 -0.555137097579094
9.407109375 -0.8321714826913432 -0.5554665345125696
9.4082578125 -0.8336821639423533 -0.5515502395742821
9.40940625 -0.8332208181709159 -0.5512148703184999
9.4105546875 -0.8339383264380266 -0.5502051061197909
9.411703125 -0.8348487295306186 -0.5499097975668784
9.4128515625 -0.8346730788102871 -0.5492468488777957
9.414 -0.8377519898141643 -0.5471886205227209
9.4151484375 -0.8375487393167957 -0.5469117097423208
9.416296875 -0.8375597296115329 -0.5449616808080955
9.4174453125 -0.8373203950843887 -0.5430031534932975
9.41859375 -0.8397982872625958 -0.5436365685032478
9.4197421875 -0.8400964317168 -0.5412505937306166
9.420890625 -0.8413088782868262 -0.5390100751039144
9.4220390625 -0.8408185807932065 -0.5383786324058225
9.4231875 -0.8420321400903887 -0.537036799269226
9.4243359375 -0.8431863973043213 -0.5347579886553404
9.425484375 -0.844492321501369 -0.5353006332668586
9.4266328125 -0.8443696661903651 -0.5337680394680084
9.42778125 -0.8449370808715371 -0.5328039122562948
9.4289296875 -0.8446238146956808 -0.5313269270100484
9.430078125 -0.8466984466251635 -0.5301335576105256
9.4312265625 -0.8461458801138957 -0.5291550462149877
9.432375 -0.8469460457872926 -0.5271463524440152
9.4335234375 -0.8480555119115796 -0.5266729658177217
9.434671875 -0.8486658230884484 -0.5243679554981986
9.4358203125 -0.8495666054358721 -0.5241354414730739
9.43696875 -0.8498488712285489 -0.5211971985428473
9.4381171875 -0.8510100086688579 -0.5199691116006878
9.439265625 -0.8509454382561229 -0.5190646010358779
9.4404140625 -0.8518247909364147 -0.5180629502632217
9.4415625 -0.8523978302413413 -0.517202075258881
9.4427109375 -0.8524764211256226 -0.5155805169225114
9.443859375 -0.8515575065477962 -0.5139789071541803
9.4450078125 -0.853405075879961 -0.5130445971410841
9.44615625 -0.8540597546006281 -0.5105583531946242
9.4473046875 -0.8547623564951834 -0.5110195950139351
9.448453125 -0.8562328742282947 -0.5102025085322512
9.4496015625 -0.856716583375597 -0.5075310005219578
9.45075 -0.8568641719409222 -0.5060725131713735
9.4518984375 -0.8589647308855538 -0.5048887541746286
9.453046875 -0.8587988675218376 -0.5020012943863843
9.4541953125 -0.8590984883563952 -0.5021123716127898
9.45534375 -0.8597614106844947 -0.5007048518465766
9.4564921875 -0.8609283417859974 -0.4985488611363249
9.457640625 -0.8630899545300179 -0.49761321718901663
9.4587890625 -0.8626407540400269 -0.4960654994335103
9.4599375 -0.8640993098947869 -0.4949855665822812
9.4610859375 -0.8645564506581407 -0.4940982580948876
9.462234375 -0.8654818480885357 -0.491862096618518
9.4633828125 -0.8650644463548012 -0.4903107798476238
9.46453125 -0.8654693159569544 -0.48932387105852027
9.4656796875 -0.8668217893222451 -0.4876936666563744
9.466828125 -0.86896546712107 -0.48540290222465143
9.4679765625 -0.8693930630061375 -0.48448582564340714
9.469125 -0.8688932628495766 -0.4834480321598772
9.4702734375 -0.8714106035071049 -0.4823457808099336
9.471421875 -0.8711281138121598 -0.48172161063953733
9.4725703125 -0.872063051425862 -0.4817495751253551
9.47371875 -0.8734929807713748 -0.47958829771299477
9.4748671875 -0.8736474172863808 -0.4781587562345438
9.476015625 -0.8740825554191748 -0.47724136628422503
9.4771640625 -0.8760612687190084 -0.47614807105122603
9.4783125 -0.8746364678383741 -0.47487989247905504
9.4794609375 -0.8738598248697923 -0.47218508149430494
9.480609375 -0.8741854565369738 -0.4716135502179363
9.4817578125 -0.8753439547952373 -0.470729040404833
9.48290625 -0.8759040639839766 -0.4700445674253259
9.4840546875 -0.8763275041895743 -0.46681851952016623
9.485203125 -0.8809425075093528 -0.46688753757897317
9.4863515625 -0.8800222101905885 -0.46486116529348404
9.4875 -0.8817138378341426 -0.4625658813125424
9.4886484375 -0.8798656099446056 -0.46254522830433453
9.489796875 -0.8808068190553965 -0.45804319929378434
9.4909453125 -0.8831935412247204 -0.4610123007314462
9.49209375 -0.8830695881113622 -0.4586434587331113
9.4932421875 -0.8842499375945432 -0.4567682192855202
9.494390625 -0.8835616107936772 -0.4566151176177761
9.4955390625 -0.8851352804968942 -0.4537923613497575
9.4966875 -0.8851126129106903 -0.4530309871353854
9.4978359375 -0.8868312094287955 -0.45094709850287296
9.498984375 -0.8863050745216638 -0.4504491376443927
9.5001328125 -0.887141773115458 -0.44991478237361365
9.50128125 -0.8886559038428679 -0.44767039305660894
9.5024296875 -0.8875930284550463 -0.4463423921249224
9.503578125 -0.8881389537576362 -0.44393615357286503
9.5047265625 -0.889316479368643 -0.44400691586902435
9.505875 -0.8882371581860993 -0.44221960764044743
9.5070234375 -0.8895327199383145 -0.44090095989286665
9.508171875 -0.8887243739826003 -0.437921069194798
9.5093203125 -0.8903632717962651 -0.4384688109804476
9.51046875 -0.8926176066430602 -0.43780133531403376
9.5116171875 -0.893607375159571 -0.43544116359056917
9.512765625 -0.8924734244890142 -0.4339066893402158
9.5139140625 -0.892631955876541 -0.43430653319811396
9.5150625 -0.8932809345763423 -0.4333645379688884
9.5162109375 -0.8939607670671703 -0.4313218923635747
9.517359375 -0.8942329754824127 -0.42838260733347666
9.5185078125 -0.8949324484286167 -0.4275878672268661
9.51965625 -0.896184456310281 -0.4252435443976434
9.5208046875 -0.8968633662410656 -0.4246279575187306
9.521953125 -0.8971160082185956 -0.4206166172755832
9.5231015625 -0.898303273202248 -0.4203291997490044
9.52425 -0.8994968082750519 -0.4194513032992549
9.5253984375 -0.8988992799848765 -0.4176185813735723
9.526546875 -0.9004483601629967 -0.4159699477293958
9.5276953125 -0.9007860883103516 -0.41527353376180415
9.52884375 -0.9008586946981716 -0.41365935833477363
9.5299921875 -0.9014907306369853 -0.4116636846917291
9.531140625 -0.9005215168139742 -0.4110091281165634
9.5322890625 -0.9013617370013036 -0.4101127949980733
9.5334375 -0.9020693480082475 -0.4095236505859373
9.5345859375 -0.9033786293132609 -0.4077533216680135
9.535734375 -0.9043085853032165 -0.40703114640623955
9.5368828125 -0.9051779764107903 -0.4057245563132095
9.53803125 -0.904509375405822 -0.40531675912197257
9.5391796875 -0.9069048158758781 -0.4018931232393383
9.540328125 -0.9080561716383991 -0.4012188741163006
9.5414765625 -0.9078357534245413 -0.3993852953294057
9.542625 -0.909818849165474 -0.3975578934705065
9.5437734375 -0.9087018156138313 -0.39769084634315693
9.544921875 -0.9080355511050004 -0.39612594585213545
9.5460703125 -0.9087343153714397 -0.39424747608848437
9.54721875 -0.9093409855443787 -0.3929428087549948
9.5483671875 -0.9101500226870427 -0.3928783203963615
9.549515625 -0.9102770483336777 -0.3918594732059277
9.5506640625 -0.9115661512098437 -0.3914632387707871
9.5518125 -0.9118479238623534 -0.38902260911228326
9.5529609375 -0.9114651712843971 -0.3866997571256075
9.554109375 -0.9140248265630235 -0.385896318631178
9.5552578125 -0.91297887002369 -0.3856801468389477
9.55640625 -0.9130129566737009 -0.3839336795158311
9.5575546875 -0.9148540811614693 -0.38229570726917556
9.558703125 -0.9136936330142186 -0.3823300361168339
9.5598515625 -0.9148086505330313 -0.3800147535302941
9.561 -0.9165357726554799 -0.37880325629894335
9.5621484375 -0.9185959529996517 -0.37676730251591695
9.563296875 -0.9190509675829293 -0.3740402663712782
9.5644453125 -0.918271780805217 -0.3745228752461123
9.56559375 -0.920106575579674 -0.3709188235565408
9.5667421875 -0.9195404408718935 -0.3709986237073253
9.567890625 -0.9201638164119825 -0.3695541939209833
9.5690390625 -0.9209456390252877 -0.36845267548934424
9.5701875 -0.9223082443369377 -0.36803579592385594
9.5713359375 -0.9226100361294427 -0.36600657820402394
9.572484375 -0.9214886500340513 -0.3646556784895961
9.5736328125 -0.9217186359474694 -0.3649858813442217
9.57478125 -0.922246964761803 -0.3619186581842084
9.5759296875 -0.9236860531214905 -0.3601797883043754
9.577078125 -0.9257323946993365 -0.35960973204718805
9.5782265625 -0.9254027286428381 -0.3588531070549432
9.579375 -0.9257953832741816 -0.3579761738791102
9.5805234375 -0.926683213088928 -0.35595524709774434
9.581671875 -0.9280517793220695 -0.35449073927499525
9.5828203125 -0.9267814931698632 -0.3539535373052338
9.58396875 -0.9269753292899239 -0.352477098317104
9.5851171875 -0.9282811946820215 -0.35033348374907625
9.586265625 -0.9272141938235701 -0.34891208768206683
9.5874140625 -0.9290953764335319 -0.346225946880491
9.5885625 -0.9286998109940146 -0.3462528144375776
9.5897109375 -0.9292597157079833 -0.3449271344131607
9.590859375 -0.9297023439291785 -0.34365935100467215
9.5920078125 -0.9291946144345299 -0.3423091096065751
9.59315625 -0.9291936896562378 -0.3400477681546354
9.5943046875 -0.930118636573014 -0.34052451951842133
9.595453125 -0.9298094163107014 -0.3385806877492403
9.5966015625 -0.9298241099390745 -0.3360258320061324
9.59775 -0.9310160787612884 -0.3365462187005849
9.5988984375 -0.9314959586522138 -0.33342677138582805
9.600046875 -0.9318827551505229 -0.33316371390208216
9.6011953125 -0.9319945587454691 -0.33211415686287743
9.60234375 -0.9324826607222083 -0.3313197437601033
9.6034921875 -0.9318885980565861 -0.3294617337526357
9.604640625 -0.9319335771438886 -0.32739997041887103
9.6057890625 -0.9321003723547201 -0.32564603875746956
9.6069375 -0.9326946335167363 -0.32495939953338976
9.6080859375 -0.9334179759238121 -0.3227990990022513
9.609234375 -0.9344675038939567 -0.32128550143603596
9.6103828125 -0.9348363225020303 -0.3195171744858327
9.61153125 -0.9358640511120966 -0.318924560033612
9.6126796875 -0.9355047314418453 -0.31592024700418747
9.613828125 -0.9364773940758968 -0.31645204438512053
9.6149765625 -0.9383500349836141 -0.31496984919406223
9.616125 -0.9371189827943349 -0.31307392483757923
9.6172734375 -0.9381012811005749 -0.31156254395494
9.618421875 -0.938806582647044 -0.30889373517334817
9.6195703125 -0.9375605697344314 -0.3094151346070985
9.62071875 -0.9386790660408844 -0.3051719522163563
9.6218671875 -0.9390645701905012 -0.30506247851213875
9.623015625 -0.939623707951331 -0.302274028846826
9.6241640625 -0.9401913323558116 -0.3015632935353657
9.6253125 -0.9410557970676752 -0.30021313286152695
9.6264609375 -0.940784510145801 -0.298545901920943
9.627609375 -0.9418999527105225 -0.2967805579346116
9.6287578125 -0.9416269346489138 -0.29409653444967354
9.62990625 -0.9430320998741111 -0.29254439259926335
9.6310546875 -0.9430274424758959 -0.29220721824680296
9.632203125 -0.9440370208026416 -0.29190698395237646
9.6333515625 -0.9459769967890004 -0.29045274795970344
9.6345 -0.9468395179916961 -0.2879211266733566
9.6356484375 -0.9462465840856364 -0.28763677227722173
9.636796875 -0.945940197498096 -0.285640179668483
9.6379453125 -0.9471032884492797 -0.28513153766860055
9.63909375 -0.9475086872997175 -0.2827783615754648
9.6402421875 -0.9474008779886699 -0.28085713631186354
9.641390625 -0.9475248018553252 -0.2799805796279696
9.6425390625 -0.9485722136674484 -0.27751934718775906
9.6436875 -0.9498731272554555 -0.27653566141414787
9.6448359375 -0.9497530077998166 -0.2747325979147608
9.645984375 -0.9491568866870381 -0.2742811068167057
9.6471328125 -0.9501949711120639 -0.2729649337390463
9.64828125 -0.9514167690158299 -0.271464565687216
9.6494296875 -0.9522231926997751 -0.2712159551557774
9.650578125 -0.9517780480404076 -0.2702115183598532
9.6517265625 -0.9525115824139447 -0.2685390984334446
9.652875 -0.9530618878081867 -0.2660071738596107
9.6540234375 -0.953699625125826 -0.26488096801753
9.655171875 -0.9537417923927769 -0.2631211248897258
9.6563203125 -0.9548678605974452 -0.26265032650879894
9.65746875 -0.954616625187444 -0.2608398907537043
9.6586171875 -0.9554890826731764 -0.25999139972651863
9.659765625 -0.9550433214277034 -0.25797681329541056
9.6609140625 -0.9563191203376298 -0.2572889458729692
9.6620625 -0.9564835078527011 -0.25561233723327564
9.6632109375 -0.9552053115869859 -0.2547660421056852
9.664359375 -0.956590193241805 -0.25257458941247635
9.6655078125 -0.9580486761975495 -0.25173818400541653
9.66665625 -0.9576602704974438 -0.25011149810114663
9.6678046875 -0.95914275070499 -0.2496975262725682
9.668953125 -0.9584639919033056 -0.24670880478634305
9.6701015625 -0.958968177327538 -0.24560467702473776
9.67125 -0.9590629799110075 -0.2451427138607153
9.6723984375 -0.9588834160785626 -0.24482730697895985
9.673546875 -0.9589494974498483 -0.24155643842369698
9.6746953125 -0.9598524614596942 -0.24083965409663996
9.67584375 -0.960475004880512 -0.24017832336156486
9.6769921875 -0.9613772543300775 -0.23740937519682806
9.678140625 -0.9608245902368322 -0.23719405800226728
9.6792890625 -0.961542411640649 -0.23574218321328708
9.6804375 -0.962291734464605 -0.23402712542455884
9.6815859375 -0.9605847180107532 -0.23231809524653863
9.682734375 -0.9615143550232943 -0.23067778595327992
9.6838828125 -0.9620870499963649 -0.22900226108659827
9.68503125 -0.9619520150020797 -0.22726374930585644
9.6861796875 -0.9620132291966147 -0.22762970347437012
9.687328125 -0.9612053768380981 -0.2254456829668962
9.6884765625 -0.9623928124559669 -0.22269501785359014
9.689625 -0.9623708358047453 -0.2221321865310401
9.6907734375 -0.962851547302745 -0.22041649484887849
9.691921875 -0.9624751839834655 -0.2187421746190918
9.6930703125 -0.9631743009279121 -0.2170813640380208
9.69421875 -0.9632608634532365 -0.21535995876781072
9.6953671875 -0.9646989274123752 -0.21464234876362864
9.696515625 -0.963529172940917 -0.21203574158631383
9.6976640625 -0.963251697970235 -0.21151571425831783
9.6988125 -0.9628385129818522 -0.20897976087164244
9.6999609375 -0.9635669574302685 -0.2080760454824599
9.701109375 -0.9634749888508454 -0.20586114180895881
9.7022578125 -0.9628055351021776 -0.20416776920481822
9.70340625 -0.9641839760301266 -0.20303428284996017
9.7045546875 -0.9632642077453831 -0.20297748357084672
9.705703125 -0.964220947390297 -0.19933913283534693
9.7068515625 -0.9656535526084791 -0.1987439823462268
9.708 -0.9650893778974876 -0.1965704326901545
9.7091484375 -0.9646258341659855 -0.19483947948343844
9.710296875 -0.9658643423834559 -0.1953302173247366
9.7114453125 -0.9644837052354616 -0.19284740988701848
9.71259375 -0.9650399801445972 -0.19104420010305506
9.7137421875 -0.9652671741346353 -0.19003775821261265
9.714890625 -0.9649259872378602 -0.1886117673590093
9.7160390625 -0.9647492190761235 -0.18783916328017197
9.7171875 -0.9649631376708997 -0.18563061054586405
9.7183359375 -0.9657327837852273 -0.18493089934494678
9.719484375 -0.9658081932766808 -0.1831973371240574
9.7206328125 -0.9664513637413188 -0.1818455661350746
9.72178125 -0.9661398031282438 -0.1797952586473585
9.7229296875 -0.9669394242797249 -0.17888196053912359
9.724078125 -0.9656394016957481 -0.1774330042151225
9.7252265625 -0.9654076354999424 -0.17676045736156176
9.726375 -0.9659042205383552 -0.17620713153622367
9.7275234375 -0.9650929278635767 -0.17483271541197765
9.728671875 -0.9655847083015103 -0.17403287253076394
9.7298203125 -0.965663473328739 -0.17277404938571433
9.73096875 -0.9657099832668182 -0.17166629621469964
9.7321171875 -0.9661821724191266 -0.170745722585681
9.733265625 -0.9667458746922111 -0.1697312073621362
9.7344140625 -0.9670732602959153 -0.16855224578303407
9.7355625 -0.9676105218710507 -0.16758505320110467
9.7367109375 -0.9672393144711238 -0.16579857164502654
9.737859375 -0.967107020520279 -0.1651896638075075
9.7390078125 -0.9668404099165697 -0.16383537047151236
9.74015625 -0.96703028896609 -0.16361970292275335
9.7413046875 -0.967009641144468 -0.16204485779742417
9.742453125 -0.9668305128878742 -0.16089710909295685
9.7436015625 -0.9681385321019532 -0.1603143739007381
9.74475 -0.9677760406468761 -0.16054234182376032
9.7458984375 -0.9688982101096962 -0.15902091982910868
9.747046875 -0.9690434060649171 -0.15850503531317767
9.7481953125 -0.9704320666067903 -0.15832549247727687
9.74934375 -0.9718244832464482 -0.1569416144202297
9.7504921875 -0.9722400254556742 -0.1555203402218887
9.751640625 -0.9719039965996527 -0.15474643038609076
9.7527890625 -0.9727719141428108 -0.15358273113099252
9.7539375 -0.9729072441033195 -0.15167430086747546
9.7550859375 -0.9745467436202631 -0.15081049305892555
9.756234375 -0.9738424719020091 -0.14872768621974608
9.7573828125 -0.9751064183567546 -0.14741377101422304
9.75853125 -0.9751244321143107 -0.1473267130570537
9.7596796875 -0.9765611830537759 -0.14552680667160123
9.760828125 -0.9764131405112858 -0.1436669168042442
9.7619765625 -0.9776634010555323 -0.1427757492132285
9.763125 -0.9784934128525031 -0.1421008107660351
9.7642734375 -0.979259980419277 -0.14020916464449829
9.765421875 -0.9802671958153821 -0.1385398391975851
9.7665703125 -0.9811839033686317 -0.13626634247853997
9.76771875 -0.9815300985036918 -0.13422329409554515
9.7688671875 -0.981488035337485 -0.1326636878516168
9.770015625 -0.9816865841231022 -0.13159986251165207
9.7711640625 -0.9832662456682681 -0.12929922529504495
9.7723125 -0.9834574381367109 -0.12831859562658857
9.7734609375 -0.9838469629352868 -0.126210440906337
9.774609375 -0.9835689337142902 -0.12432410761324321
9.7757578125 -0.9830288171641793 -0.12295789973906573
9.77690625 -0.9831360112081404 -0.12171746324845276
9.7780546875 -0.983836137997985 -0.12056997027804978
9.779203125 -0.9845486060824653 -0.119046771424137
9.7803515625 -0.9849301024608034 -0.11758927442964945
9.7815 -0.9851002839123232 -0.11627193212345054
9.7826484375 -0.9848605629039495 -0.11452392194808421
9.783796875 -0.9864473583250474 -0.11285274724033395
9.7849453125 -0.9866490269644794 -0.11066191175468854
9.78609375 -0.9869133042587366 -0.10925090116243127
9.7872421875 -0.987064576790868 -0.10814626737075898
9.788390625 -0.9882046859285036 -0.10690519646683913
9.7895390625 -0.98865574694079 -0.10493604025359739
9.7906875 -0.9894015944164665 -0.10295613212354864
9.7918359375 -0.9889207745502069 -0.10192897041722637
9.792984375 -0.9893959727970347 -0.10094791029745512
9.7941328125 -0.9902562471404308 -0.09868629192150248
9.79528125 -0.9902740775391992 -0.0970827911089484
9.7964296875 -0.9911347403579807 -0.09580891930102114
9.797578125 -0.9914119362513028 -0.09378651865090568
9.7987265625 -0.9915978918824608 -0.09216361309592924
9.799875 -0.9923132217075534 -0.08981952421254846
9.8010234375 -0.9925668504052885 -0.08797905906053433
9.802171875 -0.9928101245361908 -0.08595262232145831
9.8033203125 -0.993148477962242 -0.08403900127509045
9.80446875 -0.9931525454603345 -0.08213712154924749
9.8056171875 -0.9935724506559458 -0.08015500760380295
9.806765625 -0.9931310590883914 -0.07808792255533817
9.8079140625 -0.9928275010034406 -0.0761451043407474
9.8090625 -0.993134870907848 -0.07441079322249239
9.8102109375 -0.9932460211180181 -0.07251460067046567
9.811359375 -0.992976495946576 -0.07148776283754754
9.8125078125 -0.9928509038733604 -0.06978882277728499
9.81365625 -0.9929464462164113 -0.06870731797427826
9.8148046875 -0.9928519864253554 -0.06706108149177678
9.815953125 -0.9931779696599553 -0.06626805205134728
9.8171015625 -0.9930450979050947 -0.06501279479837038
9.81825 -0.9928550250589016 -0.06250894781224642
9.8193984375 -0.9928036843250055 -0.061318736557435416
9.820546875 -0.9928817379632418 -0.05969081981100835
9.8216953125 -0.993672863403259 -0.0583903364808252
9.82284375 -0.9935060545013549 -0.056814801268743
9.8239921875 -0.9935285591188041 -0.0552142489129048
9.825140625 -0.9935762243198637 -0.052958178869248695
9.8262890625 -0.9938321827946419 -0.05147579286592355
9.8274375 -0.993386704703781 -0.05010826271760027
9.8285859375 -0.9931819261173659 -0.04803490592160495
9.829734375 -0.9933700960967484 -0.04676384115599064
9.8308828125 -0.9928962179786034 -0.045535659648946736
9.83203125 -0.9928980842589108 -0.04438559329569963
9.8331796875 -0.9920009663106881 -0.04267662875041611
9.834328125 -0.9913928638014093 -0.041296878921723235
9.8354765625 -0.9915137715351782 -0.04020069070854254
9.836625 -0.9922454323706994 -0.038893323508016386
9.8377734375 -0.991999038165586 -0.03716709566829532
9.838921875 -0.9924577235190104 -0.03556294855635311
9.8400703125 -0.9923248740024475 -0.03355643429416949
9.84121875 -0.9930188065683587 -0.03200332263322303
9.8423671875 -0.9928498648444803 -0.031074258213398126
9.843515625 -0.9927193861349457 -0.029662885023636815
9.8446640625 -0.9929979973844274 -0.02744832656288823
9.8458125 -0.9923757709910049 -0.026020285716946562
9.8469609375 -0.9923118008543883 -0.024354313696324986
9.848109375 -0.9919596414407603 -0.022545999621976565
9.8492578125 -0.9918823507064751 -0.02127145549046655
9.85040625 -0.9921013547256814 -0.020112485725994
9.8515546875 -0.9915314088945428 -0.017934964800041447
9.852703125 -0.9908868548326693 -0.01692189184232487
9.8538515625 -0.991481550539978 -0.014945496726591179
9.855 -0.9908736616355207 -0.012780227202680794
9.8561484375 -0.991063765814281 -0.011756311672304953
9.857296875 -0.9908758214734352 -0.010650058952678676
9.8584453125 -0.9907001751007556 -0.009841252081998209
9.85959375 -0.9904412395335302 -0.007223062300149408
9.8607421875 -0.990350048244341 -0.0055454161574191585
9.861890625 -0.9899311480402895 -0.003752484036725734
9.8630390625 -0.9897593925001283 -0.0024048855527390722
9.8641875 -0.9886851478550569 -0.0005913819768558759
9.8653359375 -0.9891093137669565 0.0004421491227794283
9.866484375 -0.9888348088275467 0.0012375422532520663
9.8676328125 -0.9888633591802484 0.002652004272183678
9.86878125 -0.988413089085787 0.0033548392570537655
9.8699296875 -0.9882664876499638 0.004160159697546351
9.871078125 -0.9884594800457471 0.005868615008671349
9.8722265625 -0.987919942889342 0.007581153857006473
9.873375 -0.9877040291979056 0.00913223231372437
9.8745234375 -0.9879820015126805 0.010356497394500674
9.875671875 -0.9887536218440598 0.011619855246886607
9.8768203125 -0.9890651154207365 0.012775034960771203
9.87796875 -0.9888041204803231 0.013556861169044171
9.8791171875 -0.9888302138997527 0.015101197712992065
9.880265625 -0.988489069878514 0.01624073339320807
9.8814140625 -0.9892165881936235 0.017794746785357973
9.8825625 -0.989676589677224 0.019184408473327683
9.8837109375 -0.9897139681509755 0.020300239664337694
9.884859375 -0.9897378203643883 0.021014588794725814
9.8860078125 -0.9895637000615528 0.023176505140425963
9.88715625 -0.9896660638139414 0.024580867575062976
9.8883046875 -0.9900354523638322 0.026294858596159904
9.889453125 -0.9899793971670111 0.027871515921465168
9.8906015625 -0.989707906281057 0.029404615299558762
9.89175 -0.9899155702175848 0.030766104147494894
9.8928984375 -0.9889371052376815 0.03240907022496545
9.894046875 -0.9888341119989625 0.03339825062139504
9.8951953125 -0.9889888567614841 0.03446928252068246
9.89634375 -0.9890326553346416 0.036101045855918834
9.8974921875 -0.9884856774569278 0.03738393996998163
9.898640625 -0.9882603373228038 0.0392779287298507
9.8997890625 -0.9879816196930203 0.04023899587829008
9.9009375 -0.9881089063696381 0.04271329575369462
9.9020859375 -0.9881224857488388 0.04356465288144093
9.903234375 -0.9882634585302236 0.04500404443554165
9.9043828125 -0.9882292557684604 0.04656385739849642
9.90553125 -0.9877698054427588 0.04749107235523978
9.9066796875 -0.9875092018453596 0.04823884141287771
9.907828125 -0.987310958004914 0.05019520119600873
9.9089765625 -0.9867754398928417 0.05221508983432038
9.910125 -0.9871430544697292 0.052525401101080976
9.9112734375 -0.987801384659731 0.05348876012214218
9.912421875 -0.9874111364820863 0.054948586618675854
9.9135703125 -0.9875750778249411 0.05690078598608722
9.91471875 -0.9869619045308082 0.0577525796841557
9.9158671875 -0.9860843117053886 0.059435895702712904
9.917015625 -0.986185237432087 0.059900193081904474
9.9181640625 -0.9858217453760507 0.06139273031368658
9.9193125 -0.9852339752973618 0.06315887217327487
9.9204609375 -0.9860913338638007 0.06453280536854389
9.921609375 -0.9862528014716101 0.06634351385539022
9.9227578125 -0.9866023259264415 0.06733775932837105
9.92390625 -0.9853510032393085 0.0691010650342293
9.9250546875 -0.9843413677145167 0.07021751646939806
9.926203125 -0.9848035782548472 0.07110226458510333
9.9273515625 -0.9841427445220928 0.07314368038469682
9.9285 -0.9830119788098612 0.07266880491852168
9.9296484375 -0.9836224700194667 0.07403271068574174
9.930796875 -0.9827738745675026 0.07499212497700147
9.9319453125 -0.9837136952884817 0.0771673974573251
9.93309375 -0.9831846057850573 0.07816646621669077
9.9342421875 -0.982991849737802 0.07926246717582602
9.935390625 -0.9821504008508903 0.08130968426922447
9.9365390625 -0.9814753166576997 0.08221068348753974
9.9376875 -0.9818261695191726 0.08277564476355193
9.9388359375 -0.9812739932332728 0.08422182259472533
9.939984375 -0.9812380895362466 0.08371461263187108
9.9411328125 -0.981447830065116 0.08373458091882946
9.94228125 -0.9813960004376884 0.08490047501319598
9.9434296875 -0.9823788751052728 0.08597282018587898
9.944578125 -0.982732317835858 0.08729459734748446
9.9457265625 -0.9835263476613503 0.08914097604408328
9.946875 -0.9839957478673675 0.09021501772327378
9.9480234375 -0.9829717831068895 0.0918123671050099
9.949171875 -0.9835173959049018 0.09165421328308637
9.9503203125 -0.9834292045900206 0.09064058732103836
9.95146875 -0.9833323702807247 0.09138216431708929
9.9526171875 -0.9859480209331914 0.09158808296839793
9.953765625 -0.9861760911736592 0.0941573009990978
9.9549140625 -0.9872092916117035 0.0964095000455647
9.9560625 -0.9878750235779616 0.09754647819927387
9.9572109375 -0.9882498523236811 0.10073371174622114
9.958359375 -0.9888453793602029 0.10192751153692492
9.9595078125 -0.988965151023919 0.10326593858028899
9.96065625 -0.9878161809865297 0.10550889769676475
9.9618046875 -0.9885432863390983 0.10642970740006297
9.962953125 -0.9880597773095354 0.10653043219954783
9.9641015625 -0.987899125513682 0.10724188585384409
9.96525 -0.9890939378676828 0.10969107178865678
9.9663984375 -0.9906675662769585 0.11083399624615076
9.967546875 -0.9903016496297937 0.1134549225406718
9.9686953125 -0.9903258932775385 0.11551690931967373
9.96984375 -0.989611294917551 0.1154717386305193
9.9709921875 -0.9901493024182043 0.11757822288166309
9.972140625 -0.989376217679661 0.11957078871338656
9.9732890625 -0.9897120073859702 0.1213972160879665
9.9744375 -0.9884967515923464 0.12274500438096037
9.9755859375 -0.9897797453689879 0.1250397766116803
9.976734375 -0.989382932453298 0.12518909621309193
9.9778828125 -0.9880153720250573 0.1257322965718245
9.97903125 -0.9891456150232113 0.12710784641865402
9.9801796875 -0.9885854954534863 0.1274592446609707
9.981328125 -0.9879913677352437 0.12931611948170985
9.9824765625 -0.9886948430877667 0.13163361443554533
9.983625 -0.9883629569809207 0.1335046932075563
9.9847734375 -0.9898872282017153 0.13484462368119055
9.985921875 -0.9887602175366031 0.13527444955021628
9.9870703125 -0.9881517476229709 0.1354752363221522
9.98821875 -0.9894999675168277 0.13723198780629386
9.9893671875 -0.990079076457016 0.13708016613543816
9.990515625 -0.99131457192263 0.13882978943625468
9.9916640625 -0.9916503440677226 0.1390590373315116
9.9928125 -0.9921908494499226 0.1412886882276264
9.9939609375 -0.994024748437992 0.14433651769376699
9.995109375 -0.9944952676785306 0.14624067570679777
9.9962578125 -0.9946373475368986 0.1477204748213259
9.99740625 -0.995519052319322 0.14878329398610013
9.9985546875 -0.9945837318863505 0.15204871578840862
9.999703125 -0.9948692318691761 0.15349682837088563
10.0008515625 -0.995091536520913 0.15485608164914666
10.002 -0.9964018307894069 0.15550803204713448
10.0031484375 -0.9972782626253223 0.15845519533544783
10.004296875 -0.9960663359292601 0.15977476323716977
10.0054453125 -0.9967909587653667 0.16261777796284582
10.00659375 -0.9965057783466655 0.165284862955124
10.0077421875 -0.9962957999686264 0.1665970690951336
10.008890625 -0.9959972951087194 0.16903978966929323
10.0100390625 -0.996228343521363 0.17062310825953553
10.0111875 -0.9959074007107107 0.17288944315463073
10.0123359375 -0.9949490625384947 0.1751845622739454
10.013484375 -0.9961888104245361 0.17713953219794243
10.0146328125 -0.9953565392070651 0.17881186325688458
10.01578125 -0.9953572846074833 0.1808898984515966
10.0169296875 -0.9948426246427652 0.18302531575038278
10.018078125 -0.9938919606399088 0.1837225409055533
10.0192265625 -0.9935608448947935 0.1863123000416545
10.020375 -0.9935056594670129 0.18789319547968059
10.0215234375 -0.9932784165406351 0.1883841908319278
10.022671875 -0.9924963488034205 0.19002859711107545
10.0238203125 -0.9915880758130722 0.19185125707800466
10.02496875 -0.9930334118854746 0.19338496928850157
10.0261171875 -0.9919883437215695 0.19473753571238467
10.027265625 -0.9917358351120787 0.1962690087206186
10.0284140625 -0.9928346709014028 0.19817031100065235
10.0295625 -0.9913228592274453 0.19931415937028524
10.0307109375 -0.9920752942909112 0.20014089401835844
10.031859375 -0.994100167735329 0.202838067452548
10.0330078125 -0.9929603268274114 0.20369120264383556
10.03415625 -0.9920837173487347 0.20482763384209346
10.0353046875 -0.9931004334917755 0.20688771225626945
10.036453125 -0.9934221886754748 0.209037800980796
10.0376015625 -0.9922489058951685 0.20952223654335944
10.03875 -0.9920507426084221 0.21250314962164973
10.0398984375 -0.9916135915083939 0.2128739256058529
10.041046875 -0.9913091465787666 0.21404041135930102
10.0421953125 -0.9914019547545446 0.21610222123764938
10.04334375 -0.9911397241081958 0.2167828963125743
10.0444921875 -0.9916665488710878 0.21799375097663087
10.045640625 -0.9913212850449502 0.21949385180388942
10.0467890625 -0.9898132936623611 0.22238747452271074
10.0479375 -0.9899413055237174 0.2235002078163033
10.0490859375 -0.990015796064929 0.22557927661795812
10.050234375 -0.9896429853257163 0.2288594246733741
10.0513828125 -0.9898538484454609 0.2292676104512098
10.05253125 -0.9886462070997646 0.23034977856923045
10.0536796875 -0.9892047612675784 0.2321670932590617
10.054828125 -0.9903158725989865 0.23362323139289531
10.0559765625 -0.9906282174443162 0.2356717641633883
10.057125 -0.9898481715023635 0.2369565157309242
10.0582734375 -0.9898301800097437 0.23902275363439712
10.059421875 -0.9895127334018172 0.24150421000973327
10.0605703125 -0.9889129390995064 0.24342924795306392
10.06171875 -0.9870836197835056 0.24695892668080022
10.0628671875 -0.9864481093026143 0.24857164658382802
10.064015625 -0.9864345094196777 0.24937664420859262
10.0651640625 -0.9850831751698816 0.2521232869509419
10.0663125 -0.9842118685389072 0.25317341654213266
10.0674609375 -0.9844190125419214 0.25411658561860667
10.068609375 -0.9836582705933183 0.25596194384089277
10.0697578125 -0.9839084686557942 0.25799922259830305
10.07090625 -0.9830208227619486 0.2602513668570804
10.0720546875 -0.9829010604279813 0.2618554247757339
10.073203125 -0.9829621768634649 0.2632869902531153
10.0743515625 -0.982561788083127 0.26488652664747236
10.0755 -0.9817878629895522 0.26636410472403493
10.0766484375 -0.9806198275611291 0.2683858805381658
10.077796875 -0.9792918787300726 0.26976790506911125
10.0789453125 -0.9790472241366031 0.27233892119785763
10.08009375 -0.9766365718551884 0.2747372758862308
10.0812421875 -0.9772962601948869 0.27609957570741417
10.082390625 -0.9779128288792933 0.2775660259216971
10.0835390625 -0.9759145910892679 0.28065003607878425
10.0846875 -0.9752158075251012 0.28144246047606447
10.0858359375 -0.9741267421505624 0.28340899102216827
10.086984375 -0.9737780303900978 0.285119298154721
10.0881328125 -0.9717584926835459 0.28576774043800957
10.08928125 -0.9709725921265133 0.28771470434336466
10.0904296875 -0.9704102508457215 0.2894422894524703
10.091578125 -0.9699221047778206 0.2917127531473305
10.0927265625 -0.9701211391838763 0.29082620888503957
10.093875 -0.9681802695959859 0.2936587859409632
10.0950234375 -0.9681509284857569 0.29450356941688727
10.096171875 -0.9677201454643809 0.2948680560456329
10.0973203125 -0.9669527363570966 0.29791009017408554
10.09846875 -0.9660049148078471 0.29760979775257407
10.0996171875 -0.9659217493070927 0.30019805522030835
10.100765625 -0.965328918214205 0.30259523279776357
10.1019140625 -0.964155625333223 0.3026612664452627
10.1030625 -0.9632851769251054 0.30492554702110997
10.1042109375 -0.9623129043822363 0.30538372741550024
10.105359375 -0.9636520647450567 0.30809249988181614
10.1065078125 -0.9623898262899564 0.3096849348554231
10.10765625 -0.9623277210112413 0.3119479720569114
10.1088046875 -0.9601981098165575 0.31394300527151475
10.109953125 -0.9585459227011334 0.315864731300045
10.1111015625 -0.9568224319263972 0.3170315739065994
10.11225 -0.9559521277873692 0.3177728654525944
10.1133984375 -0.9558333260555487 0.319246557005356
10.114546875 -0.9545762933857025 0.31888322932649193
10.1156953125 -0.9527432967295267 0.3210563681335618
10.11684375 -0.9524283031500286 0.3210150947726253
10.1179921875 -0.94897662308056 0.3236655255380495
10.119140625 -0.9504770509788021 0.320560485804547
10.1202890625 -0.9486109007850683 0.3223827091842514
10.1214375 -0.9481477655539413 0.32203451076022815
10.1225859375 -0.9473557465325819 0.3204044195828155
10.123734375 -0.9469150475593292 0.32148138295307316
10.1248828125 -0.9463115449526623 0.32171244423887096
10.12603125 -0.9463130781215205 0.32387419733763073
10.1271796875 -0.9442138921542207 0.32407916224002054
10.128328125 -0.943427483529126 0.323694830327359
10.1294765625 -0.9418619763697711 0.3239761093260263
10.130625 -0.9412736479554507 0.3238614608764284
10.1317734375 -0.9415532574866263 0.3226766553756716
10.132921875 -0.9411242208154262 0.32331221626079687
10.1340703125 -0.9404174255917332 0.3221561476393844
10.13521875 -0.9416099511505196 0.3216981827956963
10.1363671875 -0.9429408168386588 0.3247215738590873
10.137515625 -0.9420116110333875 0.32515136421371627
10.1386640625 -0.9420564063428525 0.3259346121540099
10.1398125 -0.9422916066050567 0.32661058936239373
10.1409609375 -0.9430449844874931 0.325988446418188
10.142109375 -0.9406998720567585 0.3267278073321632
10.1432578125 -0.9414448992223359 0.32626886496303087
10.14440625 -0.9419176754804839 0.3272733339333186
10.1455546875 -0.942449471041211 0.3266205411203552
10.146703125 -0.943724272803291 0.32483600998988715
10.1478515625 -0.9433859046502486 0.3271493998604067
10.149 -0.94422663276819 0.32534455580202915
10.1501484375 -0.9459432541136955 0.32639825398013
10.151296875 -0.9473215070188927 0.32685027085088625
10.1524453125 -0.9497642407877176 0.32684673555216504
10.15359375 -0.9523347642706315 0.3291270989213757
10.1547421875 -0.9536519703225619 0.33120969190836136
10.155890625 -0.9544407503259538 0.3353939219833154
10.1570390625 -0.95583153236443 0.33544017781745417
10.1581875 -0.9573403368576043 0.337197971274098
10.1593359375 -0.9582994391312372 0.34019531632971844
10.160484375 -0.961091544654224 0.34067302555598633
10.1616328125 -0.9594641420645883 0.3430837620294668
10.16278125 -0.9582622313739596 0.3459825690558277
10.1639296875 -0.9590983951641959 0.3487188646586046
10.165078125 -0.9589899584428616 0.35019087472202703
10.1662265625 -0.9597199356473224 0.35163284642576487
10.167375 -0.960305506181951 0.3529025235205683
10.1685234375 -0.9621848222145106 0.3555606315349584
10.169671875 -0.9598075523739398 0.3567094364142932
10.1708203125 -0.959042688520053 0.3599672065057249
10.17196875 -0.9621692561342421 0.36038286858347746
10.1731171875 -0.9621492947014811 0.3621073449619382
10.174265625 -0.9599210307014613 0.3652230285586554
10.1754140625 -0.9635663606853603 0.36562782868944266
10.1765625 -0.9639741284128968 0.3707176648021101
10.1777109375 -0.9624519582198912 0.37204099029595805
10.178859375 -0.9633969298211138 0.374308326820198
10.1800078125 -0.9646487481447925 0.37721618627340947
10.18115625 -0.9644986339697005 0.38015216320933143
10.1823046875 -0.9626116081380233 0.3841685274635791
10.183453125 -0.9635876466988377 0.38463309178241745
10.1846015625 -0.963366549100406 0.38810216766744954
10.18575 -0.9606744539345702 0.3921286848246184
10.1868984375 -0.9628356895365836 0.39457564176102033
10.188046875 -0.9635336213491903 0.3955592460717524
10.1891953125 -0.9625749276279368 0.39810234740264594
10.19034375 -0.9616929436518802 0.4020260436831341
10.1914921875 -0.9608946934648988 0.4025829878687087
10.192640625 -0.9584642709682711 0.40499935745201177
10.1937890625 -0.9587934508664615 0.410176228968526
10.1949375 -0.9582031981552436 0.4085726904237733
10.1960859375 -0.9569462277341403 0.4142295975071614
10.197234375 -0.9555491310513328 0.4173659257087682
10.1983828125 -0.9552741970730587 0.41680138776995257
10.19953125 -0.9549669542447211 0.41869268997146625
10.2006796875 -0.9538893271954116 0.42164776561816575
10.201828125 -0.9516966968628362 0.4232683923499393
10.2029765625 -0.954013290292131 0.42649565892259444
10.204125 -0.9507348473726043 0.4276541377441814
10.2052734375 -0.9484207159136803 0.42905866922868463
10.206421875 -0.9487098817821459 0.42935637428378626
10.2075703125 -0.9472900280141049 0.4336462937776834
10.20871875 -0.9459097363214424 0.43559605965079573
10.2098671875 -0.9437593055088049 0.4377679536380591
10.211015625 -0.9422111292472668 0.4399038099478454
10.2121640625 -0.9417506305414163 0.44073214411934447
10.2133125 -0.9377307230689379 0.4404945127743922
10.2144609375 -0.9369486002252552 0.4414573927620464
10.215609375 -0.9362088033487292 0.44509893356988695
10.2167578125 -0.9359626863143642 0.4447887126802997
10.21790625 -0.9345543667494788 0.4451527076940252
10.2190546875 -0.9332072956429042 0.44786618328071237
10.220203125 -0.933302113731229 0.44692239724524074
10.2213515625 -0.9336385015107801 0.44898079395514706
10.2225 -0.9321817925636866 0.4510737252752988
10.2236484375 -0.9325032178004875 0.4537289675178831
10.224796875 -0.9300313745966299 0.454375527879063
10.2259453125 -0.928010508801358 0.456462456982245
10.22709375 -0.9278421693312396 0.45772706224612636
10.2282421875 -0.9245514387783277 0.45742329095271
10.229390625 -0.9259305664787867 0.4599236780588496
10.2305390625 -0.9233739738728721 0.4603038521473619
10.2316875 -0.9224609736095167 0.46312325195728665
10.2328359375 -0.9217221375193015 0.4625078667000097
10.233984375 -0.9209939530283281 0.4653488956302329
10.2351328125 -0.9196873703874142 0.4653169411195531
10.23628125 -0.9178410129732865 0.4658398447889402
10.2374296875 -0.9181606117039748 0.466879949229641
10.238578125 -0.9172084401561345 0.46849531910410736
10.2397265625 -0.918001511688209 0.47028061094944473
10.240875 -0.9187493395267244 0.4711818637023436
10.2420234375 -0.9154330859042012 0.4754163590476094
10.243171875 -0.9165366802801314 0.47621506815041403
10.2443203125 -0.91550305647318 0.4771857492342531
10.24546875 -0.9141619504481954 0.4792577037662213
10.2466171875 -0.9138079289291849 0.47971046777624693
10.247765625 -0.9127801603678457 0.4815540733771221
10.2489140625 -0.91109096327782 0.4846155254744327
10.2500625 -0.9086086817211245 0.48642376401420506
10.2512109375 -0.9089844139553092 0.4862268042998543
10.252359375 -0.9083620769311737 0.48558426794096765
10.2535078125 -0.9072108340357465 0.487871653501437
10.25465625 -0.907550319477227 0.49060429600655275
10.2558046875 -0.9055779181000189 0.49293507177533197
10.256953125 -0.9040248612815902 0.49490455327411614
10.2581015625 -0.9014259089727861 0.494797562111119
10.25925 -0.9008218429318734 0.4963625187623437
10.2603984375 -0.9000031130630843 0.49685766520543895
10.261546875 -0.8982793195959065 0.49726207685075396
10.2626953125 -0.8979584669594581 0.4984143743808642
10.26384375 -0.897218726748118 0.4992852309293849
10.2649921875 -0.8957824753044241 0.5011165010028096
10.266140625 -0.8958182645449286 0.5012203638703783
10.2672890625 -0.8947905288200121 0.5015234724919984
10.2684375 -0.8932750677256038 0.5018835699927633
10.2695859375 -0.8928597184761328 0.503109338370215
10.270734375 -0.8916238150004651 0.5030448247512143
10.2718828125 -0.8910792584413171 0.5042717862965426
10.27303125 -0.8906449562277199 0.5043339872191218
10.2741796875 -0.8920331327595736 0.5060462525603717
10.275328125 -0.891088174776385 0.5078810118158706
10.2764765625 -0.889251755498506 0.508739021715044
10.277625 -0.8895875362090633 0.5078847493335501
10.2787734375 -0.8885956242927304 0.5096373299704335
10.279921875 -0.8885020668483077 0.5084892962775411
10.2810703125 -0.887716193674859 0.5107899405264489
10.28221875 -0.8873346656073566 0.5113038552993081
10.2833671875 -0.8868103527668277 0.5122033134247127
10.284515625 -0.8858720207691821 0.5129117739252634
10.2856640625 -0.8857868303363341 0.5143290528094927
10.2868125 -0.8854177461748831 0.5141009568815067
10.2879609375 -0.884615954321065 0.5154988682896986
10.289109375 -0.8833453619324837 0.5144739383499318
10.2902578125 -0.8838787556554804 0.5157991425480029
10.29140625 -0.8845435895177798 0.5173243248106589
10.2925546875 -0.8836470299746307 0.5188013253779555
10.293703125 -0.8838289891446389 0.521331346244511
10.2948515625 -0.883770885051433 0.520895084938714
10.296 -0.8833006238409491 0.5223611963141106
10.2971484375 -0.8838796598498987 0.5247276501409106
10.298296875 -0.8827242215234791 0.5236257951061494
10.2994453125 -0.8847018076091049 0.5256916835155798
10.30059375 -0.883337655817122 0.5255029836666611
10.3017421875 -0.8823335535935057 0.5265572143077204
10.302890625 -0.8848120325737417 0.5283076469062785
10.3040390625 -0.8830969532766483 0.5302395411634724
10.3051875 -0.8851712415602035 0.5305997481464331
10.3063359375 -0.8857379068173039 0.5314120106557338
10.307484375 -0.8850845419631735 0.5336448700835901
10.3086328125 -0.886596960139169 0.5368868938399649
10.30978125 -0.8858299254992172 0.5394081961209425
10.3109296875 -0.8864819615841615 0.5408476626023191
10.312078125 -0.8856221833180458 0.543697720009125
10.3132265625 -0.8858526967716059 0.5439153817100445
10.314375 -0.8857514272747717 0.5458397178872871
10.3155234375 -0.8856764122838311 0.5509012406404173
10.316671875 -0.8865930125964434 0.5487618323849683
10.3178203125 -0.8855694374985377 0.5506135174917807
10.31896875 -0.8867913816960302 0.5503119312222485
10.3201171875 -0.8867751636636321 0.5499302990805299
10.321265625 -0.8873863968018998 0.5535259523914126
10.3224140625 -0.8888207219958582 0.5562171724184422
10.3235625 -0.8906656882412985 0.5607087379066148
10.3247109375 -0.8897410191954972 0.5645047700460692
10.325859375 -0.8917770445493494 0.5682847523416654
10.3270078125 -0.8891059270013568 0.5734754318555098
10.32815625 -0.8909196945779199 0.5756797021978335
10.3293046875 -0.8874098215720914 0.579175183572413
10.330453125 -0.8848159555594726 0.5812570707424757
10.3316015625 -0.8849881309220505 0.5836516696549147
10.33275 -0.8825740751854336 0.5870562790173242
10.3338984375 -0.8810400651569664 0.5886261484213059
10.335046875 -0.8780402831021501 0.5915050920834969
10.3361953125 -0.8740480221383377 0.5945150050967685
10.33734375 -0.8739345540704732 0.5957300443219588
10.3384921875 -0.8713737167147994 0.5966781263886807
10.339640625 -0.8677677685432803 0.5982496571444753
10.3407890625 -0.8685929969178224 0.5997701931762262
10.3419375 -0.8698349111092942 0.5999802568237519
10.3430859375 -0.8683622750570711 0.6025026259415927
10.344234375 -0.8675339211395856 0.6030778083178798
10.3453828125 -0.8672731643305004 0.6058042716111177
10.34653125 -0.8681503176192695 0.6092112737192988
10.3476796875 -0.8645711206132176 0.612559865092502
10.348828125 -0.8636319004588756 0.6147577549325766
10.3499765625 -0.8591180123946034 0.6164531071483705
10.351125 -0.8582412071269636 0.6198071975097493
10.3522734375 -0.8556449139046223 0.6213032728292233
10.353421875 -0.8545482870351983 0.6231217566797184
10.3545703125 -0.8538594825861507 0.6240232157301647
10.35571875 -0.8512214085315243 0.6253762880394768
10.3568671875 -0.8495639926731811 0.6266758635779724
10.358015625 -0.8464917199543213 0.6276139046631574
10.3591640625 -0.8434302415248711 0.629429860118527
10.3603125 -0.8424113520265241 0.6296915713009372
10.3614609375 -0.8416141043486618 0.6308314819629945
10.362609375 -0.8436784717206688 0.6331785883721576
10.3637578125 -0.8395153083045782 0.6344661569003689
10.36490625 -0.8404925833335424 0.6358497824559242
10.3660546875 -0.840725944734112 0.637766880411382
10.367203125 -0.8352266372375972 0.6442211005409372
10.3683515625 -0.835233189454011 0.6469074606058465
10.3695 -0.8301879504318762 0.6482861665746432
10.3706484375 -0.8258159990662115 0.6451141127650446
10.371796875 -0.8240472985862202 0.6461323558421108
10.3729453125 -0.8193116864056128 0.6446022327638217
10.37409375 -0.8206974216579987 0.6445796548625953
10.3752421875 -0.8197706897962178 0.6452092566330007
10.376390625 -0.8187910984708888 0.6485612623598384
10.3775390625 -0.8152581213019908 0.6474658686675885
10.3786875 -0.8122145054507868 0.6488400541824945
10.3798359375 -0.814686552567432 0.6504387340903963
10.380984375 -0.8138846566661303 0.6498195266857052
10.3821328125 -0.8134168433492472 0.6511853672641807
10.38328125 -0.8129548381532998 0.6526451785845631
10.3844296875 -0.8099221774258394 0.6532707126222651
10.385578125 -0.8091980755519839 0.6574060368366211
10.3867265625 -0.8099620071179268 0.6564736124067868
10.387875 -0.8086894059857936 0.6603196123877335
10.3890234375 -0.8051844756290921 0.6621893485139032
10.390171875 -0.8024023787953048 0.6612845163797074
10.3913203125 -0.8035423203363062 0.6646041891812322
10.39246875 -0.799800894797868 0.6679843176417701
10.3936171875 -0.7990568291544026 0.6654550303373201
10.394765625 -0.7953839849245987 0.6667533038721103
10.3959140625 -0.7924893063985233 0.6678643096847184
10.3970625 -0.7918856598161246 0.6668877351401041
10.3982109375 -0.7901492914651618 0.6670953809408198
10.399359375 -0.7890815970035089 0.667344439719312
10.4005078125 -0.7873599867692193 0.6691196663121004
10.40165625 -0.7879806003476676 0.6675406461125568
10.4028046875 -0.7853895304931371 0.6672860055728387
10.403953125 -0.785019856931774 0.6707128296203946
10.4051015625 -0.7838753619874607 0.6700740327476293
10.40625 -0.781086492250685 0.670261075437056
10.4073984375 -0.7787245224782706 0.6694729938685156
10.408546875 -0.7793229437694201 0.6719249445286357
10.4096953125 -0.7782204528219893 0.6706106175872442
10.41084375 -0.7785901969264535 0.6722858554561079
10.4119921875 -0.7768722718225828 0.6726787454375673
10.413140625 -0.7774925855255985 0.6740092677235455
10.4142890625 -0.7766702589050334 0.6732212466782452
10.4154375 -0.7775783189946152 0.6749843240177528
10.4165859375 -0.7770907003414063 0.6744098238089559
10.417734375 -0.7757561394374438 0.675599898573612
10.4188828125 -0.776798629559663 0.6780359872759345
10.42003125 -0.7755722984992176 0.6795151137078543
10.4211796875 -0.7745895510898241 0.6788337561081286
10.422328125 -0.7748912592892692 0.6821653440822245
10.4234765625 -0.774530127235131 0.6824671981413415
10.424625 -0.7729974832214888 0.6828860924406437
10.4257734375 -0.7716949812871701 0.6859865193319483
10.426921875 -0.7714756607487223 0.6873832503772647
10.4280703125 -0.7724225955257388 0.6890831991274349
10.42921875 -0.7721526277284362 0.6897905260517265
10.4303671875 -0.7702201672958121 0.6917807170226803
10.431515625 -0.7666212616459589 0.6932898740118492
10.4326640625 -0.7648545608013995 0.6949106741179414
10.4338125 -0.7631102424737696 0.697470652795452
10.4349609375 -0.7626128000625175 0.6981033759309886
10.436109375 -0.7609867489671968 0.6985152615059338
10.4372578125 -0.7617984374879079 0.6999972869018711
10.43840625 -0.7599350414938975 0.7031417548441246
10.4395546875 -0.7595663559438316 0.7045048524047224
10.440703125 -0.7552147279128553 0.7079824887440762
10.4418515625 -0.7541002176218272 0.7089730541028236
10.443 -0.7513547263541503 0.7100594922479362
10.4441484375 -0.7493966942222439 0.7084286793213227
10.445296875 -0.7489752152938064 0.7112690774558058
10.4464453125 -0.7496561070196653 0.7132982254687281
10.44759375 -0.7463757819219277 0.7148313120026534
10.4487421875 -0.7470247638333495 0.7164705877218247
10.449890625 -0.7432604312295465 0.7168895033582382
10.4510390625 -0.7411847923641398 0.7188185672999424
10.4521875 -0.740978898007299 0.7215309578009849
10.4533359375 -0.7381547184991408 0.7213199641793524
10.454484375 -0.7347820364467712 0.722111347630585
10.4556328125 -0.7338173516979446 0.7237709745694405
10.45678125 -0.7339324342940192 0.7265200522410062
10.4579296875 -0.7317666352659514 0.7275907634788279
10.459078125 -0.7305075107727909 0.7314701059433374
10.4602265625 -0.7296022113257059 0.7330174969245482
10.461375 -0.7269869119470804 0.736910629068184
10.4625234375 -0.7249320815657643 0.7389272504471527
10.463671875 -0.7207711562159583 0.7398867493952481
10.4648203125 -0.7145779990247128 0.7440069036576376
10.46596875 -0.7125553328928369 0.7451800844493504
10.4671171875 -0.7091185495488883 0.7450608758340398
10.468265625 -0.703787758388928 0.7463613703254748
10.4694140625 -0.7027779172588351 0.7481860542632484
10.4705625 -0.6990690929514201 0.7462799375539002
10.4717109375 -0.6948616171438402 0.7473860253691608
10.472859375 -0.6899574757490572 0.7470381436455298
10.4740078125 -0.6874159316149002 0.7464059273446657
10.47515625 -0.6875894486998038 0.7476742778312714
10.4763046875 -0.6826431711953052 0.7459288929829417
10.477453125 -0.6794339561553432 0.7409506486165323
10.4786015625 -0.6753119580660641 0.7446471258425131
10.47975 -0.6722318965373264 0.7400140315230554
10.4808984375 -0.6703244483045858 0.7388373973582814
10.482046875 -0.6672464918458365 0.7382346435990479
10.4831953125 -0.664882678515883 0.7354992445647908
10.48434375 -0.6617870271131334 0.7351997881533241
10.4854921875 -0.6553295324448235 0.7343555858155795
10.486640625 -0.6570199651142048 0.7353148359504036
10.4877890625 -0.6498998191084968 0.7313037195428926
10.4889375 -0.6480021877517524 0.7262155584733805
10.4900859375 -0.6430773046912399 0.7228458411962861
10.491234375 -0.6378491498450343 0.7160399102175614
10.4923828125 -0.6406391042292935 0.7088053329610569
10.49353125 -0.6439958412948324 0.7031534183432118
10.4946796875 -0.6418491771468937 0.6963906899635498
10.495828125 -0.6465167199981406 0.68881829315216
10.4969765625 -0.6500319224653706 0.6865047033551439
10.498125 -0.6562283922631349 0.6783000186749993
10.4992734375 -0.657855724602832 0.6724628468559541
10.500421875 -0.6669921235526827 0.6731758434905472
10.5015703125 -0.6735029868193476 0.6684457026218236
10.50271875 -0.6788530300703952 0.6683719493007039
10.5038671875 -0.6831337188975684 0.6681105250691046
10.505015625 -0.6902128561027071 0.6708214878380796
10.5061640625 -0.6968494806892838 0.6695654408490186
10.5073125 -0.7043679505890768 0.6743310854860758
10.5084609375 -0.7112997649661066 0.6779342456328438
10.509609375 -0.7102925364843922 0.6881998919579674
10.5107578125 -0.7186510332026904 0.6954009211248162
10.51190625 -0.7211430514117877 0.6985979247878973
10.5130546875 -0.720787449234191 0.7011666172453542
10.514203125 -0.7208915745628064 0.7089846554165259
10.5153515625 -0.7189613579576672 0.7150392442944546
10.5165 -0.7181965505426092 0.7169037138731462
10.5176484375 -0.71760840075712 0.7216654994753547
10.518796875 -0.715928887376181 0.7243731283924291
10.5199453125 -0.7148539693376161 0.7293770993733171
10.52109375 -0.7094574403603977 0.7350455166329748
10.5222421875 -0.7111782477242712 0.7365135456988585
10.523390625 -0.7085010481343529 0.739757553839321
10.5245390625 -0.701758521251025 0.7484594249977438
10.5256875 -0.7003806511053005 0.7488765786043149
10.5268359375 -0.6962899059497236 0.7536769513473176
10.527984375 -0.6944765965043307 0.753112697407384
10.5291328125 -0.6922935622449762 0.7542881554449252
10.53028125 -0.6882912726968464 0.7540053641759448
10.5314296875 -0.690198027023857 0.7526158469731787
10.532578125 -0.6831668380097651 0.7549770073895269
10.5337265625 -0.6857271883180532 0.7547972009049339
10.534875 -0.683807883913164 0.7545538635390893
10.5360234375 -0.6845474729862956 0.7582442037344136
10.537171875 -0.6892379481034113 0.7594121630625954
10.5383203125 -0.6898182353610736 0.7615926365224636
10.53946875 -0.6883656377214384 0.7692266196867039
10.5406171875 -0.6872451794006182 0.7722437930230559
10.541765625 -0.6846354241796824 0.7759816731238092
10.5429140625 -0.6806745635102363 0.7774983610688918
10.5440625 -0.678462108188844 0.7775310852410142
10.5452109375 -0.6758824116792042 0.7806916005996721
10.546359375 -0.6730871112912149 0.7825954507344575
10.5475078125 -0.6696829926366962 0.7861979186441052
10.54865625 -0.6659043314248623 0.7882397702582781
10.5498046875 -0.6609396741371734 0.7930987353627753
10.550953125 -0.6575335874848116 0.7941835069273332
10.5521015625 -0.6530791859658649 0.7930468447517144
10.55325 -0.6542160789075562 0.7942689953922721
10.5543984375 -0.6512830652170697 0.7906705039005743
10.555546875 -0.6499681241250699 0.7910191784397007
10.5566953125 -0.647158337335117 0.7947633328898511
10.55784375 -0.6489456326495292 0.797802042260175
10.5589921875 -0.6452634689317325 0.7983277218167544
10.560140625 -0.6445365186512035 0.795588706036337
10.5612890625 -0.6388308828214604 0.7994880532413983
10.5624375 -0.6396977187044436 0.7973297708030667
10.5635859375 -0.6401861685797722 0.7949585889219797
10.564734375 -0.6404325102846389 0.7986086899402655
10.5658828125 -0.6376772695952813 0.8025189328143852
10.56703125 -0.6376503548908941 0.8003779508764901
10.5681796875 -0.6341532782347129 0.8019834280765143
10.569328125 -0.6345652515071034 0.8025989537990623
10.5704765625 -0.6321256151404716 0.8033292001391077
10.571625 -0.6313495566571887 0.8039375699196729
10.5727734375 -0.634552460958808 0.800782249020219
10.573921875 -0.6300077374632425 0.8013064095195916
10.5750703125 -0.6316081744923969 0.8019856337013813
10.57621875 -0.6311009200885886 0.8067544256766194
10.5773671875 -0.6289209781532656 0.8093132811542699
10.578515625 -0.6281864325211944 0.8100498081520731
10.5796640625 -0.6238854108721663 0.8086320236762248
10.5808125 -0.628197060433864 0.8104948883856529
10.5819609375 -0.6258993782237892 0.8129708990681501
10.583109375 -0.6205395904098074 0.8121518349599194
10.5842578125 -0.6207700531251645 0.8124416117788595
10.58540625 -0.6167962380307593 0.8170335776754913
10.5865546875 -0.6186070416754699 0.8155366986387749
10.587703125 -0.6147970487366107 0.8081313398327648
10.5888515625 -0.6130111768432229 0.8049776911076382
10.59 -0.6181633800467242 0.8041748750219853
10.5911484375 -0.6175195316208159 0.8070834885575406
10.592296875 -0.6112095334732506 0.8116341221042188
10.5934453125 -0.6134073414168433 0.8131664862442018
10.59459375 -0.613389655083085 0.8111382035319863
10.5957421875 -0.6143545809579131 0.8132320395571083
10.596890625 -0.6109026870591304 0.8118053900902499
10.5980390625 -0.6121410818360389 0.8113119315498014
10.5991875 -0.6112922998520928 0.8124308721797444
10.6003359375 -0.6098880249307561 0.8154141317291418
10.601484375 -0.6116237961039408 0.8151646373758658
10.6026328125 -0.6098399844261849 0.8162541296988669
10.60378125 -0.6085802406994443 0.8183314760753521
10.6049296875 -0.6053274171768518 0.8220221228861452
10.606078125 -0.6041263907757111 0.8223482896106307
10.6072265625 -0.6049418435585368 0.8258351394591523
10.608375 -0.5974925462124211 0.8247341045323557
10.6095234375 -0.5961058161861448 0.8291107810563382
10.610671875 -0.5910146435719297 0.8259137673381944
10.6118203125 -0.589115490793913 0.8277459565385403
10.61296875 -0.5867902836553592 0.8234958594558969
10.6141171875 -0.5878953294547768 0.8225055372294037
10.615265625 -0.5865450698148025 0.8232294948680277
10.6164140625 -0.5862155328765977 0.8258496820088231
10.6175625 -0.585057870009997 0.827629605969018
10.6187109375 -0.5841615015606372 0.8290960646015799
10.619859375 -0.5801602315898778 0.8285257399452564
10.6210078125 -0.5761670946033496 0.8298121596749337
10.62215625 -0.5738709195503109 0.8303225804077285
10.6233046875 -0.5706782374677591 0.8298984767032273
10.624453125 -0.5717163460996669 0.8303977310985597
10.6256015625 -0.5704525888466587 0.8291387731792055
10.62675 -0.5676733789941344 0.8298131125119982
10.6278984375 -0.5637535441956187 0.8281746142554819
10.629046875 -0.5659597825441457 0.829239316285551
10.6301953125 -0.5688756919210489 0.8242051372816663
10.63134375 -0.571261742818476 0.829549733171007
10.6324921875 -0.5731519601816786 0.8273479598333385
10.633640625 -0.5679076581164882 0.8344001615506381
10.6347890625 -0.5643919279574835 0.8375953595131362
10.6359375 -0.5655099184236988 0.8371049139718106
10.6370859375 -0.5652911573426849 0.8408147085343386
10.638234375 -0.5623720433932593 0.8424657855864228
10.6393828125 -0.5595068753512932 0.8422250257115123
10.64053125 -0.5592392854908753 0.8440844560777928
10.6416796875 -0.5570920491445794 0.8458136022300663
10.642828125 -0.5573442784075515 0.8435329260769494
10.6439765625 -0.55013969975683 0.8505169795788854
10.645125 -0.5510349232313289 0.849909562341775
10.6462734375 -0.5487196272258815 0.8502426275708846
10.647421875 -0.5493348062301578 0.848926474925128
10.6485703125 -0.5463024499415063 0.8477721150890148
10.64971875 -0.5507856816762597 0.8474837115356623
10.6508671875 -0.5488270963812955 0.8487857324177147
10.652015625 -0.5440890114810952 0.8506367780126413
10.6531640625 -0.5446033187439542 0.8519576458579691
10.6543125 -0.5460206356268474 0.8499333223031483
10.6554609375 -0.5431787393533649 0.8579741853691542
10.656609375 -0.5446956068875063 0.858544311943948
10.6577578125 -0.5407973215112769 0.8556078555676941
10.65890625 -0.5418693324156265 0.8513657695204881
10.6600546875 -0.5423005729396009 0.8499956862088804
10.661203125 -0.5463363122156775 0.8488913255656707
10.6623515625 -0.5458023281076154 0.8494047126442037
10.6635 -0.5497418035021702 0.8490835449506178
10.6646484375 -0.5464778318748846 0.8544508246380191
10.665796875 -0.5548301292975317 0.8582151169351586
10.6669453125 -0.5513599470664337 0.8598288155315429
10.66809375 -0.5495185748628444 0.8646202654323304
10.6692421875 -0.5456239609456919 0.8659869545657389
10.670390625 -0.5459093332395006 0.8668486619055731
10.6715390625 -0.5460216589636976 0.8664189897269845
10.6726875 -0.5468904228284588 0.8669117072910248
10.6738359375 -0.5470680561470866 0.8729533060340393
10.674984375 -0.5463237978326912 0.870703945106486
10.6761328125 -0.5430054162089153 0.8722080357833656
10.67728125 -0.5427446656082175 0.8747378553199323
10.6784296875 -0.5447805044470917 0.8795561067737604
10.679578125 -0.5400822268684281 0.8810192474731279
10.6807265625 -0.5340037345665125 0.885459581206182
10.681875 -0.5324242999022855 0.8859501742318907
10.6830234375 -0.5307825859161953 0.887711058938895
10.684171875 -0.5312466939732194 0.8885722405217192
10.6853203125 -0.5304642081855183 0.8905954180902697
10.68646875 -0.5326753736610552 0.8923657272276035
10.6876171875 -0.5208864491786648 0.8946859397946895
10.688765625 -0.5221218287243179 0.8979944755162715
10.6899140625 -0.5230203573328422 0.9025819714828719
10.6910625 -0.5181095920991929 0.9003252842273318
10.6922109375 -0.5160626758321847 0.909355213660259
10.693359375 -0.5087569101422644 0.9080584598053256
10.6945078125 -0.5035142257684401 0.9084924824032092
10.69565625 -0.496727125112271 0.9122008359977984
10.6968046875 -0.4960524864650195 0.9078992776066505
10.697953125 -0.4902037294053248 0.9080916225604624
10.6991015625 -0.48742566593945286 0.9106098950422906
10.70025 -0.48673381355296763 0.9098454750689489
10.7013984375 -0.4842273704994899 0.9075607592502805
10.702546875 -0.4825744367034892 0.90897900547751
10.7036953125 -0.47890130682125476 0.9060342051232926
10.70484375 -0.4765880724345364 0.908567242890675
10.7059921875 -0.47626647134078093 0.9096822944476406
10.707140625 -0.4771706739317555 0.9176509316690531
10.7082890625 -0.4708868755686117 0.9173914684464392
10.7094375 -0.46938048285268663 0.9151114564727378
10.7105859375 -0.4653569047111201 0.9161473888593249
10.711734375 -0.4672549185946448 0.9165047692827584
10.7128828125 -0.4637411425181357 0.9190990168640707
10.71403125 -0.46421201023889413 0.916771835390239
10.7151796875 -0.46050484183901985 0.9193636454308591
10.716328125 -0.45129509544304236 0.920888214813246
10.7174765625 -0.444802395495639 0.9185228686731969
10.718625 -0.4439545776098398 0.9191796680743611
10.7197734375 -0.44992244110172663 0.9162342027343766
10.720921875 -0.4421244225473915 0.9158380228766787
10.7220703125 -0.44191519297823123 0.9187217912723916
10.72321875 -0.4380324229865016 0.9157293467870378
10.7243671875 -0.4347646156254279 0.9158294752028224
10.725515625 -0.43912339685245294 0.9124668222133687
10.7266640625 -0.4387180733441679 0.9141825446893144
10.7278125 -0.4365195608905436 0.9148934634744336
10.7289609375 -0.4291751475244286 0.9133225187103395
10.730109375 -0.43303344622742157 0.9137282319731751
10.7312578125 -0.4252964622393428 0.9139269867359939
10.73240625 -0.4266264569294577 0.910517372413908
10.7335546875 -0.43264708529279117 0.9092003249040722
10.734703125 -0.43365804221367604 0.9104954949084608
10.7358515625 -0.429457518912704 0.9073037046965182
10.737 -0.43228553829295596 0.9086125163747835
10.7381484375 -0.42835843766443976 0.9105809023863449
10.739296875 -0.42551778806214857 0.9142882409517004
10.7404453125 -0.42476708390957785 0.9121126423911384
10.74159375 -0.4216470262990911 0.9147339509733882
10.7427421875 -0.4193640888652529 0.9154397694464304
10.743890625 -0.4188371777912656 0.9134737036734242
10.7450390625 -0.416878624849916 0.9102395469949409
10.7461875 -0.4134712980557531 0.9054937367922958
10.7473359375 -0.40972163107464354 0.9085514813637112
10.748484375 -0.41050382232107435 0.9032406217717888
10.7496328125 -0.4173896827063077 0.8995416668385954
10.75078125 -0.4142209615023923 0.899999339575876
10.7519296875 -0.40890530478179143 0.8961115337082881
10.753078125 -0.40748481838419004 0.8972652105292044
10.7542265625 -0.4143227048374798 0.8962855251947868
10.755375 -0.41674922997130903 0.9012041915330968
10.7565234375 -0.4146701508150512 0.8931455061313205
10.757671875 -0.4149338125835793 0.8940500896700753
10.7588203125 -0.4032470093293786 0.8939789460466455
10.75996875 -0.40719983858194997 0.8896473033829038
10.7611171875 -0.40839153511204895 0.8890383967653819
10.762265625 -0.4079788431753542 0.8887043827279308
10.7634140625 -0.40719120565310485 0.8812355567957008
10.7645625 -0.4082558730473008 0.8790618771244169
10.7657109375 -0.4104191247116107 0.8757432162419587
10.766859375 -0.40943530499512015 0.877585325941107
10.7680078125 -0.41584301847180305 0.8790527174510128
10.76915625 -0.41569673138812935 0.8794983677733255
10.7703046875 -0.41174185650706185 0.8833571133956135
10.771453125 -0.41383292786965187 0.8866552842050617
10.7726015625 -0.4102284415397218 0.8856105330782302
10.77375 -0.413061722484014 0.888697186747877
10.7748984375 -0.413880354550775 0.8906293474556866
10.776046875 -0.40608207761557047 0.8874539292315846
10.7771953125 -0.4066132605805667 0.8882340917706748
10.77834375 -0.40471681052762426 0.8921629734580037
10.7794921875 -0.40787935064886016 0.885382275837844
10.780640625 -0.4037478672870591 0.8891915407101091
10.7817890625 -0.4017355372534962 0.8869108921005524
10.7829375 -0.40391166674678197 0.8894584368083147
10.7840859375 -0.40687648660627 0.8909606669934929
10.785234375 -0.40235889214973064 0.8921831471010266
10.7863828125 -0.4044449870396252 0.8927778262487319
10.78753125 -0.40386765718022544 0.8969554369953383
10.7886796875 -0.3995050262644369 0.8967185812190868
10.789828125 -0.4004231149707634 0.8992225496170324
10.7909765625 -0.40309058684431565 0.9050885353496002
10.792125 -0.4066263723402355 0.9097228715120134
10.7932734375 -0.40308195656181545 0.912470533660553
10.794421875 -0.39736639470812674 0.9182866997553112
10.7955703125 -0.395635905107262 0.9150729520351253
10.79671875 -0.3884897907502703 0.9203250868645892
10.7978671875 -0.39309885097130254 0.9199948988219577
10.799015625 -0.390905784059954 0.9228384444475706
10.8001640625 -0.38852741252142764 0.925595259765906
10.8013125 -0.3908278932638858 0.9261308960124098
10.8024609375 -0.3893808137542554 0.9288554488748522
10.803609375 -0.3922455486765062 0.9298270866799344
10.8047578125 -0.39005213693063473 0.9283200945384689
10.80590625 -0.3856633704120386 0.9310578724444287
10.8070546875 -0.38562316042705036 0.9325326699948078
10.808203125 -0.3801742120654449 0.9348835056573568
10.8093515625 -0.3858831354903992 0.9338420141107154
10.8105 -0.3871737201872569 0.9362108251342367
10.8116484375 -0.38007229813079946 0.9425163849643855
10.812796875 -0.3763473955765063 0.9448424531411478
10.8139453125 -0.37864426717448896 0.9490601420557749
10.81509375 -0.37898056986158657 0.9492011775579786
10.8162421875 -0.37460533159254716 0.9548074708028917
10.817390625 -0.3745162517372057 0.9549131597349709
10.8185390625 -0.3703532844586561 0.9615737201295378
10.8196875 -0.36917028611362446 0.9562380819834339
10.8208359375 -0.365790108469018 0.9653292417242673
10.821984375 -0.36363814401745354 0.9650615241451189
10.8231328125 -0.36294236744011604 0.9687247719595244
10.82428125 -0.3609999191339408 0.965844381657498
10.8254296875 -0.3579946916996729 0.9704051465890067
10.826578125 -0.35994932473719055 0.9730367661409716
10.8277265625 -0.3545266209166047 0.9704605957836218
10.828875 -0.3581166188681426 0.964644096779401
10.8300234375 -0.3426725795691344 0.9639558159924814
10.831171875 -0.3512584432271907 0.9676097239853372
10.8323203125 -0.34341572278389476 0.9644592217549354
10.83346875 -0.3438980189092652 0.9625293747408515
10.8346171875 -0.34094452609927517 0.9641358304625502
10.835765625 -0.33576547006298496 0.9633052249999896
10.8369140625 -0.3396963658145062 0.9675978463894297
10.8380625 -0.3393530693645059 0.9644199789138369
10.8392109375 -0.33675633056547005 0.9633071323700977
10.840359375 -0.33766409553087284 0.969093835707595
10.8415078125 -0.3380950534631979 0.9678390393884397
10.84265625 -0.3359759297704483 0.9668367929617498
10.8438046875 -0.3339303428406232 0.9671049028863933
10.844953125 -0.33108066041263234 0.9730631706473005
10.8461015625 -0.32885685368220113 0.9669590068814047
10.84725 -0.32755624017797413 0.963527670407889
10.8483984375 -0.32310960609041295 0.9654652335318373
10.849546875 -0.3238040934600991 0.9663469904756204
10.8506953125 -0.3216277989359624 0.962474579466575
10.85184375 -0.32125377570921476 0.9601366165940634
10.8529921875 -0.3181417080381951 0.9640343773064096
10.854140625 -0.3163858564365731 0.9615453948147961
10.8552890625 -0.31272152235131173 0.9627922436833818
10.8564375 -0.31466598459939915 0.9629855609409324
10.8575859375 -0.31152407860740605 0.9606296100955021
10.858734375 -0.31617267467896276 0.9607122677459037
10.8598828125 -0.31054295837432394 0.9625243362322002
10.86103125 -0.3117384372471607 0.9582844213750884
10.8621796875 -0.313794831856409 0.9623387935387907
10.863328125 -0.3098626513562569 0.9671870947297552
10.8644765625 -0.3068826020803578 0.9681165587517102
10.865625 -0.3032793633246573 0.9627899373686303
10.8667734375 -0.3010376871668079 0.9596087003843297
10.867921875 -0.294761310858237 0.964751224889564
10.8690703125 -0.29518456268884585 0.9655090015273733
10.87021875 -0.29465583320924993 0.9654754379885715
10.8713671875 -0.2854477238853629 0.9647954547689572
10.872515625 -0.28896620662236316 0.967721208703434
10.8736640625 -0.28932491527214754 0.9696477037935552
10.8748125 -0.2858269993795701 0.967994052388556
10.8759609375 -0.287123434451101 0.9672744280577315
10.877109375 -0.29097508786493287 0.9617077300370613
10.8782578125 -0.2883166230513764 0.9657315305572878
10.87940625 -0.28013887295984796 0.9683410806884197
10.8805546875 -0.27824959965918333 0.9700283285960871
10.881703125 -0.2799961867663319 0.9731296797661767
10.8828515625 -0.27496064093527056 0.974559324055304
10.884 -0.2769601010170704 0.9803306548888857
10.8851484375 -0.27228743132063965 0.9786825999869182
10.886296875 -0.2681268139345756 0.9723138418393729
10.8874453125 -0.2682636774926175 0.9806981220063347
10.88859375 -0.2676695521924477 0.9843675486569745
10.8897421875 -0.2641844793660887 0.9831326050955955
10.890890625 -0.25953420257231774 0.9793441522666003
10.8920390625 -0.2670689653503885 0.9776773014923661
10.8931875 -0.2578850492698985 0.9807131889278367
10.8943359375 -0.25641045809730756 0.9776341189921671
10.895484375 -0.25625103620848644 0.9793309666243293
10.8966328125 -0.2581725717783022 0.9793249125225949
10.89778125 -0.2516219570126786 0.9847452246520936
10.8989296875 -0.25506849225504247 0.9849120260424162
10.900078125 -0.25929745097282486 0.9821600670384342
10.9012265625 -0.2490505215464311 0.9830496502362593
10.902375 -0.2522556032182762 0.987131561973505
10.9035234375 -0.2581600412706439 0.9841142949360285
10.904671875 -0.24451895679860539 0.9770250943004627
10.9058203125 -0.2441869449591418 0.9844949920088254
10.90696875 -0.24085256510755415 0.9791420273110335
10.9081171875 -0.2410050562084746 0.9791470629994635
10.909265625 -0.23984680902358815 0.982752955442344
10.9104140625 -0.2403440555000561 0.9868081710086449
10.9115625 -0.24149568958859438 0.9894945761011739
10.9127109375 -0.24196448067582366 0.9859095924339436
10.913859375 -0.23798941007389016 0.9825824588710875
10.9150078125 -0.23707978612561334 0.9876095761113877
10.91615625 -0.23782432459645633 0.9838683965885977
10.9173046875 -0.23823333777706585 0.9801270270138617
10.918453125 -0.23703365795613365 0.981717509850533
10.9196015625 -0.23578350710175844 0.979811040597893
10.92075 -0.23364308578349152 0.9864876480062369
10.9218984375 -0.22896516461363803 0.9829808623151478
10.923046875 -0.2341467871800234 0.9858259918584038
10.9241953125 -0.23025366551610832 0.9822637258019589
10.92534375 -0.2265192255172771 0.9775843855788618
10.9264921875 -0.23121248504785297 0.9833601610793588
10.927640625 -0.22538988819173533 0.980496327726093
10.9287890625 -0.2260785683806672 0.9851941438512054
10.9299375 -0.21958736197351414 0.9841113321761923
10.9310859375 -0.22072809614702033 0.9842507835529085
10.932234375 -0.22021216209504635 0.9857753925883119
10.9333828125 -0.22117068730603884 0.9841246951969274
10.93453125 -0.21849603545702662 0.9846874377189336
10.9356796875 -0.21802767395127132 0.9898243195938476
10.936828125 -0.2152896211330116 0.9894505907068681
10.9379765625 -0.2050303354039511 0.9872513475220804
10.939125 -0.21122023844674664 0.9889769957579099
10.9402734375 -0.2037877479560204 0.9884656999218981
10.941421875 -0.20544853445913014 0.9899635592856051
10.9425703125 -0.19744209602896978 0.9847599636353266
10.94371875 -0.20115564646510525 0.9855825604793179
10.9448671875 -0.20267655712942517 0.9895738063248289
10.946015625 -0.19950299758656315 0.9859952393181952
10.9471640625 -0.19787718850488378 0.9868609527386221
10.9483125 -0.205166057952693 0.9865651574820545
10.9494609375 -0.19580257500612763 0.993101655412874
10.950609375 -0.19472216451462554 0.9980859722632754
10.9517578125 -0.1940488157873757 0.9982597671489414
10.95290625 -0.1948969404762959 1.003231392066486
10.9540546875 -0.1962766610369278 1.002268501972864
10.955203125 -0.1801377800680392 0.9966302505004979
10.9563515625 -0.18578208795221285 0.9977651718510888
10.9575 -0.17998064621444282 0.9999023910677609
10.9586484375 -0.1818796607678489 1.0015956138486748
10.959796875 -0.18005399155377066 0.9993121836118767
10.9609453125 -0.18208703196437226 0.9970159497149496
10.96209375 -0.185104674327846 1.0059153858689713
10.9632421875 -0.17740992321707577 1.003721675235274
10.964390625 -0.1809886932030999 1.0052217785555202
10.9655390625 -0.18309384073895707 1.0141305377613465
10.9666875 -0.17687166822364309 1.0106145067165389
10.9678359375 -0.16956205544628572 1.0117429509229556
10.968984375 -0.1781971215175464 1.0100814632171784
10.9701328125 -0.17663512179948682 1.0152328674404867
10.97128125 -0.17276125973453427 1.0216669767483157
10.9724296875 -0.15995267579140526 1.024559326932859
10.973578125 -0.1663330577911517 1.0308650540867679
10.9747265625 -0.16555870856758043 1.0294721023692768
10.975875 -0.16090108361267685 1.0288841217899234
10.9770234375 -0.1548835994862371 1.0302752434153337
10.978171875 -0.15919683770097032 1.0299359882178631
10.9793203125 -0.15577304255280094 1.0309804697141414
10.98046875 -0.14751816313931237 1.0276863218009737
10.9816171875 -0.15091942252852614 1.0258823897069431
10.982765625 -0.1553768555306949 1.0257163801888685
10.9839140625 -0.1548552076677891 1.0295684934349976
10.9850625 -0.14733310912753161 1.03043756402514
10.9862109375 -0.138568521072649 1.0336158771423523
10.987359375 -0.12984597375562779 1.0284544911298141
10.9885078125 -0.13832502001710656 1.0349999075151026
10.98965625 -0.13282673743953388 1.0366071534684316
10.9908046875 -0.1272425722967564 1.0290557917739243
10.991953125 -0.12672097464695536 1.0308749473194037
10.9931015625 -0.13423631622912102 1.0292597445211866
10.99425 -0.12990171783893822 1.0241233414174085
10.9953984375 -0.12785341484483143 1.0277593767130246
10.996546875 -0.12483773754532396 1.029096905162179
10.9976953125 -0.12800836857058878 1.0281568234950131
10.99884375 -0.13172832068571738 1.0287222611105957
10.9999921875 -0.12194912263502383 1.0284996449704207
11.001140625 -0.11914551856076205 1.028960405129974
11.0022890625 -0.11904804245758788 1.0287111019857091
11.0034375 -0.11545643433190145 1.0252656641485112
11.0045859375 -0.10913987768152544 1.0247937167429009
11.005734375 -0.11187733558842772 1.0244569094872757
11.0068828125 -0.10827495350492855 1.025355477542612
11.00803125 -0.10346109274217269 1.0192358831919386
11.0091796875 -0.1000881748406004 1.0264698008807285
11.010328125 -0.10200948662085096 1.0249709128798796
11.0114765625 -0.09742910271923855 1.0226739395209672
11.012625 -0.09638967949901245 1.024955599602949
11.0137734375 -0.0915266037745972 1.0268202601368484
11.014921875 -0.08673996732647221 1.0190188875540165
11.0160703125 -0.08685144188881977 1.023599787684417
11.01721875 -0.08643100300526863 1.0241242221874673
11.0183671875 -0.08102461898057872 1.0229154622335126
11.019515625 -0.0778536146439211 1.018046003146229
11.0206640625 -0.07021296595701326 1.0138972684157368
11.0218125 -0.066151701156409 1.0134297919110034
11.0229609375 -0.0690147722442786 1.0107775671448915
11.024109375 -0.07156099671941152 1.0086391493229683
11.0252578125 -0.06842871030538678 1.0093940299911097
11.02640625 -0.06020043697553701 1.0006663022885707
11.0275546875 -0.06307797949339439 1.0054813430808944
11.028703125 -0.05981571842560707 1.0087820331542368
11.0298515625 -0.05786187574530377 1.0026781458119747
11.031 -0.05963399950073661 1.000311198440664
11.0321484375 -0.05665865527716596 0.9982859963433318
11.033296875 -0.059418312711995436 0.9993627000133825
11.0344453125 -0.05705243512173391 0.9985624528443622
11.03559375 -0.058188222099528064 0.9963493073608539
11.0367421875 -0.0591324533328309 1.0029832007753732
11.037890625 -0.047382435891383246 0.9976937467929079
11.0390390625 -0.05548380687612986 0.9980484814364738
11.0401875 -0.051252241319571235 1.009008235757907
11.0413359375 -0.05395374603361541 1.0079040903847818
11.042484375 -0.039842174234218264 1.0097554441945313
11.0436328125 -0.039127897727247674 1.0023956739412558
11.04478125 -0.027261131505928515 1.012874770003737
11.0459296875 -0.023587084307661044 1.0056269770420214
11.047078125 -0.023380131268028237 1.0065856945581304
11.0482265625 -0.02678808070840699 1.0064589769217136
11.049375 -0.02264500595038288 1.0038658599747234
11.0505234375 -0.018443404514219608 1.001949958957006
11.051671875 -0.024803953329566253 0.999846961215674
11.0528203125 -0.012860340856926278 1.0043720852507991
11.05396875 -0.01038856899559798 1.0090979771852537
11.0551171875 -0.013301098147395496 1.0002463597642035
11.056265625 -0.004905395045171679 0.9978981377433089
11.0574140625 -0.00994517330113781 1.0015245021913017
11.0585625 -0.013403411631477458 1.001241161151131
11.0597109375 -0.01237381006798699 1.005255586468385
11.060859375 -0.011092955485021982 1.0052558775733822
11.0620078125 -0.004518325112170318 1.004293267723579
11.06315625 -0.009370639847322337 1.0070588109730707
11.0643046875 -0.008240939104405542 1.013563015271456
11.065453125 -0.004505503970150315 1.0107729018498355
11.0666015625 0.00021729110229173898 1.0073346201832634
11.06775 0.0007155410541158091 1.003304469696002
11.0688984375 0.0024446559942309376 1.0035723091532374
11.070046875 0.007730521541400415 1.003092248636239
11.0711953125 0.0073163042713140225 1.0053576970839035
11.07234375 0.012226092926159282 1.001931676160356
11.0734921875 0.012526058179087918 0.9989840945719765
11.074640625 0.0064677165465723 0.9994198440616906
11.0757890625 0.011137925522123726 1.0017144582913322
11.0769375 0.01098746357755992 0.9981670901697951
11.0780859375 0.005163231714047312 0.9970825444899283
11.079234375 0.012630678965622144 0.9899773452349921
11.0803828125 0.012129282987501211 0.997222666592628
11.08153125 0.013666779939990825 0.9968249579234094
11.0826796875 0.008618457817489267 0.9968962761035178
11.083828125 0.010449182644681643 0.9982494644933897
11.0849765625 0.01740012792251433 0.9948247735383713
11.086125 0.01326353705078298 0.9902543231270189
11.0872734375 0.012983630607093954 0.9948237279033332
11.088421875 0.014310511244583435 0.9907641481879106
11.0895703125 0.012839813651984777 0.9925873346779678
11.09071875 0.012953536211469718 0.9906592906978196
11.0918671875 0.014603814958715267 0.9870633370634534
11.093015625 0.016461685896986655 0.9867051043083155
11.0941640625 0.012297682050310454 0.9840608418865278
11.0953125 0.014131057741433917 0.9864278802223683
11.0964609375 0.012845249529721103 0.9914399089172534
11.097609375 0.019439228508175643 0.9892846537177499
11.0987578125 0.012872944113591023 0.9924030471143939
11.09990625 0.018480038180445302 0.9922546721995176
11.1010546875 0.019319693844807084 0.9922562507499033
11.102203125 0.018579638190158843 0.9933484243875919
11.1033515625 0.023027942356820374 0.992389029646989
11.1045 0.028166895671225045 0.9938818737992242
11.1056484375 0.019057783074681034 0.9903383299149786
11.106796875 0.02681014502233192 0.9932421747534073
11.1079453125 0.026701598300350238 0.9916003994209115
11.10909375 0.023344374836951953 0.9854535308812002
11.1102421875 0.03146746302136094 0.98576755500918
11.111390625 0.028921831176464352 0.9861745886960264
11.1125390625 0.02514987175224609 0.9964063785469589
11.1136875 0.03518588021551361 0.9966843592336817
11.1148359375 0.03623425321035201 1.000832034684946
11.115984375 0.03971699396505973 0.9958098182705808
11.1171328125 0.04036246215037592 0.9933592133357747
11.11828125 0.04211637953065167 0.9951030024819465
11.1194296875 0.04663473472090124 0.9958239768968119
11.120578125 0.05233824486377964 0.9923244981010632
11.1217265625 0.05237187414577282 0.9950227498092169
11.122875 0.05662153171893536 0.9985548525073615
11.1240234375 0.05830520529424582 0.9973996671018894
11.125171875 0.06033584701846928 0.9933043689561671
11.1263203125 0.05720395521880456 0.9969976056659149
11.12746875 0.06942389608045035 0.9929309710369687
11.1286171875 0.06587704954235413 0.9928029769814649
11.129765625 0.06600669669273318 0.9950772502170838
11.1309140625 0.06738935662347784 0.9948097058448363
11.1320625 0.06950364949317739 0.9949456694462345
11.1332109375 0.07465055152471867 0.9934401166391201
11.134359375 0.07440842356865962 0.9878941018590164
11.1355078125 0.0774055648061055 0.9896889320913353
11.13665625 0.07510721330159342 0.9898351542238759
11.1378046875 0.07846427344083284 0.9916363809430231
11.138953125 0.08087066826721812 0.9891445125706515
11.1401015625 0.08186289171047445 0.9950197496765645
11.14125 0.0803114670381384 0.990745188384996
11.1423984375 0.08528872995666714 0.9830070032746805
11.143546875 0.08260549622415969 0.9879444934698808
11.1446953125 0.08075305344706418 0.9837687557583573
11.14584375 0.08220730126541587 0.9886628066867265
11.1469921875 0.08111428692726286 0.9895263906199807
11.148140625 0.08605919342071011 0.9859309305571646
11.1492890625 0.08328033109124844 0.9885059111890888
11.1504375 0.08953326358710711 0.9897174452553802
11.1515859375 0.08846955225043573 0.9914392340445309
11.152734375 0.09253965599130842 0.987175934102172
11.1538828125 0.09185841499401348 0.9830836232487741
11.15503125 0.09178208394563003 0.9880067884819232
11.1561796875 0.09325029059452039 0.989431556766745
11.157328125 0.09403050333644047 0.982698353835777
11.1584765625 0.09673327223100026 0.989247505571007
11.159625 0.10141833153912805 0.9877715391233122
11.1607734375 0.10186940375122377 0.9799459138234725
11.161921875 0.09732090772255364 0.9860909569885985
11.1630703125 0.10329626464817065 0.9884636260625647
11.16421875 0.10403900564705726 0.9873236508192856
11.1653671875 0.10246857748209448 0.9878468665312239
11.166515625 0.10787768622824112 0.9854083662841352
11.1676640625 0.10860484582024943 0.9850504902052761
11.1688125 0.1109295336812407 0.9807901486390609
11.1699609375 0.11086880221998852 0.9853053433936232
11.171109375 0.1112524175829076 0.9789999602714582
11.1722578125 0.11373484224609909 0.9756504571381658
11.17340625 0.11282540638864402 0.9819150245819626
11.1745546875 0.11807278966381529 0.9775413428350296
11.175703125 0.11467196464669405 0.9828780633187728
11.1768515625 0.11885137061533146 0.9827016201993245
11.178 0.11989167043192095 0.9809763614931266
11.1791484375 0.12456493594183504 0.9785395858358996
11.180296875 0.12542755493086605 0.9790337832642939
11.1814453125 0.12492489533787043 0.9817396778187482
11.18259375 0.12372479396440017 0.9798582914366362
11.1837421875 0.1292187268115993 0.9816803977409706
11.184890625 0.13391994973228338 0.9797578230814901
11.1860390625 0.13411829728074198 0.9784457320349929
11.1871875 0.13793664175455306 0.980142523312455
11.1883359375 0.13519932576531346 0.9759582569442053
11.189484375 0.13536514571791314 0.9778587398982448
11.1906328125 0.13716465330296812 0.9776771204698649
11.19178125 0.1432073563165333 0.9821447610386368
11.1929296875 0.1458822406940969 0.9777105766816285
11.194078125 0.14979092629342805 0.97405380568025
11.1952265625 0.14844604782681164 0.9771913401307628
11.196375 0.15045655444969003 0.9742011194288126
11.1975234375 0.1482736122069951 0.9762470083596627
11.198671875 0.15318556270770756 0.9768701843903579
11.1998203125 0.1571772977079795 0.9710792967626237
11.20096875 0.15582182572063258 0.9767841542776053
11.2021171875 0.15266038110037816 0.9767289520081968
11.203265625 0.15819047245035273 0.981724696501865
11.2044140625 0.16236651451709 0.979507934966526
11.2055625 0.16407735151263347 0.9836333091521628
11.2067109375 0.16525221568815307 0.9802795355030959
11.207859375 0.16769936041852107 0.9807930095195889
11.2090078125 0.16952236224796724 0.978501982521889
11.21015625 0.17224285207857526 0.977113484704586
11.2113046875 0.17332377421720807 0.9796583512097812
11.212453125 0.17800272393464422 0.9740118538122496
11.2136015625 0.1772541356004 0.9721072025060589
11.21475 0.17805315256284182 0.9755682155604809
11.2158984375 0.17774499199550164 0.9755965219906428
11.217046875 0.17506656647158453 0.9742808149960462
11.2181953125 0.17697860820536848 0.9728017862944289
11.21934375 0.17919869470804967 0.976839248913624
11.2204921875 0.17927604947691347 0.9770188973139637
11.221640625 0.17948293903602308 0.9757901647400633
11.2227890625 0.18568793692835417 0.9731829843432456
11.2239375 0.1862831135315226 0.9776744676645346
11.2250859375 0.18321969070302313 0.9738959716193919
11.226234375 0.1862239574285946 0.977313498015079
11.2273828125 0.1889995189145027 0.9773788901145972
11.22853125 0.19087886250628316 0.9769617533472739
11.2296796875 0.1870205128231906 0.974856962891608
11.230828125 0.19349452954113636 0.9704266113210138
11.2319765625 0.19433429557784038 0.9789051193058149
11.233125 0.19355597272656377 0.9776007533494961
11.2342734375 0.20511602236150395 0.9771284961382115
11.235421875 0.2007220906398906 0.9792224682523906
11.2365703125 0.2044701382392764 0.9827688838559747
11.23771875 0.2054706228989561 0.9799935125104238
11.2388671875 0.20340736284390928 0.979154931192821
11.240015625 0.2030870094669757 0.9797413373304421
11.2411640625 0.20397036792504725 0.9801580634499245
11.2423125 0.2126427556718734 0.9826845570980466
11.2434609375 0.21251638008228613 0.9826345149681741
11.244609375 0.21789100328590666 0.9797578304593944
11.2457578125 0.22091490795176133 0.9699088543596397
11.24690625 0.22128649700470499 0.9704505214675045
11.2480546875 0.21810254479462793 0.9700903031044438
11.249203125 0.22067850196262712 0.9720266256245773
11.2503515625 0.22164993580279102 0.9681546344334485
11.2515 0.22451533843097532 0.9705100626499077
11.2526484375 0.22998991711088207 0.9654738077390967
11.253796875 0.22516442836020156 0.9658231325570302
11.2549453125 0.23120167437869416 0.9663202189909254
11.25609375 0.23322825277946274 0.967833576294555
11.2572421875 0.23348478557448704 0.9636243326354955
11.258390625 0.23666956087229354 0.9562919638337634
11.2595390625 0.23204439706950752 0.956812517020978
11.2606875 0.23530114195442797 0.9583545599550155
11.2618359375 0.23278521215013964 0.9590833742971001
11.262984375 0.23509004086239094 0.9575660383572799
11.2641328125 0.23832721935324452 0.9548583205623713
11.26528125 0.2375075830157139 0.9607930886574074
11.2664296875 0.2408592883454303 0.9566336016447037
11.267578125 0.24256727929091365 0.9569204272926138
11.2687265625 0.24261948729885713 0.9531953616217212
11.269875 0.24388342609815633 0.9507025214422675
11.2710234375 0.24687761467910266 0.9506970597795157
11.272171875 0.24495331675096327 0.9484423033498356
11.2733203125 0.24884056622516088 0.9446423699891042
11.27446875 0.24857807590046288 0.9473443624566338
11.2756171875 0.25006646994293924 0.9457803610483596
11.276765625 0.2532308124986507 0.94630510988847
11.2779140625 0.2560716424994035 0.943991758301124
11.2790625 0.25620025126989443 0.9424622122420425
11.2802109375 0.2555062990406088 0.9373283348377317
11.281359375 0.25728196243082974 0.9382701128258399
11.2825078125 0.25951290676231986 0.9367187072930021
11.28365625 0.2610365726822951 0.9324126337152154
11.2848046875 0.2615435688228946 0.9342205102167863
11.285953125 0.2610538931852639 0.9319296387390317
11.2871015625 0.25957665844999933 0.9292238927805613
11.28825 0.2615106096938531 0.929495920801682
11.2893984375 0.2597526684324664 0.9273467289211058
11.290546875 0.26045012329495454 0.9337043898979824
11.2916953125 0.25934502841072843 0.9282745928176112
11.29284375 0.25967376793052743 0.9322253732122271
11.2939921875 0.26070474894750006 0.9283785963298514
11.295140625 0.26076454264493854 0.9299613458265984
11.2962890625 0.26320530435460787 0.9292360671393985
11.2974375 0.259169989924473 0.9353748187799253
11.2985859375 0.265704325794218 0.9352161943118684
11.299734375 0.267087760625786 0.9344275564563441
11.3008828125 0.27030667793120233 0.9326806663753789
11.30203125 0.26543447204604853 0.9328590767786787
11.3031796875 0.27006558508526135 0.9369996742866115
11.304328125 0.26662453832519684 0.9366800289846245
11.3054765625 0.27176940489289303 0.9377958671578988
11.306625 0.27368630113742487 0.9426239197750556
11.3077734375 0.2767836660010293 0.9445686019481562
11.308921875 0.27848596637579587 0.9417038529696342
11.3100703125 0.28122523810656125 0.9409709690019281
11.31121875 0.2815101216327952 0.9412717082513655
11.3123671875 0.28504822729011026 0.938270601192991
11.313515625 0.28675326664318146 0.9408676959802067
11.3146640625 0.28789031645054974 0.9432250266906047
11.3158125 0.28623159872356324 0.9434464957692692
11.3169609375 0.2950351642360324 0.9413973508737921
11.318109375 0.2942426708870591 0.939627534196606
11.3192578125 0.2917771599350885 0.9402879877924278
11.32040625 0.2937010177200201 0.9382190349050976
11.3215546875 0.2975420655565381 0.9399140365543269
11.322703125 0.29843684332686665 0.9378927198062226
11.3238515625 0.29783263086376144 0.9325015086117915
11.325 0.30140600415589874 0.9342537358367788
11.3261484375 0.299659558208344 0.9368098048385226
11.327296875 0.3020566489895799 0.935199648485385
11.3284453125 0.30496475558366104 0.9334533797100425
11.32959375 0.30299257285683795 0.9345028240898383
11.3307421875 0.30376461129489446 0.9359332214488351
11.331890625 0.30553430052397484 0.9360474320294077
11.3330390625 0.30651494702875776 0.9372359652816773
11.3341875 0.3113175526961135 0.9383973702030148
11.3353359375 0.3119229167739025 0.9368390708173835
11.336484375 0.3155979725798029 0.9364336846675878
11.3376328125 0.3152446875462387 0.937335076514977
11.33878125 0.3177367854487459 0.9338607464376527
11.3399296875 0.31913132381037257 0.9333806132139598
11.341078125 0.320816302577114 0.9360039085585234
11.3422265625 0.32278470197141235 0.931975736911916
11.343375 0.32747227097382386 0.9347929334462414
11.3445234375 0.326755046329986 0.9335967650052582
11.345671875 0.3302155940119505 0.9317698992989282
11.3468203125 0.33215956583092754 0.9292378065202467
11.34796875 0.33559740221101275 0.9264343062964187
11.3491171875 0.33643122321450813 0.928185145808947
11.350265625 0.3358731020544155 0.9254507400891654
11.3514140625 0.3372606227564801 0.921677318204627
11.3525625 0.33699644592043 0.9226778150180671
11.3537109375 0.334579222259823 0.9230447829617939
11.354859375 0.3389249245215519 0.921602289621827
11.3560078125 0.337401521459393 0.9215265142697534
11.35715625 0.34055133466937226 0.9213877329399418
11.3583046875 0.3352909071385775 0.9187185739342119
11.359453125 0.3367274817910756 0.916408019467446
11.3606015625 0.3399531261648458 0.9195521139624017
11.36175 0.343682152140121 0.9181108020697742
11.3628984375 0.3459433453789813 0.9186217153735831
11.364046875 0.3462831430363165 0.9174221234751222
11.3651953125 0.34438392266928536 0.9154939787028378
11.36634375 0.34525765337096453 0.9137003831521725
11.3674921875 0.34274966063037654 0.9123644296692188
11.368640625 0.33994057861876475 0.9170706231392316
11.3697890625 0.34359661479635717 0.9169219124093393
11.3709375 0.3422861497152816 0.9188425591311712
11.3720859375 0.3437916631946586 0.9202237297450013
11.373234375 0.34897033974362685 0.9257260196400132
11.3743828125 0.3488029157744719 0.9269429776473637
11.37553125 0.3545703964563244 0.9261873619994645
11.3766796875 0.35402005429559524 0.9247338891911074
11.377828125 0.35785197810093283 0.9217324878276858
11.3789765625 0.3570045147222155 0.9226829536492652
11.380125 0.3623648282935211 0.9255734864421775
11.3812734375 0.36366263496159135 0.9257304213330213
11.382421875 0.363980389538521 0.9240240197306284
11.3835703125 0.3669617621315529 0.9221644995667038
11.38471875 0.36879041961752584 0.9286333562208938
11.3858671875 0.37112594657928366 0.9245471129488343
11.387015625 0.3729609392800481 0.9255873597690802
11.3881640625 0.3726828111128589 0.9255445329121175
11.3893125 0.37974060331069376 0.9238756564502878
11.3904609375 0.3770650412244144 0.9247966328056738
11.391609375 0.3806937029707871 0.9240850932362585
11.3927578125 0.38095720063595473 0.9226980309729519
11.39390625 0.38894225595169674 0.9204046377582276
11.3950546875 0.39075321983883116 0.920172343654521
11.396203125 0.3903605881227322 0.9193159413401767
11.3973515625 0.3926506259012337 0.916497469780532
11.3985 0.3934897415836246 0.9117782863111056
11.3996484375 0.39105238903832196 0.9102799581872185
11.400796875 0.3911565116348035 0.9071797566986318
11.4019453125 0.38819007030149527 0.9097063219808712
11.40309375 0.3916802203221516 0.9112316474225662
11.4042421875 0.3883895961913375 0.9122543921501421
11.405390625 0.39153536592745486 0.9139577950034724
11.4065390625 0.39372089572211855 0.9122096975022616
11.4076875 0.3941269081089998 0.914758288925047
11.4088359375 0.3961442954009748 0.9142018133962895
11.409984375 0.39943787402104447 0.9132430660781009
11.4111328125 0.39869312715038074 0.9161501865630306
11.41228125 0.40285889507545447 0.9127232130864918
11.4134296875 0.4029472828551973 0.9134717684518172
11.414578125 0.4055339865711412 0.9153164337432802
11.4157265625 0.40627897136004987 0.9150270878914641
11.416875 0.40979998764414877 0.9203748170130043
11.4180234375 0.4129078624219963 0.9150563730430596
11.419171875 0.41582114466152453 0.915234919973227
11.4203203125 0.41973487568694745 0.9144409363489265
11.42146875 0.4230279212917982 0.9106543012266383
11.4226171875 0.4249400328125908 0.9069493324886007
11.423765625 0.42581299983725784 0.9046265230273424
11.4249140625 0.4252319352856294 0.9033921351280705
11.4260625 0.4225906575563697 0.9034601285330479
11.4272109375 0.42372074754331246 0.9013262070004711
11.428359375 0.42409778797270786 0.9046713345929567
11.4295078125 0.42433353449936706 0.9046209304935525
11.43065625 0.42482703994759885 0.9073856505800114
11.4318046875 0.4318764601392041 0.9078301074887014
11.432953125 0.43457537063794166 0.9093619497163409
11.4341015625 0.4397501867279767 0.9059522000547849
11.43525 0.44030928551027015 0.9047404483754113
11.4363984375 0.4455709413793872 0.9021627854740317
11.437546875 0.4492117692955029 0.8995375329739095
11.4386953125 0.45055475109730586 0.9009977367704359
11.43984375 0.4506837352522172 0.8982221350351467
11.4409921875 0.454557766577743 0.89617254371686
11.442140625 0.45566156053917156 0.8948679757519502
11.4432890625 0.4559989050739879 0.8910913620878924
11.4444375 0.45313292147197554 0.8903746920107366
11.4455859375 0.4561782274266269 0.888350973420454
11.446734375 0.4571978626566199 0.8868321011394177
11.4478828125 0.4551200611339993 0.8884460413185568
11.44903125 0.45668903942155586 0.8875105492449851
11.4501796875 0.457957373410179 0.8889396039171983
11.451328125 0.46027118851056287 0.8884607046103723
11.4524765625 0.4613392552555853 0.8894737321101691
11.453625 0.46425561343257404 0.8869932582940802
11.4547734375 0.4655176662609648 0.88729524450388
11.455921875 0.4659089675146962 0.8876157318009954
11.4570703125 0.46778848244859816 0.8875154560291438
11.45821875 0.4684122307128697 0.8868325954249623
11.4593671875 0.4709529916915464 0.8876793041543768
11.460515625 0.47292010179369065 0.8851158606637824
11.4616640625 0.47426685331673535 0.8860779653458443
11.4628125 0.4740574071527598 0.8859259920786944
11.4639609375 0.47639273792379777 0.8841950544158665
11.465109375 0.476615341528926 0.8847728716881168
11.4662578125 0.47955971482441884 0.8839458267258835
11.46740625 0.4799910540768524 0.8841692398494693
11.4685546875 0.48114683685977533 0.8847536727362205
11.469703125 0.4844166162168575 0.8869496629396882
11.4708515625 0.4862330922043373 0.8881249189075027
11.472 0.4920014583728674 0.8864284765422883
11.4731484375 0.49424435558938795 0.8868490080635171
11.474296875 0.49806092210568337 0.8856555845262574
11.4754453125 0.5014284477156444 0.8831586861576526
11.47659375 0.5043990649319132 0.8809410661042295
11.4777421875 0.5067846184374544 0.8788481662807387
11.478890625 0.5091142004638846 0.8736734519756968
11.4800390625 0.5087618252535611 0.8712546518733555
11.4811875 0.5107710874365811 0.8691579230406841
11.4823359375 0.5100496846790263 0.8677339659328124
11.483484375 0.5104690000857259 0.8644809471579455
11.4846328125 0.5110058301820839 0.8661101833133793
11.48578125 0.5103061367847328 0.8648448963010156
11.4869296875 0.5123203695719478 0.8654716362737871
11.488078125 0.5124883889618372 0.8622888929049526
11.4892265625 0.5146414472358521 0.8610321554375194
11.490375 0.515589238928104 0.8594156925999917
11.4915234375 0.5166002533261664 0.8586935509728998
11.492671875 0.5165856282243775 0.8573880995696982
11.4938203125 0.5170659739360252 0.8563955560324521
11.49496875 0.5200805371263373 0.8563318564276363
11.4961171875 0.5203195951516594 0.8553435804726333
11.497265625 0.5209628705930106 0.8547819626905067
11.4984140625 0.5199722471517496 0.8517191310819026
11.4995625 0.5201449648028763 0.8510131173624131
11.5007109375 0.5218037622443361 0.8501534539402387
11.501859375 0.5232713197138823 0.8494078565987426
11.5030078125 0.5223789286664644 0.848152607806319
11.50415625 0.522952865412839 0.849154738746551
11.5053046875 0.5241166928238482 0.8492445303814591
11.506453125 0.5251148351566498 0.8496533126136584
11.5076015625 0.5277832616793812 0.8487682589466756
11.50875 0.5294852980512611 0.8486449254691393
11.5098984375 0.5300202037521001 0.846578391716537
11.511046875 0.530056308061898 0.846052846079998
11.5121953125 0.5308355476841427 0.8440832219994803
11.51334375 0.5324757395260566 0.8438854686761558
11.5144921875 0.5331952028524013 0.843977423543135
11.515640625 0.534339538314941 0.8427725239742567
11.5167890625 0.5347307350453951 0.8422175339963391
11.5179375 0.5361200104878305 0.841525024986516
11.5190859375 0.5367870959648829 0.8409878323606932
11.520234375 0.5382957095103642 0.8412358295678409
11.5213828125 0.5383068071810775 0.8414749489081702
11.52253125 0.540651538746324 0.842075291272004
11.5236796875 0.5421726087904009 0.841010214143461
11.524828125 0.5447464693551487 0.8397769213775139
11.5259765625 0.5450735498756012 0.8400058521664244
11.527125 0.5465016932470146 0.8390887258884305
11.5282734375 0.546869133614183 0.8379909255323249
11.529421875 0.5478605855622714 0.8377171881910238
11.5305703125 0.548795286239945 0.8366423993219109
11.53171875 0.5489986104543577 0.8353997669660924
11.5328671875 0.550998589745523 0.8343646788814244
11.534015625 0.5513382959661579 0.834458248469997
11.5351640625 0.5514419602379217 0.8348280290593894
11.5363125 0.5527049728114604 0.8354800059305321
11.5374609375 0.5533054611982205 0.836048746546571
11.538609375 0.553685743931779 0.8370259093633987
11.5397578125 0.5569021462046952 0.8353584871659951
11.54090625 0.5576526514119625 0.8362812151073302
11.5420546875 0.5594766941475178 0.8370741832945545
11.543203125 0.561221288456133 0.8378064752788501
11.5443515625 0.5634696167920931 0.8379543335447956
11.5455 0.566264545467952 0.8388297110143133
11.5466484375 0.5692096586990125 0.8384017349819541
11.547796875 0.5719597161772204 0.839233231717621
11.5489453125 0.5748424358875104 0.8378477876200368
11.55009375 0.5768139027249581 0.8364443982055949
11.5512421875 0.5805628695806581 0.8352832632715539
11.552390625 0.5815010572785022 0.8348143649228406
11.5535390625 0.5835865524196282 0.8331764252713004
11.5546875 0.5866081782571466 0.8302956782748657
11.5558359375 0.5862481888652514 0.8303651193023298
11.556984375 0.5878346606511288 0.830284761888575
11.5581328125 0.5890730705907088 0.8307961805517688
11.55928125 0.5914801713727112 0.83088704488756
11.5604296875 0.5940549440474283 0.8303489832700695
11.561578125 0.5966264301939899 0.8304479143657375
11.5627265625 0.6001897818334376 0.8307220090625983
11.563875 0.6027999121174332 0.8302007418208902
11.5650234375 0.6068777375091305 0.8288250497381375
11.566171875 0.6105120572685168 0.8273717662739822
11.5673203125 0.6122214486885174 0.8241236210075799
11.56846875 0.6156598749464072 0.8217869514547531
11.5696171875 0.6170259459653391 0.8181644355512583
11.570765625 0.6180102922978492 0.8150449144947235
11.5719140625 0.6181028084361854 0.8135957677574335
11.5730625 0.6192444634093719 0.8123117692795365
11.5742109375 0.6205427850766358 0.8104240314873619
11.575359375 0.6219591611337966 0.8097795675714093
11.5765078125 0.6226869884167865 0.8076288962597518
11.57765625 0.6233541483279923 0.8046601966172466
11.5788046875 0.6248304460482081 0.8045179386626169
11.579953125 0.6249699898721142 0.8038337986676118
11.5811015625 0.6273886051703208 0.8023040716640537
11.58225 0.6276138106223512 0.8007479104788432
11.5833984375 0.6280926062148925 0.8001987812545444
11.584546875 0.6275137883330184 0.7994301135171219
11.5856953125 0.6287761672334362 0.8000959355678303
11.58684375 0.630028804520419 0.8006356369999964
11.5879921875 0.6332990033413368 0.8011373821100481
11.589140625 0.6367411902948437 0.8014378833359046
11.5902890625 0.6404261623938803 0.7989445970866518
11.5914375 0.6416157081560566 0.7965388189237282
11.5925859375 0.6461271978542737 0.794203647121973
11.593734375 0.6466006636723909 0.7920585083429877
11.5948828125 0.6483805154364038 0.7895848027841141
11.59603125 0.6486976741305449 0.7846564116917824
11.5971796875 0.6478533692060797 0.7845828768655183
11.598328125 0.6472170147630445 0.7835707087205687
11.5994765625 0.6480815410834981 0.7832641458842975
11.600625 0.6492944758125335 0.783781888559159
11.6017734375 0.651527031301377 0.7824742188832093
11.602921875 0.6523822974061924 0.7823995095335944
11.6040703125 0.6541602616470374 0.7799975213384615
11.60521875 0.6559130728143688 0.7783585243995117
11.6063671875 0.6564196957559653 0.7764628089770833
11.607515625 0.6579831762448188 0.7761480925027237
11.6086640625 0.658611518068442 0.7754470736099266
11.6098125 0.6608595516903187 0.777039219639545
11.6109609375 0.6644420787891842 0.7750685203620807
11.612109375 0.6663505398774693 0.7729370932402088
11.6132578125 0.666892182776252 0.7711607397144571
11.61440625 0.669200853246409 0.7697203541096997
11.6155546875 0.6705396986963909 0.7667351265793693
11.616703125 0.6723576991447163 0.7650360570842317
11.6178515625 0.6722136112442229 0.7638684924740233
11.619 0.6742857598834411 0.7617226391256477
11.6201484375 0.6754589438625335 0.7606396712421796
11.621296875 0.6759788449491755 0.758719320450172
11.6224453125 0.6772427547851602 0.7572016859815007
11.62359375 0.677267753902531 0.75721720057794
11.6247421875 0.6794954442284219 0.7559794132002229
11.625890625 0.6817577649672585 0.7551253857771477
11.6270390625 0.6843380945638026 0.7537406399709876
11.6281875 0.6867015683738431 0.7518975281785345
11.6293359375 0.6885952528939225 0.7483986875450395
11.630484375 0.6898007687874745 0.7458582081639034
11.6316328125 0.6896944865029484 0.7436324132748161
11.63278125 0.6896167420740964 0.7420208251109688
11.6339296875 0.690422853718672 0.7398568081683234
11.635078125 0.6907873912270396 0.7394807536850618
11.6362265625 0.6922488403379323 0.7381202838505811
11.637375 0.6930320808395414 0.7355757976135919
11.6385234375 0.6924411080679902 0.7333619066550534
11.639671875 0.6927133771107121 0.7325309419185959
11.6408203125 0.6941967741850408 0.7310008267480501
11.64196875 0.6948213478019409 0.7301599917214817
11.6431171875 0.6955197352854758 0.7291670426009907
11.644265625 0.696094642970876 0.7302904372869103
11.6454140625 0.6985549164425672 0.7273606959433316
11.6465625 0.6994609182217671 0.7268342497522001
11.6477109375 0.7003633478618866 0.7233220440890668
11.648859375 0.7022357929600643 0.7221027704778644
11.6500078125 0.7023111165405516 0.7215835064719199
11.65115625 0.7039560510318016 0.7202898279431839
11.6523046875 0.7051046707789398 0.7184070898126437
11.653453125 0.706174925950811 0.7152110200904246
11.6546015625 0.707045323879052 0.7134483923951862
11.65575 0.705750334926379 0.7118528083275603
11.6568984375 0.7058339819908451 0.7089439356068719
11.658046875 0.7059720219272907 0.7081558357231774
11.6591953125 0.7054893646905502 0.707501046886116
11.66034375 0.7073113496800549 0.7060397810368508
11.6614921875 0.7081982778394099 0.7061194051387389
11.662640625 0.7094335854151748 0.7058815381542537
11.6637890625 0.7095390909086476 0.7030830457204809
11.6649375 0.7104746217110472 0.7026553688335875
11.6660859375 0.7118362895002415 0.7002069905257576
11.667234375 0.710752753921708 0.6985805535640888
11.6683828125 0.7109982465777042 0.6974587771886138
11.66953125 0.7110566380809111 0.6961885899391235
11.6706796875 0.7101420021169422 0.6939648794375446
11.671828125 0.7106188504236159 0.6935899250081589
11.6729765625 0.7100744106651349 0.693588171461144
11.674125 0.7101168664037355 0.6929006265207326
11.6752734375 0.7111969659388215 0.6917671743299026
11.676421875 0.7113885410136375 0.6925360797059127
11.6775703125 0.7123670033770371 0.6921633470696136
11.67871875 0.7133937975879187 0.6908859025461603
11.6798671875 0.7141301687430538 0.6911045117001033
11.681015625 0.7154567095853215 0.6917299587176398
11.6821640625 0.7149653361143626 0.6916007811301101
11.6833125 0.7176456177875342 0.690646892898223
11.6844609375 0.7185837445878718 0.6909788795940077
11.685609375 0.7193106787535932 0.6893290699059906
11.6867578125 0.7225639155473338 0.6877192175353141
11.68790625 0.7217132472031845 0.686311418371228
11.6890546875 0.724121622891315 0.6866114505652592
11.690203125 0.7244628980530545 0.6834202521176862
11.6913515625 0.7246190225954273 0.6818676185854939
11.6925 0.7250747471496968 0.682178585999631
11.6936484375 0.7245679413635474 0.6823706011727054
11.694796875 0.7251199766851432 0.6823583871315808
11.6959453125 0.7260624542279678 0.68223208739063
11.69709375 0.728138193879605 0.6806615749468401
11.6982421875 0.7291343474498757 0.6811796758816075
11.699390625 0.7301327017417936 0.6807249520395875
11.7005390625 0.732797716427464 0.6795888840435345
11.7016875 0.7357028268168855 0.6792640364237343
11.7028359375 0.7383660865440793 0.677720807177487
11.703984375 0.7406998600799095 0.676199415012454
11.7051328125 0.7422164966078291 0.6725240870020299
11.70628125 0.7416335044549219 0.6716613863975855
11.7074296875 0.7418555148666967 0.6707843168143752
11.708578125 0.7433850121956209 0.6691736311109934
11.7097265625 0.7438389626702041 0.6673434846822914
11.710875 0.7456445492715917 0.6682525605794253
11.7120234375 0.7469033683967192 0.6672297584592806
11.713171875 0.7492804348514406 0.665848466431362
11.7143203125 0.7489996381087395 0.6639986808464386
11.71546875 0.7513022244910734 0.6636049897111824
11.7166171875 0.7540582063600018 0.6614413982184056
11.717765625 0.7544368213535466 0.6602562302766721
11.7189140625 0.7554137527151503 0.6582138874401561
11.7200625 0.7573559442375173 0.6568837124681087
11.7212109375 0.7582729222153597 0.6539987694929728
11.722359375 0.7608209598051483 0.6522898844221685
11.7235078125 0.7623769214728945 0.6493646917889351
11.72465625 0.7624196136811974 0.6474749036798054
11.7258046875 0.7622044978378675 0.6471037967786402
11.726953125 0.7614389168794468 0.6440191870705216
11.7281015625 0.7631609192383815 0.6429557183955462
11.72925 0.7654941415888503 0.6404716641637194
11.7303984375 0.7647803966234177 0.6389447010499836
11.731546875 0.76563045739337 0.637229940631686
11.7326953125 0.7659952195856633 0.6360472943441267
11.73384375 0.7652142974281996 0.6349911387968081
11.7349921875 0.7667211857481105 0.6317975916687752
11.736140625 0.767183293986137 0.6308627142650831
11.7372890625 0.7671552789297377 0.6285126932327307
11.7384375 0.768327252576341 0.6260064035515363
11.7395859375 0.7692261477456941 0.6244797941727451
11.740734375 0.7678362632483294 0.6239619223273105
11.7418828125 0.7685105024574168 0.6207100760079243
11.74303125 0.768630133922027 0.6194977568760864
11.7441796875 0.7684438909196685 0.6191009529232517
11.745328125 0.7676200504926585 0.6179217489198592
11.7464765625 0.7677722688916261 0.6170199649460667
11.747625 0.7677067028764218 0.6157615927067548
11.7487734375 0.7675192159013374 0.6165129876945167
11.749921875 0.7681785532771126 0.6149712013773104
11.7510703125 0.7699025714137464 0.6140013592775937
11.75221875 0.7700632478239087 0.6120606162033289
11.7533671875 0.7701756653638224 0.6111540995657891
11.754515625 0.7700057960966337 0.609501520934572
11.7556640625 0.7697099259400811 0.6083109337862306
11.7568125 0.7697265284373005 0.6077566494145241
11.7579609375 0.7702593057672673 0.6072351191406408
11.759109375 0.7707085483381774 0.6063596975929544
11.7602578125 0.7697431680647979 0.6050369784805631
11.76140625 0.770299838558148 0.6041858861350634
11.7625546875 0.7716106753946704 0.6034722431803865
11.763703125 0.7711533294286947 0.6039348864811876
11.7648515625 0.7722378842356477 0.603590282921033
11.766 0.771778341618566 0.6024363328702587
11.7671484375 0.7728137741434739 0.6008457721316305
11.768296875 0.7739302271493489 0.6009349821672303
11.7694453125 0.7749744163430499 0.5992181197810902
11.77059375 0.7744811025774868 0.5993583770002964
11.7717421875 0.7760764830370938 0.5982864326403513
11.772890625 0.7766591235516056 0.59613627619988
11.7740390625 0.777793229915999 0.5952905612737835
11.7751875 0.7773338404541903 0.5947655951705595
11.7763359375 0.7776076149017315 0.5925661242986946
11.777484375 0.7773031015055976 0.5911925730482229
11.7786328125 0.77628714230383 0.5888996941535057
11.77978125 0.7754564221099802 0.5870041641599724
11.7809296875 0.7767692495516263 0.5877987802548241
11.782078125 0.7774463329480927 0.5876477981864991
11.7832265625 0.7741300136337286 0.5866415606908367
11.784375 0.7736690218215846 0.5858979244457663
11.7855234375 0.7751937093802249 0.5873335695115678
11.786671875 0.7755156706782562 0.5861437960603386
11.7878203125 0.7769646363750667 0.5859944008929877
11.78896875 0.7774026689410874 0.5853829683664276
11.7901171875 0.7747326692073322 0.5846314063274284
11.791265625 0.7759898564785599 0.5881298565263876
11.7924140625 0.7769960434514723 0.584764194383703
11.7935625 0.7796029275357516 0.5869103587295342
11.7947109375 0.7816932674803312 0.5836159618417072
11.795859375 0.7792829318464574 0.5849705212342047
11.7970078125 0.7811593307188734 0.5828803197434219
11.79815625 0.7824983012505243 0.5807206843333983
11.7993046875 0.7842968554519717 0.5819647463972256
11.800453125 0.7839966925610484 0.5802329980522059
11.8016015625 0.7824683866097228 0.5811307950558776
11.80275 0.7840968040831638 0.5801145768111636
11.8038984375 0.7836142397161465 0.5804119401351031
11.805046875 0.7836352227451095 0.578915769708641
11.8061953125 0.7837730245014882 0.5794315775814167
11.80734375 0.7867210334896065 0.578519374108355
11.8084921875 0.7870216540263784 0.5772618052877445
11.809640625 0.788799486601317 0.5788292611555641
11.8107890625 0.7895761661159824 0.5797829022937784
11.8119375 0.7898733784281001 0.5782123286799471
11.8130859375 0.7916322779447984 0.5755426978072803
11.814234375 0.7896993208382765 0.575191020781897
11.8153828125 0.7906336888371664 0.5755880822112382
11.81653125 0.7897536982653723 0.5764909769741364
11.8176796875 0.7904114150075289 0.57703342734305
11.818828125 0.7930934460000427 0.5767529169502215
11.8199765625 0.7939273225061383 0.5778341534487419
11.821125 0.7966761090561003 0.5774591538506936
11.8222734375 0.7989958787833371 0.5750408591950614
11.823421875 0.7988419110781257 0.5750264300461195
11.8245703125 0.8006971590377869 0.5750534472355792
11.82571875 0.8018312570491057 0.575694280856942
11.8268671875 0.8027265902448901 0.5738054867233614
11.828015625 0.8061490624000593 0.5718348393172485
11.8291640625 0.8071238199430084 0.5716304035213591
11.8303125 0.8064724448384928 0.5684756040442641
11.8314609375 0.8060929388350997 0.5687099638910691
11.832609375 0.8064208934309571 0.5699286748861896
11.8337578125 0.8068842169147272 0.5714578634691726
11.83490625 0.8100120670314586 0.5733662997547293
11.8360546875 0.8133018308959689 0.5720922830666825
11.837203125 0.8149273214139865 0.5713052804383313
11.8383515625 0.8183775994447191 0.5693802219735149
11.8395 0.8194844124784304 0.5680330684627931
11.8406484375 0.8213819696716312 0.565624545299832
11.841796875 0.8204993597875461 0.5640595807902238
11.8429453125 0.8204351352100013 0.5637643615005793
11.84409375 0.8214236509779967 0.5633996446219678
11.8452421875 0.8227621309604012 0.5632561439329499
11.846390625 0.8239458630602879 0.5640026814788872
11.8475390625 0.8277406599291971 0.5626643526910283
11.8486875 0.8300343393790146 0.5607817138549297
11.8498359375 0.8313011879336036 0.5588257812533788
11.850984375 0.8325068785244234 0.5578496114901754
11.8521328125 0.8320907128746224 0.5562576597344988
11.85328125 0.8308475275820162 0.5552967326941523
11.8544296875 0.8319621134064268 0.555854919358166
11.855578125 0.8317841320731048 0.5561724596037738
11.8567265625 0.8333620653074584 0.5559874557676444
11.857875 0.8366457124319128 0.5561674818068204
11.8590234375 0.8390961380973743 0.5573663921839781
11.860171875 0.8419367373198983 0.5548829692466057
11.8613203125 0.8444024981279965 0.5546567034032805
11.86246875 0.846412656176208 0.5525798247295737
11.8636171875 0.8466218846541683 0.5535780198496839
11.864765625 0.8478229310577792 0.5523738243037073
11.8659140625 0.850163523030566 0.5514845191364794
11.8670625 0.8513736887587913 0.5511332354045753
11.8682109375 0.8548304754233333 0.5500407942849346
11.869359375 0.8586517964292291 0.5491021024990499
11.8705078125 0.8592968181311468 0.5482386477490993
11.87165625 0.8635092884519738 0.5439524554373354
11.8728046875 0.8666012423858305 0.544753872281154
11.873953125 0.8694619710875513 0.5397241631405957
11.8751015625 0.8710051232261599 0.5354697160468426
11.87625 0.8720696294993404 0.5331876432047233
11.8773984375 0.8727753582901442 0.5292329807611862
11.878546875 0.873335749889681 0.5267116360516837
11.8796953125 0.872012659573762 0.5221398428885761
11.88084375 0.8713356542149436 0.5217456628991223
11.8819921875 0.8708482650026859 0.5222909864498867
11.883140625 0.8721063421015443 0.5216748946207194
11.8842890625 0.8736164679522049 0.5208127538693241
11.8854375 0.875681218221893 0.5207794257975464
11.8865859375 0.8768026751324136 0.5168607176358904
11.887734375 0.8784431384857031 0.5151848981228195
11.8888828125 0.8792026000033644 0.5131364600308617
11.89003125 0.8786031007170185 0.5123241843044866
11.8911796875 0.8811688618897616 0.5103147376802994
11.892328125 0.8826818590130725 0.5092628870092941
11.8934765625 0.8824483576224169 0.506445882467748
11.894625 0.8832484526406439 0.5042633581307281
11.8957734375 0.8829443421293146 0.5030305014938994
11.896921875 0.8839392483300674 0.5016794293005303
11.8980703125 0.8835000527273467 0.4995134945108366
11.89921875 0.8857193763624444 0.49905246156214733
11.9003671875 0.8877666279228487 0.49801732978455004
11.901515625 0.8884186047936746 0.4942947108178626
11.9026640625 0.8891466166486989 0.49188937259427035
11.9038125 0.8882851950111487 0.4889456072024961
11.9049609375 0.8869217176734815 0.48580885581405403
11.906109375 0.8849637455701903 0.48543754427242564
11.9072578125 0.8848457279571734 0.4856290188220956
11.90840625 0.8848525080548216 0.48578459630918314
11.9095546875 0.8841090930034898 0.48496594562347967
11.910703125 0.8855016756943378 0.48409317181568123
11.9118515625 0.8855428728438066 0.4830195418845699
11.913 0.8849646378000294 0.48127067624635506
11.9141484375 0.8838733790984707 0.48020202732588646
11.915296875 0.8842155698683778 0.48103544198293047
11.9164453125 0.8845920983984739 0.4819057679690367
11.91759375 0.885185631588446 0.4819234505111122
11.9187421875 0.8861209440638125 0.4813441768322633
11.919890625 0.8862469894204961 0.48269997402569115
11.9210390625 0.8871657738116006 0.4831615899947168
11.9221875 0.8866225720869556 0.4820786800020149
11.9233359375 0.8883463692008695 0.4864617085479652
11.924484375 0.8890103382265825 0.4871580946448025
11.9256328125 0.8932688012929518 0.4880497301505894
11.92678125 0.8961858726644987 0.488489980420393
11.9279296875 0.900900835066379 0.4881869990989804
11.929078125 0.9052549579648498 0.48731146717912116
11.9302265625 0.9102158124002613 0.48469395445845087
11.931375 0.9151394754173496 0.4807474788558692
11.9325234375 0.9178220782848725 0.47600437781090166
11.933671875 0.9184205725178918 0.4730435610026898
11.9348203125 0.9186994216870995 0.4703163525124438
11.93596875 0.918223974139053 0.4677327814860719
11.9371171875 0.9227159507965497 0.4698937428541369
11.938265625 0.9244336926164971 0.4654438722965142
11.9394140625 0.9263598342865977 0.4643252186583475
11.9405625 0.9295175427961079 0.4618972300261457
11.9417109375 0.9313311185217238 0.4589527487766083
11.942859375 0.9327687539578678 0.4543714541739368
11.9440078125 0.9329508179431941 0.4493787057007594
11.94515625 0.9332574223702279 0.44486245768586485
11.9463046875 0.9323551090416372 0.44155192390069575
11.947453125 0.9325706489238544 0.43942000374332724
11.9486015625 0.9324412353258646 0.43722042377542114
11.94975 0.933052562504731 0.4366714967768537
11.9508984375 0.9327737878010637 0.4328225127546726
11.952046875 0.9320811064020312 0.4294855556989463
11.9531953125 0.9297912905072437 0.4279672604328053
11.95434375 0.9292706583408139 0.4278731493153569
11.9554921875 0.9296940909509589 0.42745970839542446
11.956640625 0.9296536279434846 0.42620129516930405
11.9577890625 0.9315736452013186 0.42637195024732616
11.9589375 0.9323595347756228 0.4242357001612317
11.9600859375 0.9329930038760464 0.4224420116704697
11.961234375 0.933804403716275 0.41990961850808495
11.9623828125 0.9349106612418958 0.4194731520045515
11.96353125 0.9369776834762676 0.4176868377158719
11.9646796875 0.9362611964772065 0.4150684468684718
11.965828125 0.9351404326812394 0.41306529598572106
11.9669765625 0.9368346826060557 0.4110323660939468
11.968125 0.9371337853822198 0.41003578435222915
11.9692734375 0.9367236394949449 0.40751200642271945
11.970421875 0.9392080199567296 0.40793468740294014
11.9715703125 0.9391193062919977 0.403878590300836
11.97271875 0.9397775742278871 0.40047378224304175
11.9738671875 0.9398621530669345 0.39719177675817924
11.975015625 0.9376148983096597 0.39332667144280786
11.9761640625 0.9353025830096833 0.3930459643513165
11.9773125 0.9351149677059256 0.3924196078461445
11.9784609375 0.9351065369081291 0.3917800418205263
11.979609375 0.9345658741246209 0.39115413498954854
11.9807578125 0.9346548386865924 0.3908618870171142
11.98190625 0.9356548612100672 0.3885839549671542
11.9830546875 0.9346737630530276 0.385002308357823
11.984203125 0.9343764057677143 0.38386710052561457
11.9853515625 0.9356558830570714 0.38359314317173654
11.9865 0.9339703533675736 0.38291015657163896
11.9876484375 0.9334246265618102 0.3818466653881403
11.988796875 0.9318034649151246 0.3796495882474049
11.9899453125 0.9327280317054494 0.3796031190582324
11.99109375 0.9327142655880961 0.3797461522776287
11.9922421875 0.9353062802395655 0.3803037971405176
11.993390625 0.9358988761478728 0.37844531723901575
11.9945390625 0.9363321396822626 0.3768549802492168
11.9956875 0.9368782860390767 0.37477424857991226
11.9968359375 0.937366431869515 0.37329183785098
11.997984375 0.9373692804516977 0.3718863534031497
11.9991328125 0.9369446900426652 0.3690820889734735
12.00028125 0.9368779029646226 0.368106227152764
12.0014296875 0.9360333613362909 0.36604604355611703
12.002578125 0.9352899863564081 0.36548612222285204
12.0037265625 0.9335413347930599 0.3627851158420297
12.004875 0.9336782713439532 0.3618927258470149
12.0060234375 0.9322170507826639 0.36171396192261385
12.007171875 0.9305433899097861 0.36194728519074304
12.0083203125 0.9292838439964185 0.3633942307452882
12.00946875 0.929539936117124 0.3624657223235062
12.0106171875 0.9302221492109874 0.36329592747459327
12.011765625 0.9313132156155073 0.36375978468051207
12.0129140625 0.9309871907930573 0.36286221326640816
12.0140625 0.931975546878182 0.3637268443262244
12.0152109375 0.9333651433266327 0.36326223333536084
12.016359375 0.9335294060675786 0.3620415921118976
12.0175078125 0.9336339812310754 0.3610278344544079
12.01865625 0.9361833221044711 0.3609644233553134
12.0198046875 0.9365351804356379 0.3610138676166423
12.020953125 0.9358730838282959 0.3613859603273131
12.0221015625 0.9376975714369272 0.36088469223957026
12.02325 0.9395889094309182 0.36203948052138585
12.0243984375 0.9404015156847974 0.360528479709643
12.025546875 0.9417715290687734 0.3606543100384947
12.0266953125 0.94319129883612 0.3599305142278476
12.02784375 0.94484546611563 0.35937188164648953
12.0289921875 0.9451762838405244 0.3584901034099906
12.030140625 0.9470510286167402 0.3572695063720036
12.0312890625 0.9496704473546276 0.3554904139155212
12.0324375 0.9509543320927896 0.3549341743682929
12.0335859375 0.9508053973687006 0.35649901071043016
12.034734375 0.9537206530432618 0.35617315135742134
12.0358828125 0.9570337203918902 0.35496577605776314
12.03703125 0.9572104065362613 0.35261006864895433
12.0381796875 0.9592813405298142 0.3496313061625485
12.039328125 0.9630275824987933 0.34687001832720277
12.0404765625 0.9631013088994458 0.34756583192680784
12.041625 0.963598857519937 0.3459516950123535
12.0427734375 0.9634366689910471 0.34217024374285615
12.043921875 0.9648731482923316 0.3426807473567429
12.0450703125 0.9640730276097109 0.34222843962176724
12.04621875 0.9669211405101357 0.33984345164138785
12.0473671875 0.9673089238073331 0.3384239525532936
12.048515625 0.9684145743479843 0.33855286481795416
12.0496640625 0.9704415092963415 0.33396055386815776
12.0508125 0.97477678928352 0.3298728415185072
12.0519609375 0.9732421620161351 0.32999542054409625
12.053109375 0.9727637067778196 0.32914142853116635
12.0542578125 0.972752079463941 0.3259244616205459
12.05540625 0.9693892914511868 0.325234323721872
12.0565546875 0.973061110306732 0.32350478680165223
12.057703125 0.9743025219846667 0.32179882607883625
12.0588515625 0.9759200859402339 0.32159061586818727
12.06 0.9716959153282914 0.3214266665525491
12.0611484375 0.9753829519156303 0.32069069250921267
12.062296875 0.9769086361729693 0.3192543369225894
12.0634453125 0.9773456736684379 0.3185841333885966
12.06459375 0.9834852811869785 0.31577815748280674
12.0657421875 0.9820225925338779 0.3110451393375195
12.066890625 0.9835645265788744 0.31058283274253984
12.0680390625 0.9851950486052704 0.3096578665308286
12.0691875 0.9840503249922192 0.3056758686582859
12.0703359375 0.987426697383148 0.30435616243077646
12.071484375 0.985903507174272 0.30083076650174584
12.0726328125 0.9865236776058013 0.2999585104300039
12.07378125 0.9859653563135382 0.2977430344540422
12.0749296875 0.9864215315396246 0.29599526043553087
12.076078125 0.9888454971592379 0.2942815104192975
12.0772265625 0.9892363002273505 0.29356715836399117
12.078375 0.9924791257718738 0.2918437673471593
12.0795234375 0.9932677410924511 0.2888125967451414
12.080671875 0.9932879869750031 0.28698271279760595
12.0818203125 0.9939329273217563 0.28144764540483336
12.08296875 0.9939436789166438 0.2802646825848689
12.0841171875 0.9934225669722374 0.2770489505203877
12.085265625 0.9949265568930504 0.277332631318034
12.0864140625 0.9923505325698518 0.27397239131334644
12.0875625 0.9950253180375753 0.27288535812903075
12.0887109375 0.9952138126095729 0.27012678431250153
12.089859375 0.9953457913901933 0.2679937151263334
12.0910078125 0.9956004285232936 0.2673615006693566
12.09215625 0.999296617497237 0.2647198484589748
12.0933046875 0.9971177782467804 0.2598062826710855
12.094453125 1.0002416011550253 0.25727112016912845
12.0956015625 1.0012435595764515 0.2547258449258458
12.09675 1.0006546405903327 0.25541912278262685
12.0978984375 1.0002627549783283 0.2499698739116913
12.099046875 0.9961326901222197 0.2470762116616163
12.1001953125 0.9987100660365611 0.24439415704013068
12.10134375 0.9962808872787625 0.24229724094950683
12.1024921875 0.9962178405015565 0.23717695725521995
12.103640625 0.9950715687862863 0.23757592577089953
12.1047890625 0.9932264158538329 0.23585840293235816
12.1059375 0.9908004630596435 0.23683735816595725
12.1070859375 0.9937551052075034 0.23653850841049867
12.108234375 0.9942462598461335 0.23130276044761633
12.1093828125 0.9945431825763728 0.22978302691464592
12.11053125 0.9922356191604174 0.22623701185106182
12.1116796875 0.9888046458875996 0.22915363696719993
12.112828125 0.9881292568587804 0.22886848370686333
12.1139765625 0.9948941033353034 0.2305932059527004
12.115125 0.9936082174226334 0.22713364217030435
12.1162734375 0.9921305924971634 0.21992659976478773
12.117421875 0.9939065438333181 0.22658581418404444
12.1185703125 0.9918761922801684 0.21756970608268494
12.11971875 0.9944435940656755 0.2219583630538821
12.1208671875 0.99638579546832 0.21846034747176563
12.122015625 0.9921928602852519 0.21683074123214297
12.1231640625 0.9936134186954917 0.21829092299358957
12.1243125 0.9931882212104935 0.21701338622710625
12.1254609375 0.9910434292207215 0.2170547416551657
12.126609375 0.9889986391762082 0.216515362354823
12.1277578125 0.9920287002461041 0.21437979142626157
12.12890625 0.9892210813599362 0.2167789257061316
12.1300546875 0.9930654344646406 0.21289760780851796
12.131203125 0.9952203134974416 0.21707352193104434
12.1323515625 0.9990398060778459 0.21361979680952392
12.1335 0.9949390188994043 0.20995806765775518
12.1346484375 0.9939263963369305 0.20728858088790944
12.135796875 0.9945441934577767 0.20932049249111162
12.1369453125 0.9966884226102789 0.20617509711247917
12.13809375 0.998407637342307 0.20493665723756938
12.1392421875 0.9985441503108966 0.2031558193428823
12.140390625 0.9934592767858383 0.2025536046129363
12.1415390625 0.9957411926929373 0.20013815504429966
12.1426875 0.9930847387798434 0.19984997455931092
12.1438359375 0.9937916571482828 0.19830462475299687
12.144984375 0.9941303233100001 0.19977062009579705
12.1461328125 0.9963165170816088 0.19607356124420094
12.14728125 0.9996127559485245 0.19514457581301603
12.1484296875 0.995883172743524 0.19286252138228555
12.149578125 0.9951304287008084 0.18975361864456614
12.1507265625 0.9950983346686897 0.18941034576054283
12.151875 0.992043738531163 0.1877830362408025
12.1530234375 0.9940415504072699 0.18688662422410468
12.154171875 0.996905537515308 0.1901041068537031
12.1553203125 0.9968589887164311 0.18709794434743593
12.15646875 0.9933380237025441 0.1816592062379947
12.1576171875 0.9953123609915322 0.18042619940264615
12.158765625 0.9934950752413724 0.1798292231706634
12.1599140625 0.9955388462621657 0.18192848615761553
12.1610625 0.9936434817295556 0.17902260880694976
12.1622109375 0.9957240932296575 0.17752059404410636
12.163359375 0.9946333139379033 0.1728269537142132
12.1645078125 0.9937103740445844 0.17107885219550414
12.16565625 0.9948653043032857 0.17310386427883914
12.1668046875 0.9959346914429477 0.17095279322081125
12.167953125 0.9925177386840783 0.17219733820742572
12.1691015625 0.9975121931395634 0.16797798424063365
12.17025 0.9934997330550619 0.1631697550782525
12.1713984375 0.9909812876277868 0.16891886000733358
12.172546875 0.9934587868018053 0.16295278759651755
12.1736953125 0.9947514441319243 0.1618281326765471
12.17484375 0.9954635398351851 0.16140696360967113
12.1759921875 0.994108843143277 0.15661553590880462
12.177140625 0.9964351102588742 0.16108562032257423
12.1782890625 0.9964281869565532 0.16401391302528046
12.1794375 0.9974566865167381 0.15962295549451477
12.1805859375 0.996255804793447 0.15795150842930766
12.181734375 0.9894935581783482 0.1557380767011592
12.1828828125 0.9924898619779222 0.1569197173548648
12.18403125 0.9924006278549341 0.1617566518541919
12.1851796875 0.9938910112784766 0.16162228758954783
12.186328125 0.9905757476994872 0.15916624913747163
12.1874765625 0.9970676246614323 0.16127149834368593
12.188625 0.9902229637381679 0.16294943010277374
12.1897734375 0.999538278248514 0.1573059165030859
12.190921875 0.9995639779731212 0.1549747540754684
12.1920703125 1.001818992199767 0.15655939579281303
12.19321875 1.0047142444583153 0.15853699381192926
12.1943671875 1.0061353949465188 0.16167890907615462
12.195515625 1.0126546294536627 0.1561925745963212
12.1966640625 1.0148562808755601 0.15496142269663998
12.1978125 1.01994482725117 0.14664680793065843
12.1989609375 1.0121337367604224 0.14149897390090926
12.200109375 1.0146919842954505 0.13937019640488857
12.2012578125 1.0164085692731957 0.1371871152114672
12.20240625 1.0155876222030622 0.14225951222854455
12.2035546875 1.0140971757996606 0.1363454874449294
12.204703125 1.0129057298969069 0.13839312097147252
12.2058515625 1.0081249304511157 0.13647850438415432
12.207 1.011839250750607 0.13827475459689975
12.2081484375 1.0199449935738625 0.1387930907253111
12.209296875 1.0191403682784301 0.1361799337311913
12.2104453125 1.0217216529875484 0.13109580291932244
12.21159375 1.0199047991402395 0.133168219507243
12.2127421875 1.024099463188418 0.13177515779060456
12.213890625 1.0271080328751934 0.12921637920988993
12.2150390625 1.031601203365364 0.12565754170519383
12.2161875 1.0323120558671972 0.12444717003381267
12.2173359375 1.0373082275764522 0.11361280966034243
12.218484375 1.0369199930401678 0.11261587261971157
12.2196328125 1.0345440317568588 0.10661242421725797
12.22078125 1.0285229045737474 0.11071498590889012
12.2219296875 1.0281590695133989 0.1004988063235025
12.223078125 1.0329049484356292 0.09651138430014042
12.2242265625 1.025535121854269 0.09656773890191739
12.225375 1.0250168187918192 0.09464200967047243
12.2265234375 1.0265699923168152 0.096961112785941
12.227671875 1.0289326266319374 0.089674211758975
12.2288203125 1.0277003714400146 0.08799065743701195
12.22996875 1.0151403463727646 0.08582265989693472
12.2311171875 1.0161669322151183 0.08306938134065256
12.232265625 1.01094788466654 0.09006817676270296
12.2334140625 1.0153172793638985 0.08835536633077257
12.2345625 1.0218238528383348 0.09781092257029894
12.2357109375 1.0137895921296307 0.08308978271097889
12.236859375 1.0253700336470386 0.09143751933367117
12.2380078125 1.0281311434426468 0.07781088060964375
12.23915625 1.0196309275712059 0.07269244629577809
12.2403046875 1.0224964785396062 0.0676223325409846
12.241453125 1.0108224551706413 0.07242385123964923
12.2426015625 1.0033635246550432 0.07986532471133784
12.24375 1.0143617244937237 0.08784890883012181
12.2448984375 1.0188340903777506 0.08100296301315657
12.246046875 1.0238654907889322 0.06695624607620876
12.2471953125 1.0345073863513548 0.06602697583125255
12.24834375 1.0210512985123903 0.05180203196291
12.2494921875 1.0134016662699017 0.057827283100145344
12.250640625 1.018513674652695 0.0572444265013482
12.2517890625 1.0099725283452106 0.06618481864007075
12.2529375 1.0026734729722127 0.06674892984038999
12.2540859375 1.0142796470688742 0.06824988593009579
12.255234375 1.0140079856091169 0.06489122559057736
12.2563828125 1.0218505861014961 0.07011715047081252
12.25753125 1.0216528128578326 0.06496340363842601
12.2586796875 1.0256055441928171 0.07261678068234684
12.259828125 1.0349204299353212 0.07481474636105667
12.2609765625 1.0338461125890448 0.06602292749920768
12.262125 1.0388078155564944 0.0546405260297671
12.2632734375 1.0384948105826084 0.060810135160304646
12.264421875 1.0427884059785186 0.05243739386515117
12.2655703125 1.043623484790482 0.04615293380961122
12.26671875 1.048639370621887 0.043045940980768804
12.2678671875 1.049187523624054 0.033349395988947095
12.269015625 1.0514780276815638 0.03131688430103868
12.2701640625 1.0430266671122885 0.02068832197361209
12.2713125 1.0369733562955952 0.025625151125991896
12.2724609375 1.0428641797580336 0.018703614919045597
12.273609375 1.035617214574808 0.01968859210993218
12.2747578125 1.0320539355831135 0.022195609050006393
12.27590625 1.030701564197896 0.02372542848886572
12.2770546875 1.0275673632819 0.018747302719825137
12.278203125 1.030385633360467 0.02321583664763638
12.2793515625 1.0334734110109618 0.021552777531400225
12.2805 1.037984735717885 0.01881597642694577
12.2816484375 1.0353153910814648 0.018289559482323303
12.282796875 1.0308018856155954 0.012507085283291919
12.2839453125 1.0351707254210227 0.015284749429160749
12.28509375 1.0397901260069897 0.017905947482972112
12.2862421875 1.0426577878537608 0.02012004945532194
12.287390625 1.0437427455397554 0.012541266113065302
12.2885390625 1.0452044158342328 0.0010010970802087071
12.2896875 1.042243690095078 -0.0009049119337023459
12.2908359375 1.04091923390625 -0.005451786416713289
12.291984375 1.0403547219703086 -0.008222420673776487
12.2931328125 1.038257468864442 -0.012470847616445513
12.29428125 1.0328113090137636 -0.009308493591146605
12.2954296875 1.0260681123520616 -0.008004226650174806
12.296578125 1.028741598139859 -0.010461757001768712
12.2977265625 1.0280374703084458 -0.009047509611105928
12.298875 1.029456018906345 -0.012645433831939196
12.3000234375 1.030287020792962 -0.012949866191538206
12.301171875 1.028850708877629 -0.017998449463508204
12.3023203125 1.02493987399603 -0.02417640557037659
12.30346875 1.0192039392179888 -0.018678813705566677
12.3046171875 1.0133890843175188 -0.023078859614724556
12.305765625 1.0167227143880457 -0.021939671641412806
12.3069140625 1.0119194755962466 -0.02329819136742778
12.3080625 1.0168724938714027 -0.011880869216167267
12.3092109375 1.0121919893307139 -0.012566269275876618
12.310359375 1.0119793360680926 -0.014527506265599704
12.3115078125 1.0131968143478969 -0.005481174585252657
12.31265625 1.0068659225949255 -0.011152116172455373
12.3138046875 1.012897862370729 -0.006671387018161834
12.314953125 1.0180975703627877 -0.008834379959568484
12.3161015625 1.029334678071761 -0.004497243259619199
12.31725 1.0191810408801083 -0.005038139153678262
12.3183984375 1.0293989995986363 -0.01189809694229349
12.319546875 1.0178970381793309 -0.007896362982190819
12.3206953125 1.0252258938752115 -0.0160918866396339
12.32184375 1.0245732714700937 -0.015211340867205853
12.3229921875 1.0282746976605925 -0.007209780992221748
12.324140625 1.0331306016302901 -0.01707456873146468
12.3252890625 1.0445313301828183 -0.011071925265004001
12.3264375 1.0423873599133926 -0.020335196051044113
12.3275859375 1.0555680162094352 -0.019014102482906026
12.328734375 1.0527342683710146 -0.021881088211302663
12.3298828125 1.0513207281061527 -0.030858674681736753
12.33103125 1.0577967763717364 -0.03785410405356776
12.3321796875 1.0556202132801629 -0.029631087359788977
12.333328125 1.0529078606477538 -0.043681247005803836
12.3344765625 1.056888444549607 -0.053518601787031606
12.335625 1.0633669795606653 -0.050948283132695116
12.3367734375 1.0536355041542895 -0.06812144994708891
12.337921875 1.057821760000201 -0.0646760496194721
12.3390703125 1.058929178330944 -0.07372531388595333
12.34021875 1.0559964732590887 -0.06917839315295635
12.3413671875 1.0486528610740695 -0.08110497744447376
12.342515625 1.0495193115028276 -0.08349870752898436
12.3436640625 1.0395731220662374 -0.08148041170196882
12.3448125 1.0483025353013964 -0.08643187646977873
12.3459609375 1.040880039706345 -0.08803701706946271
12.347109375 1.0345040675404316 -0.0948425839069631
12.3482578125 1.0343031412060886 -0.09470295725899408
12.34940625 1.0414463419203808 -0.09351259519631953
12.3505546875 1.0343207188760783 -0.08525442623661375
12.351703125 1.0336261518761796 -0.08833637772188457
12.3528515625 1.0346192047308982 -0.08464460949514674
12.354 1.0294609615936754 -0.07765927474353251
12.3551484375 1.0400131411895328 -0.07606552412640571
12.356296875 1.0473203515046194 -0.08483208460336003
12.3574453125 1.0561986918368333 -0.08984071503939167
12.35859375 1.0579019772799094 -0.09031474967559702
12.3597421875 1.0604271849409148 -0.1017487537233816
12.360890625 1.0603169883798604 -0.10795539726166906
12.3620390625 1.063466408359934 -0.11454382566443717
12.3631875 1.0666852270860885 -0.11840312224092628
12.3643359375 1.0657827666564943 -0.1221400876195905
12.365484375 1.0659533713900242 -0.1283882141548874
12.3666328125 1.0601689875956226 -0.13473439903142653
12.36778125 1.053461838205551 -0.13706222067403007
12.3689296875 1.0538295028052471 -0.14480097133241113
12.370078125 1.0509922933907696 -0.1422572107981579
12.3712265625 1.0488077506792974 -0.1407995269770452
12.372375 1.0503783798523454 -0.15039936283499555
12.3735234375 1.0516113974969703 -0.15004553395683792
12.374671875 1.048453236264125 -0.15712278806694224
12.3758203125 1.0446644401508163 -0.1575904993058067
12.37696875 1.041069700892963 -0.1588868716024567
12.3781171875 1.0385776378162939 -0.17239383051674093
12.379265625 1.0360818079741703 -0.16932035466731507
12.3804140625 1.0307627754397524 -0.16794265289977325
12.3815625 1.0276136145598644 -0.17104678852611654
12.3827109375 1.0307228261894348 -0.16790487585260552
12.383859375 1.0255714837692524 -0.17251377625095732
12.3850078125 1.028935727583918 -0.17407736840743876
12.38615625 1.0237183378239534 -0.17121113870586566
12.3873046875 1.0270969972158892 -0.17470611768307828
12.388453125 1.0281972983583931 -0.17369435871730737
12.3896015625 1.0204218594881675 -0.17764178310182147
12.39075 1.0213466828483735 -0.1793421427072116
12.3918984375 1.0240222078877455 -0.18499784372120517
12.393046875 1.0190325747928677 -0.18413916560000076
12.3941953125 1.018378094005643 -0.1932793032216953
12.39534375 1.0203033315947854 -0.18846660733275344
12.3964921875 1.0121802174308334 -0.18843892015129496
12.397640625 1.0171692351286823 -0.19366794648245342
12.3987890625 1.0149125020177268 -0.1885763237327244
12.3999375 1.0116358645444263 -0.20066170260050975
12.4010859375 1.0080098738808978 -0.2005499775916675
12.402234375 0.9999398802138979 -0.19909848437017574
12.4033828125 1.0070369347428942 -0.20038416023497907
12.40453125 1.0089374066262118 -0.21357696134316295
12.4056796875 1.0003366762414199 -0.21249555839785866
12.406828125 0.9938298564738722 -0.21303352923517982
12.4079765625 0.9935597823871183 -0.21426591288758368
12.409125 0.9907253033028957 -0.21120791302610056
12.4102734375 0.9867434166936986 -0.21736655302854374
12.411421875 0.9902683315515701 -0.21422643205389272
12.4125703125 0.9826403725311912 -0.22245428087324065
12.41371875 0.9847369754028376 -0.22069284863767252
12.4148671875 0.9794101075622237 -0.22167497468136904
12.416015625 0.9829723068971077 -0.2259348227299527
12.4171640625 0.9745459485627879 -0.22811344538322847
12.4183125 0.9695056950202332 -0.23506539849912333
12.4194609375 0.9652326046020486 -0.2332734520167564
12.420609375 0.9650136721819916 -0.23126912333050706
12.4217578125 0.9639978663288172 -0.22747650411237122
12.42290625 0.9628146090887408 -0.22724847652659486
12.4240546875 0.9577432036897481 -0.23381003859601862
12.425203125 0.9565883685750319 -0.2346451447306595
12.4263515625 0.9547124705251597 -0.23431576887785005
12.4275 0.9518238736546759 -0.23444832770019958
12.4286484375 0.9508696841253068 -0.22794660685986395
12.429796875 0.948999880052038 -0.2344227807356815
12.4309453125 0.9480700091060807 -0.23736436044662168
12.43209375 0.9425297716577654 -0.23651111602548136
12.4332421875 0.94198205251922 -0.2315996928832892
12.434390625 0.9391283182349001 -0.229562357561039
12.4355390625 0.9387643962940713 -0.22845212553416128
12.4366875 0.9363913643109125 -0.2288282248055632
12.4378359375 0.9381493793931863 -0.22628115800845827
12.438984375 0.9380193800990082 -0.22502493046887692
12.4401328125 0.9427755778518074 -0.233571249417944
12.44128125 0.9389961484535135 -0.2245214988223484
12.4424296875 0.9382588052019798 -0.22229293988157744
12.443578125 0.936385152818981 -0.22558741355052525
12.4447265625 0.9322337514387378 -0.22419929199497224
12.445875 0.9368542260202197 -0.2210287551736725
12.4470234375 0.9445438872459004 -0.22075264579390053
12.448171875 0.9378329993440181 -0.22276779734756458
12.4493203125 0.9421196715286712 -0.22819133823220283
12.45046875 0.9366786762555848 -0.223621650016815
12.4516171875 0.9374586030061833 -0.22928536359673685
12.452765625 0.9333643218984006 -0.22070172461575777
12.4539140625 0.9397525405003625 -0.21906956261846922
12.4550625 0.936095339362504 -0.22258283225104447
12.4562109375 0.9334891514981521 -0.22361337109341173
12.457359375 0.9408504614701855 -0.22281938480871266
12.4585078125 0.9413826669667669 -0.22395943191929468
12.45965625 0.9400412178041001 -0.22023774481419034
12.4608046875 0.9334827587009191 -0.21757055873305797
12.461953125 0.9380399570580227 -0.22313070680723246
12.4631015625 0.9440528779151398 -0.2247714198988101
12.46425 0.9428216961758874 -0.2250188261520688
12.4653984375 0.9423920563109328 -0.22428773176781147
12.466546875 0.9413029546004515 -0.22676337412139758
12.4676953125 0.9374991300991172 -0.23084781888212302
12.46884375 0.9472035754815333 -0.23188340747200986
12.4699921875 0.9392728553929841 -0.2350004085022872
12.471140625 0.9458737256842136 -0.23126730698521203
12.4722890625 0.9417524307410854 -0.22658977905318267
12.4734375 0.938682796365369 -0.23258363851730468
12.4745859375 0.9374596617366975 -0.23476892286898143
12.475734375 0.9359554345788234 -0.23523084092705226
12.4768828125 0.9396021400188591 -0.22961275331035713
12.47803125 0.9432999702563142 -0.2273503985107005
12.4791796875 0.9412439604679643 -0.23112719773716606
12.480328125 0.9441025205207619 -0.2306746280458961
12.4814765625 0.9431330070396828 -0.23797828833773238
12.482625 0.9436274388628727 -0.2384534529810165
12.4837734375 0.9456389726998621 -0.23750584988553303
12.484921875 0.9441532709198582 -0.23403780680089292
12.4860703125 0.9451760251723326 -0.23727983905096384
12.48721875 0.9465778657380035 -0.2422978724630146
12.4883671875 0.9501198695483073 -0.24258800752005882
12.489515625 0.9483900344252935 -0.24463113025205419
12.4906640625 0.9485720816085064 -0.244851240201719
12.4918125 0.9490332173254542 -0.25015340919287055
12.4929609375 0.9461795839808647 -0.24879169698804415
12.494109375 0.9475304031586791 -0.25225236880549495
12.4952578125 0.9486739759216656 -0.25557583538266493
12.49640625 0.9478536506834198 -0.2598616096187335
12.4975546875 0.9442702001882246 -0.26136534681338164
12.498703125 0.9446578419712289 -0.2603746340927161
12.4998515625 0.9454292708192593 -0.2547367399391175
12.501 0.9474659931821199 -0.26041972636381616
12.5021484375 0.9506410938400104 -0.26137838039843675
12.503296875 0.9446943368692572 -0.26606165738959664
12.5044453125 0.9471174336223078 -0.2676917377409418
12.50559375 0.954493978358955 -0.27051183201828366
12.5067421875 0.9549343631417002 -0.2690625840320775
12.507890625 0.9511513653998718 -0.27243598559030846
12.5090390625 0.9508014711251114 -0.27265590945688667
12.5101875 0.9480185253895469 -0.2750139832558113
12.5113359375 0.9494051558107689 -0.2769389309852319
12.512484375 0.9480492867641144 -0.2816894651038581
12.5136328125 0.9555250995329874 -0.27732520265590155
12.51478125 0.9503795657855418 -0.2873785349495573
12.5159296875 0.9558420410928598 -0.2868904493174913
12.517078125 0.9567900903437743 -0.2939939621677333
12.5182265625 0.9597828861558051 -0.29517545508541876
12.519375 0.9487426844566377 -0.2891460492768488
12.5205234375 0.9529569044409422 -0.2889558778816736
12.521671875 0.9490343602464976 -0.2950338634036896
12.5228203125 0.9439194601293992 -0.2944067420023777
12.52396875 0.9555898545417157 -0.29727916025662915
12.5251171875 0.9507906893586114 -0.2989240853914884
12.526265625 0.9454689769435412 -0.30288233777534473
12.5274140625 0.947949677645451 -0.3058788378744837
12.5285625 0.9464918495754412 -0.31027640422866953
12.5297109375 0.9504253302890493 -0.3074224641620171
12.530859375 0.9520041846228435 -0.30599230394583476
12.5320078125 0.9540930179127267 -0.3132781247798131
12.53315625 0.945216070549584 -0.31361374990283214
12.5343046875 0.9451342309712994 -0.3180776422739564
12.535453125 0.9422894446109481 -0.31930496382049545
12.5366015625 0.9458319043676859 -0.3166598620538415
12.53775 0.949822129810113 -0.3153178578810236
12.5388984375 0.9420498038555489 -0.3208625966390831
12.540046875 0.9423283812234561 -0.31867680579168906
12.5411953125 0.9508483487816843 -0.3257163229362319
12.54234375 0.9529484953809079 -0.3187545607236929
12.5434921875 0.9398725988086882 -0.3266410890849894
12.544640625 0.9388433090157162 -0.33384142550070994
12.5457890625 0.941966897322053 -0.3297661392409862
12.5469375 0.9344881509534199 -0.33656721670521106
12.5480859375 0.9391365121381976 -0.3360779712078473
12.549234375 0.9329472345769514 -0.334310458269542
12.5503828125 0.9293475805565345 -0.3338672743369969
12.55153125 0.9317269178268681 -0.3351535766297352
12.5526796875 0.932193559306418 -0.3364876652879826
12.553828125 0.9311287789653993 -0.333919972098221
12.5549765625 0.9326602213642816 -0.3366265167556236
12.556125 0.9297476409903643 -0.3387793222337094
12.5572734375 0.9293186418905561 -0.34117624043459416
12.558421875 0.9259317382399772 -0.3464106669886461
12.5595703125 0.92190794081155 -0.3447705578942623
12.56071875 0.9211354892192629 -0.34715224708276604
12.5618671875 0.9202453113222582 -0.3437399452146491
12.563015625 0.9180565300206946 -0.34497648282577725
12.5641640625 0.9159974323297078 -0.3433769888181027
12.5653125 0.9166927879449007 -0.34390773069988345
12.5664609375 0.9089944686410008 -0.34732021010322844
12.567609375 0.9055480378681413 -0.34883936648612646
12.5687578125 0.9082783511976161 -0.3434019374046676
12.56990625 0.9064682658454355 -0.3422581133888044
12.5710546875 0.9128610347305277 -0.344499079733529
12.572203125 0.9093464823385753 -0.3439431559546618
12.5733515625 0.9042472073385709 -0.3441716114905904
12.5745 0.9043671003080069 -0.3468574732615383
12.5756484375 0.9139236422655013 -0.3460027911378458
12.576796875 0.9071019122825401 -0.346467648981427
12.5779453125 0.9083300960052115 -0.3554225261734668
12.57909375 0.9066628254753353 -0.34524029352952545
12.5802421875 0.9082054692244841 -0.35117012342867204
12.581390625 0.9103676968359754 -0.34928138367950845
12.5825390625 0.911221931304698 -0.3547707880540943
12.5836875 0.9108810614688618 -0.3474406321816755
12.5848359375 0.9101769434028664 -0.3514820610648554
12.585984375 0.9065983951699493 -0.35100481777213516
12.5871328125 0.9102860722066857 -0.35557696499336244
12.58828125 0.9140949028490173 -0.3541100638541395
12.5894296875 0.9159318272007573 -0.3567965700842672
12.590578125 0.9146874133877918 -0.3571365464490116
12.5917265625 0.9178088173611889 -0.3642077497804405
12.592875 0.9103952720364996 -0.36412331059280534
12.5940234375 0.9161252391275674 -0.3655656802220367
12.595171875 0.9216920213762121 -0.3660955411323943
12.5963203125 0.9194907421566622 -0.36810377222900303
12.59746875 0.9184574881947412 -0.3790350923971194
12.5986171875 0.9207640501296875 -0.37230488151352426
12.599765625 0.9189609263900426 -0.3797186109723182
12.6009140625 0.9269851466292393 -0.3819855813957699
12.6020625 0.9218718695153593 -0.38891246134098767
12.6032109375 0.9222135414919876 -0.3906632580993834
12.604359375 0.9200067963871994 -0.38758254925442526
12.6055078125 0.9209794971625331 -0.3934352555468864
12.60665625 0.9239262542495934 -0.3957425918343723
12.6078046875 0.9210065218818433 -0.3976638908286414
12.608953125 0.9178882332665611 -0.3981989247668335
12.6101015625 0.9181502847868874 -0.40117958549307153
12.61125 0.9183435114479126 -0.40056760618340104
12.6123984375 0.9133957476577591 -0.4020103322700189
12.613546875 0.9184473805946202 -0.3981749847446132
12.6146953125 0.9162027560747099 -0.40833366756229683
12.61584375 0.9093313002786683 -0.41274672894266506
12.6169921875 0.9106685288738103 -0.40569597690410075
12.618140625 0.9127492509620292 -0.4056996404042392
12.6192890625 0.9035666964316544 -0.4140220085698496
12.6204375 0.9069802368817295 -0.41486138078799006
12.6215859375 0.90320928053258 -0.41885192927341763
12.622734375 0.9019921612540238 -0.413578515817404
12.6238828125 0.9011105542479858 -0.4149643942782303
12.62503125 0.9046061043999303 -0.41386312859849217
12.6261796875 0.9014793367946241 -0.4173251100149241
12.627328125 0.9017087385883852 -0.4155836912340707
12.6284765625 0.8969801283379086 -0.41551927779466635
12.629625 0.8946764417549244 -0.41982642770475864
12.6307734375 0.8949353598506034 -0.4174898809349019
12.631921875 0.894949056266509 -0.4216125888121327
12.6330703125 0.897092525643775 -0.41972030861700416
12.63421875 0.8930646505914768 -0.42462144083555764
12.6353671875 0.8988862735221705 -0.4246155934426543
12.636515625 0.8989716047615361 -0.4235685785949469
12.6376640625 0.8956210061350287 -0.4291689758334103
12.6388125 0.8950341437584627 -0.42607182186127623
12.6399609375 0.894599087389955 -0.43258303731659686
12.641109375 0.8982576538922749 -0.4353642806030592
12.6422578125 0.900494474757393 -0.4352394405993425
12.64340625 0.8921285100628226 -0.43603408445759917
12.6445546875 0.8917497685760692 -0.43949658028602123
12.645703125 0.8896808826575622 -0.44026433026791845
12.6468515625 0.8857762051421504 -0.4383112767317279
12.648 0.8828073112168683 -0.43776538214191707
12.6491484375 0.8778512351269245 -0.43842215231924164
12.650296875 0.8834623537356545 -0.44099797862589274
12.6514453125 0.886633687392463 -0.43363396527526477
12.65259375 0.8840634550112816 -0.43968691999769616
12.6537421875 0.8884059122614613 -0.44095600215521535
12.654890625 0.8862524904597121 -0.4371346243059646
12.6560390625 0.8910217029908055 -0.44341861427858353
12.6571875 0.8806658948967514 -0.44912012359788334
12.6583359375 0.8756086935689844 -0.452072581354912
12.659484375 0.881097710038415 -0.44597798754230034
12.6606328125 0.8816408625832545 -0.4478553668648204
12.66178125 0.8766413159347277 -0.44782777451172096
12.6629296875 0.8780377872003073 -0.4518522227354189
12.664078125 0.8738756708942621 -0.456264562592732
12.6652265625 0.8712722022459585 -0.4580713356440206
12.666375 0.8788698957957155 -0.4519246887493511
12.6675234375 0.8721526296760224 -0.4573942881098757
12.668671875 0.8727421324115099 -0.4538026821862116
12.6698203125 0.8668005080723589 -0.4522475539684179
12.67096875 0.8785818328070629 -0.45061353149174616
12.6721171875 0.8692736688656055 -0.4545436976310547
12.673265625 0.870415472598988 -0.45688329515484216
12.6744140625 0.8719109667050263 -0.45425491161533277
12.6755625 0.8701071469446642 -0.45865833552843205
12.6767109375 0.8742244073153858 -0.4585646951799355
12.677859375 0.8728752930984705 -0.4591409726381438
12.6790078125 0.8739123031389743 -0.4594495431429715
12.68015625 0.8713377947003643 -0.458764765832057
12.6813046875 0.8714721537426314 -0.4601667306119797
12.682453125 0.8778008374705272 -0.46472655979652816
12.6836015625 0.8789498963299052 -0.4618043319521213
12.68475 0.8761650747616953 -0.46199925798035596
12.6858984375 0.8797767985537804 -0.46939940792386403
12.687046875 0.8834568479810624 -0.4689028317384188
12.6881953125 0.8747650146660801 -0.4686896464690279
12.68934375 0.8746008668968813 -0.46780054069976645
12.6904921875 0.8783253847382532 -0.4699994520298151
12.691640625 0.8815225663701105 -0.47241564439885336
12.6927890625 0.882096483611954 -0.4748078688640829
12.6939375 0.8860876489166161 -0.47765548575519357
12.6950859375 0.8824819367540124 -0.47906148653183
12.696234375 0.8823728578428428 -0.48224078673409676
12.6973828125 0.8847697065310943 -0.4831664689176719
12.69853125 0.8798762601518333 -0.4843795561105073
12.6996796875 0.8843345128458555 -0.48913625907858344
12.700828125 0.8809701691287795 -0.48913787281075344
12.7019765625 0.8830633719018733 -0.4923098627938875
12.703125 0.8813390070999642 -0.49708839150928474
12.7042734375 0.8819911665388984 -0.5014595042270225
12.705421875 0.879851594864498 -0.5041914869256806
12.7065703125 0.8808173334717659 -0.5102737384913465
12.70771875 0.8793903931386635 -0.511683722783324
12.7088671875 0.8756920054864525 -0.5144057835043825
12.710015625 0.8742328416247893 -0.5179408806925826
12.7111640625 0.8716580655525905 -0.5212321377395068
12.7123125 0.8699736810704907 -0.5264881010975637
12.7134609375 0.8642470856285918 -0.5239203917549407
12.714609375 0.8598465838231939 -0.5248807725942751
12.7157578125 0.8585324689312558 -0.5248096267766398
12.71690625 0.8551274811471749 -0.5277808063868198
12.7180546875 0.8549871262115407 -0.5271662522877415
12.719203125 0.8529462413427066 -0.5284733243898874
12.7203515625 0.8504223826730947 -0.5270060119292617
12.7215 0.8474334697733459 -0.5291104615131893
12.7226484375 0.8455662534478384 -0.5308683275593458
12.723796875 0.8448812984483659 -0.533445953406865
12.7249453125 0.8473697972341001 -0.5307473559784429
12.72609375 0.8450676710422941 -0.5310157311041944
12.7272421875 0.8443356702653994 -0.531223052833722
12.728390625 0.8406214953931476 -0.5308700067506462
12.7295390625 0.8388601471277488 -0.5365843763683966
12.7306875 0.8422988122608212 -0.5359621289244589
12.7318359375 0.8389697168024015 -0.5371022052898222
12.732984375 0.8363759498888323 -0.5393122390440397
12.7341328125 0.8318972147780181 -0.5367445285332799
12.73528125 0.8330224516061016 -0.5400634004120999
12.7364296875 0.8293464687444585 -0.5395128352856331
12.737578125 0.8293789039555082 -0.5362501169803284
12.7387265625 0.8300774363543904 -0.5368569027596837
12.739875 0.8291103863100562 -0.5370346251816485
12.7410234375 0.828667119627087 -0.5372785193116703
12.742171875 0.82906447357962 -0.5376096642503266
12.7433203125 0.8296713043632638 -0.5407797909175507
12.74446875 0.8245268502013048 -0.539683902236925
12.7456171875 0.8278727153746409 -0.540887045774444
12.746765625 0.8260316574762323 -0.5392160096142163
12.7479140625 0.8249657289297023 -0.542948250276458
12.7490625 0.8255063622548401 -0.5457816242122144
12.7502109375 0.8279439642698818 -0.5454491585181496
12.751359375 0.8268345270798565 -0.5469401822282142
12.7525078125 0.8252754421883521 -0.5449120356947905
12.75365625 0.8222153972337036 -0.5490371000466581
12.7548046875 0.8230337567016661 -0.550972867679691
12.755953125 0.8238232143926291 -0.5510625177407991
12.7571015625 0.8237716081450207 -0.5555308652396618
12.75825 0.8206434636017805 -0.5563996742550071
12.7593984375 0.8185829505332736 -0.5564801475919363
12.760546875 0.8168539576941931 -0.5591643267914083
12.7616953125 0.8139366915156929 -0.5577785340405476
12.76284375 0.814248712124445 -0.5591591601703164
12.7639921875 0.8111884799180831 -0.5595487642455811
12.765140625 0.8141404878894651 -0.5598832361018535
12.7662890625 0.8126916159017032 -0.559068453247241
12.7674375 0.810491225259238 -0.5596339861433554
12.7685859375 0.808944085902028 -0.56016885197881
12.769734375 0.8093605970296458 -0.5603728193004558
12.7708828125 0.8071966261513298 -0.5624569352425286
12.77203125 0.809275304931691 -0.5612827931053495
12.7731796875 0.8093687378315259 -0.560128706127031
12.774328125 0.8102761397262971 -0.5594682948071527
12.7754765625 0.8107843738569177 -0.5613621178354417
12.776625 0.8107611088554973 -0.5651699109558443
12.7777734375 0.8103893743670598 -0.5665041816237965
12.778921875 0.8106553503655493 -0.5670340323101126
12.7800703125 0.8095960397198588 -0.5689036814277841
12.78121875 0.8099362828243675 -0.5675090201718511
12.7823671875 0.8063997110452545 -0.5708048751298512
12.783515625 0.8061420417383226 -0.5720795149321697
12.7846640625 0.8064428056748905 -0.5733423428983216
12.7858125 0.8074844609870884 -0.5725861167485407
12.7869609375 0.8067201084689649 -0.574223035952165
12.788109375 0.803857890038989 -0.5760051185201823
12.7892578125 0.8046117291292691 -0.5787944292310889
12.79040625 0.8031231871476698 -0.5782650009147815
12.7915546875 0.8039478503475038 -0.5800739096667789
12.792703125 0.8060541798176903 -0.5802219531562332
12.7938515625 0.803197092802171 -0.5814415989321671
12.795 0.8048762574947561 -0.5815666920958212
12.7961484375 0.8012449637367932 -0.5860631075603735
12.797296875 0.8009795261295216 -0.5868103724245504
12.7984453125 0.801530950825601 -0.5847429684212422
12.79959375 0.7995557848318497 -0.588975662709925
12.8007421875 0.8002816169072069 -0.593436492064373
12.801890625 0.7984663494161779 -0.5884697024897909
12.8030390625 0.7984419017295044 -0.5920748591537373
12.8041875 0.7952651305164818 -0.5900489748414244
12.8053359375 0.7935138610921302 -0.591718034994924
12.806484375 0.7945034027004514 -0.5915270962218004
12.8076328125 0.7893027096435099 -0.5940270206561042
12.80878125 0.7920386981079185 -0.5964136794586204
12.8099296875 0.7947714887315697 -0.5969847561800363
12.811078125 0.7958557969159126 -0.5981608299270083
12.8122265625 0.7926857181211717 -0.5983365989718039
12.813375 0.7934087014298281 -0.597701357047627
12.8145234375 0.7923029997927412 -0.5977205941662966
12.815671875 0.7923399313949211 -0.6030860655563233
12.8168203125 0.793113386003167 -0.6002245403269544
12.81796875 0.7885637032040878 -0.6026981796421613
12.8191171875 0.7913836518391172 -0.6080794300795049
12.820265625 0.7904555514425213 -0.6088573676486505
12.8214140625 0.7886330309085656 -0.6100638078380126
12.8225625 0.7892844641439647 -0.6125603714854522
12.8237109375 0.7865462603647594 -0.6117289824500804
12.824859375 0.7867927534795562 -0.613747033434573
12.8260078125 0.7890066118598879 -0.6166152603041557
12.82715625 0.784776993187422 -0.6184294562128905
12.8283046875 0.784244577395814 -0.6189140813408444
12.829453125 0.7841258856185316 -0.6213245616412576
12.8306015625 0.782219189191256 -0.62341985665016
12.83175 0.7798890841972344 -0.624852297398905
12.8328984375 0.7807439740090837 -0.6254922644194514
12.834046875 0.7789558426045569 -0.6236600123369807
12.8351953125 0.7783708610527073 -0.6262327673543823
12.83634375 0.778085883204005 -0.6269563917786044
12.8374921875 0.7778265384439297 -0.6286501229399595
12.838640625 0.7790184698702779 -0.6309046228975831
12.8397890625 0.7759357992511942 -0.6319319703137607
12.8409375 0.7752032025977379 -0.6327306975090734
12.8420859375 0.7742120906501684 -0.6354128791598704
12.843234375 0.7724918476019189 -0.6378556466565715
12.8443828125 0.7717223381274041 -0.6405919653215595
12.84553125 0.7723003296267928 -0.6403567134625041
12.8466796875 0.7697722037334295 -0.6411766385503177
12.847828125 0.7675094421751498 -0.6438304443008895
12.8489765625 0.7661889739026112 -0.6429306775474378
12.850125 0.7658112404470612 -0.6441567730261661
12.8512734375 0.7636410239032781 -0.6448560939704577
12.852421875 0.763344949648782 -0.6460893881679499
12.8535703125 0.7614151176797207 -0.6476184237335721
12.85471875 0.7596723874539935 -0.647800607843602
12.8558671875 0.7583942201011507 -0.6490870571735803
12.857015625 0.758882733734468 -0.649426851631159
12.8581640625 0.7576572197185383 -0.6513614221703782
12.8593125 0.7569393685523086 -0.653090662222417
12.8604609375 0.7564855224417575 -0.6540954465110101
12.861609375 0.7546743701441937 -0.6547802547662199
12.8627578125 0.7535754587020463 -0.6557331949599091
12.86390625 0.7529534757484766 -0.6557859775375573
12.8650546875 0.7531741132630179 -0.6563828812203308
12.866203125 0.7521923972250899 -0.6572182030025093
12.8673515625 0.751970019469958 -0.6590133140854725
12.8685 0.7500079016712637 -0.6601677745182081
12.8696484375 0.750517159051412 -0.661780817989903
12.870796875 0.7486639913306087 -0.6621841770263603
12.8719453125 0.7479283196318232 -0.6640327876492188
12.87309375 0.7472554686581667 -0.6646913168365269
12.8742421875 0.7468304853357134 -0.6666795065858796
12.875390625 0.7457798853110227 -0.6665869960376225
12.8765390625 0.7445858605354378 -0.668036474723492
12.8776875 0.7441524940828345 -0.6688534635511467
12.8788359375 0.742372548250372 -0.6694340472509588
12.879984375 0.7424311228380982 -0.6703452736225194
12.8811328125 0.7423598179459421 -0.6717335290617101
12.88228125 0.7405919178917018 -0.6728225907747551
12.8834296875 0.7397030178989868 -0.6746404503535874
12.884578125 0.7399397554676703 -0.6753697961373099
12.8857265625 0.7371251143129846 -0.6764674135482149
12.886875 0.7363951918591767 -0.6784485701410893
12.8880234375 0.7357588736112927 -0.6785908776869151
12.889171875 0.7347351250853463 -0.6805505334994315
12.8903203125 0.7340840049731173 -0.6810070384991854
12.89146875 0.7336519959255402 -0.6823009522542414
12.8926171875 0.7320506775987176 -0.6837039802230162
12.893765625 0.7305794765652791 -0.6851493927945009
12.8949140625 0.7312059893016252 -0.6856714895757342
12.8960625 0.7293922936519277 -0.6883204722059952
12.8972109375 0.7282954358655305 -0.6890397446764964
12.898359375 0.7264692798741456 -0.6895656737829512
12.8995078125 0.7259419156478839 -0.6909770246717764
12.90065625 0.7234978545376638 -0.6926776001716572
12.9018046875 0.7218570660105739 -0.6944225960256789
12.902953125 0.7207479323502843 -0.6960045006114695
12.9041015625 0.7189677454382467 -0.6960613683465391
12.90525 0.7179656323353439 -0.697136021732794
12.9063984375 0.7175444917352122 -0.6973928224438639
12.907546875 0.7155415445212547 -0.6987293889719732
12.9086953125 0.7138116213577764 -0.6997743475501836
12.90984375 0.7136224552681406 -0.7001940230643562
12.9109921875 0.7127930234126569 -0.7013768316284551
12.912140625 0.7124258449650493 -0.7018145493597014
12.9132890625 0.7113059985686552 -0.7029230861631834
12.9144375 0.7101085881435671 -0.7030347170304448
12.9155859375 0.70957687047861 -0.7035416517989921
12.916734375 0.7092509394623328 -0.7030613702989118
12.9178828125 0.7095267863040008 -0.7039671899655695
12.91903125 0.7090394773349105 -0.7048104472300638
12.9201796875 0.7084266992693196 -0.706289974306483
12.921328125 0.7097015548923422 -0.7078408679028976
12.9224765625 0.709125196337249 -0.7104396045686839
12.923625 0.7080949543501239 -0.7125921169302354
12.9247734375 0.7069622202116768 -0.7148257159619015
12.925921875 0.704407288081224 -0.7167689933580379
12.9270703125 0.7014476203852483 -0.7186307110260015
12.92821875 0.6990154310591878 -0.720826646612189
12.9293671875 0.6970708164721129 -0.7211516259652144
12.930515625 0.6959767375553446 -0.7222603454395488
12.9316640625 0.6932159306846216 -0.722342209904876
12.9328125 0.6918409846287095 -0.7226185178444862
12.9339609375 0.6898796586901342 -0.7218739566171178
12.935109375 0.6885576840476432 -0.7218771001144396
12.9362578125 0.6884816363567975 -0.7220944245699277
12.93740625 0.6889434435417432 -0.7236043800141913
12.9385546875 0.6866078529711195 -0.7248145177750118
12.939703125 0.6872941914029043 -0.7260397075955076
12.9408515625 0.6852106624751868 -0.727994675125996
12.942 0.6837075188808256 -0.7273017335036079
12.9431484375 0.6825609244580677 -0.7285567665223713
12.944296875 0.6813567698364178 -0.729267991890121
12.9454453125 0.6796174150448762 -0.7299986359578181
12.94659375 0.6776311082492864 -0.7303147990400988
12.9477421875 0.676110468315578 -0.7311434620640321
12.948890625 0.6763853977640462 -0.731754966988529
12.9500390625 0.6746579661650736 -0.7316479021782831
12.9511875 0.6742578266236936 -0.7323912835416728
12.9523359375 0.6738146755547966 -0.7329688340334672
12.953484375 0.6713900127517073 -0.7344517692640616
12.9546328125 0.6697990005650861 -0.7344825065994791
12.95578125 0.6685236885583113 -0.7337912116551826
12.9569296875 0.6674715421346524 -0.7347413256355271
12.958078125 0.6691417746387858 -0.7336151771991821
12.9592265625 0.6688339885238147 -0.7347410906840401
12.960375 0.6675316471826562 -0.7354915462460845
12.9615234375 0.6658376133949835 -0.7381499279857715
12.962671875 0.6644184498168793 -0.7386156200293541
12.9638203125 0.6626499847552327 -0.7387215306089612
12.96496875 0.6620981106446022 -0.738648638235545
12.9661171875 0.6611026102289941 -0.7384417835832189
12.967265625 0.6595978693197934 -0.7386619498689222
12.9684140625 0.6590670468840405 -0.7383721110316783
12.9695625 0.6578836938913273 -0.7378752912558239
12.9707109375 0.659095547780061 -0.7385564252491048
12.971859375 0.6588828956408529 -0.7387661290930208
12.9730078125 0.6593871695014137 -0.7400195365431765
12.97415625 0.6582859660431577 -0.7394780704233197
12.9753046875 0.6581877500249692 -0.7409733533330621
12.976453125 0.6579530445191522 -0.7417794517609928
12.9776015625 0.6566246655652576 -0.7429663613450557
12.97875 0.6573823517889222 -0.7442076339063066
12.9798984375 0.6573583986875146 -0.7445103201166261
12.981046875 0.6569741626056083 -0.7472541070394301
12.9821953125 0.656148228435527 -0.7480190585645998
12.98334375 0.654795790920435 -0.7493409707576446
12.9844921875 0.6548180587733455 -0.7506900156283731
12.985640625 0.6538982994295023 -0.7505989898856176
12.9867890625 0.653903698390129 -0.7517348384507756
12.9879375 0.6548435451036486 -0.7515800647286266
12.9890859375 0.6546834202694298 -0.7542171736402301
12.990234375 0.655911197647529 -0.7562639573246988
12.9913828125 0.6538137417935544 -0.756731986926549
12.99253125 0.653925135005203 -0.7587851846105896
12.9936796875 0.6542119918981314 -0.7605731310850321
12.994828125 0.6546851022914721 -0.7627831608275991
12.9959765625 0.6549006352900031 -0.7635146250316781
12.997125 0.6568844451168506 -0.7660139436636463
12.9982734375 0.6566871519219428 -0.7694929057989894
12.999421875 0.656311918182115 -0.7718887227142859
13.0005703125 0.6551273106594844 -0.7750237051147284
13.00171875 0.654965660604305 -0.7770808212498376
13.0028671875 0.6512016059456573 -0.7793600870794855
13.004015625 0.6506678961714603 -0.7816305978355013
13.0051640625 0.6496311643098364 -0.7858863301327944
13.0063125 0.6487209182923022 -0.7907193553191902
13.0074609375 0.6485886364469517 -0.7938247501039338
13.008609375 0.6435909190944575 -0.7983759343010275
13.0097578125 0.6371045835777347 -0.8010858283258679
13.01090625 0.6304133495666241 -0.8014202830733389
13.0120546875 0.6265784834252484 -0.7986167898221023
13.013203125 0.6270334221043107 -0.7949519591199502
13.0143515625 0.6268487905233491 -0.7913547183554649
13.0155 0.6250107390784271 -0.7919630444725348
13.0166484375 0.6283959086374545 -0.7918832997649736
13.017796875 0.625470799232454 -0.7913648430561573
13.0189453125 0.6284635997700085 -0.7974434385816387
13.02009375 0.6288970522407997 -0.7960552313069913
13.0212421875 0.6274268387600734 -0.8012722409159454
13.022390625 0.6253073562801871 -0.8053061133155133
13.0235390625 0.6231290806223657 -0.8055019088704042
13.0246875 0.6234283110667976 -0.8088048697745841
13.0258359375 0.6234259716528433 -0.8116152782597805
13.026984375 0.6210660839278619 -0.811948637628581
13.0281328125 0.6179465885229646 -0.8153989757019164
13.02928125 0.6117786668058689 -0.8176876949660845
13.0304296875 0.6106683530366346 -0.8188015254514867
13.031578125 0.6094650641727164 -0.8229310674611666
13.0327265625 0.6073135620892272 -0.8228835868391565
13.033875 0.6022243026483932 -0.8228576053923035
13.0350234375 0.5992881497900437 -0.8227472295142151
13.036171875 0.5933400388595006 -0.8230963634904778
13.0373203125 0.5944361266603366 -0.8182802809708315
13.03846875 0.5932621439111738 -0.8198608826922603
13.0396171875 0.5929266570161342 -0.81829637947904
13.040765625 0.5907909133312519 -0.8196798910160692
13.0419140625 0.5932632965871958 -0.821441332121665
13.0430625 0.5953425158770437 -0.8264064633903194
13.0442109375 0.5903149518019838 -0.8304291148636236
13.045359375 0.5892680733059442 -0.8335629389000648
13.0465078125 0.5853345075958776 -0.8327500703687616
13.04765625 0.5825996775795901 -0.8341139530588719
13.0488046875 0.5770414238484989 -0.8346242851532285
13.049953125 0.5763266638972346 -0.8361737610467472
13.0511015625 0.5689256908049003 -0.8408808554323042
13.05225 0.5663089613190929 -0.8401684779761969
13.0533984375 0.5630594157985259 -0.8383773436884571
13.054546875 0.5597048170775754 -0.8361331210693812
13.0556953125 0.5577941170698211 -0.8338177768147075
13.05684375 0.5579138759323597 -0.8350069260029283
13.0579921875 0.5545610679471008 -0.8364504556987464
13.059140625 0.5529347220666032 -0.8361907738836929
13.0602890625 0.5501138911326722 -0.8342229838452302
13.0614375 0.5483707780348782 -0.8329816958538441
13.0625859375 0.5467858720590557 -0.829695090600509
13.063734375 0.546557105063247 -0.8328928472812781
13.0648828125 0.5439105349222668 -0.8346404559186529
13.06603125 0.5386127179693108 -0.829120854167033
13.0671796875 0.5365588338995528 -0.8277249440203147
13.068328125 0.5407253031517589 -0.8283117951250083
13.0694765625 0.5358468714207166 -0.8251971052126964
13.070625 0.5386155935391148 -0.824326266472375
13.0717734375 0.5374763452814796 -0.8225064090627162
13.072921875 0.5393135046688686 -0.8235729592105132
13.0740703125 0.5362689805380623 -0.8224222530315307
13.07521875 0.5406747350326182 -0.8249647842565191
13.0763671875 0.5371064064810512 -0.8237712261970511
13.077515625 0.5377998813310729 -0.823560574983573
13.0786640625 0.5370542564810975 -0.8273233471007695
13.0798125 0.5324364937065555 -0.8255229039245662
13.0809609375 0.5357228056739767 -0.8278578173225966
13.082109375 0.5307564027931314 -0.8276147437447077
13.0832578125 0.524553500535511 -0.8312604866156125
13.08440625 0.520755814422387 -0.8252058890733043
13.0855546875 0.5264297779484581 -0.8301261383352188
13.086703125 0.5247245350113792 -0.8259473256819602
13.0878515625 0.5231334208053071 -0.8220059761109142
13.089 0.5230311270464216 -0.8271724020347546
13.0901484375 0.522675583232057 -0.8241236099778624
13.091296875 0.5222934484569441 -0.8233247987308565
13.0924453125 0.5200951427262922 -0.8224676737335119
13.09359375 0.5236962056663932 -0.8237968235504821
13.0947421875 0.5172985857345387 -0.823748438285563
13.095890625 0.5212645503302131 -0.8252285716737082
13.0970390625 0.5197919499808452 -0.818444613812862
13.0981875 0.5174280045625352 -0.8183437906162212
13.0993359375 0.5211140134669757 -0.8179587884896737
13.100484375 0.5211727372270871 -0.817316203332977
13.1016328125 0.5206501399444723 -0.8229759434114383
13.10278125 0.5177407276577206 -0.8250157496928758
13.1039296875 0.5209372329611683 -0.8239094587831128
13.105078125 0.5129214981711949 -0.8215577785618983
13.1062265625 0.5161733549532327 -0.8185817086735394
13.107375 0.5186174325072326 -0.817724960962075
13.1085234375 0.5203930043877922 -0.8146270472792073
13.109671875 0.5228429486784058 -0.81243915753818
13.1108203125 0.5291732920713482 -0.8139203870949019
13.11196875 0.5295483205870505 -0.8153640047569088
13.1131171875 0.532768029334737 -0.821863079154172
13.114265625 0.5346328955307219 -0.8260259811039545
13.1154140625 0.5338645427443905 -0.8278663131414936
13.1165625 0.5342267239233089 -0.831962867993405
13.1177109375 0.5350999662048177 -0.8357044469341612
13.118859375 0.5330187451744866 -0.8358326577661541
13.1200078125 0.5294202184960508 -0.8427542104553143
13.12115625 0.5276270826896036 -0.8483103931230409
13.1223046875 0.5244065547674912 -0.848746626860829
13.123453125 0.5201962450475414 -0.84886775723589
13.1246015625 0.5194252277447593 -0.8499301642272485
13.12575 0.516471747398342 -0.8498450753999575
13.1268984375 0.5163449906581947 -0.849863383096997
13.128046875 0.5152002842095508 -0.8508903461264866
13.1291953125 0.5140480627955234 -0.8523019449610397
13.13034375 0.5120509786213798 -0.8538167980620458
13.1314921875 0.5091051940445361 -0.8539238133476557
13.132640625 0.5071221165207852 -0.8557749812818312
13.1337890625 0.50688375000626 -0.8524046676562499
13.1349375 0.5068704077338921 -0.8556798662255806
13.1360859375 0.506845282742767 -0.8588171875624276
13.137234375 0.5042158080791824 -0.8602820720694584
13.1383828125 0.5002801327795434 -0.8595795441055972
13.13953125 0.5002556897389626 -0.860549637244132
13.1406796875 0.5006202825211181 -0.8604747343556066
13.141828125 0.4998684011389617 -0.8624410136573704
13.1429765625 0.49775696799996383 -0.8651287065624114
13.144125 0.49383427057232004 -0.867620758229239
13.1452734375 0.4911915775085214 -0.8662419840509191
13.146421875 0.4902087153692765 -0.8669211772813321
13.1475703125 0.48772653968912527 -0.8636216526175899
13.14871875 0.48958714618600097 -0.8641099412428898
13.1498671875 0.48972658262499275 -0.8630559241161216
13.151015625 0.4922819381109317 -0.8663396032469455
13.1521640625 0.49036730285676466 -0.8708304960674944
13.1533125 0.4897628931289602 -0.8681582787735043
13.1544609375 0.48883602224749534 -0.8712876236058213
13.155609375 0.486953376468641 -0.8737518730326941
13.1567578125 0.4868753911764939 -0.8728813061164303
13.15790625 0.48435683490709164 -0.8756547308787007
13.1590546875 0.4830453837649338 -0.8746901395666463
13.160203125 0.4801094188435206 -0.8767806796896276
13.1613515625 0.47987346579417356 -0.8745125827704043
13.1625 0.47914185925325137 -0.8764080333333306
13.1636484375 0.4780404441828185 -0.8770583965005558
13.164796875 0.47668841175103605 -0.8777506513719764
13.1659453125 0.47511107564422983 -0.880133948735099
13.16709375 0.4746452531296772 -0.8802774805520497
13.1682421875 0.4789662657618187 -0.8809590948388499
13.169390625 0.4782866552718873 -0.8848300870115712
13.1705390625 0.47510223187804324 -0.8872938198481207
13.1716875 0.4777448087814505 -0.8866677703043436
13.1728359375 0.4764308297414177 -0.8914277108664483
13.173984375 0.4761290007216852 -0.8916735197159874
13.1751328125 0.47473384913954064 -0.8963914545562032
13.17628125 0.46800412980099193 -0.8977693505119853
13.1774296875 0.47165805753243323 -0.9010206563872312
13.178578125 0.4646785627736705 -0.901864598905727
13.1797265625 0.46382607535529047 -0.9003133998155597
13.180875 0.4619166932904521 -0.9049081475463818
13.1820234375 0.4588665133723075 -0.9056426556451049
13.183171875 0.45786073585541165 -0.9063239403796881
13.1843203125 0.45706580834427135 -0.9079388638821764
13.18546875 0.45307749834456273 -0.9086521976830075
13.1866171875 0.45211554158127143 -0.9114229350651678
13.187765625 0.44525122124028144 -0.9109583689021115
13.1889140625 0.4465811754368802 -0.9114349545325702
13.1900625 0.4453398375679103 -0.9108194581680419
13.1912109375 0.44601666544589985 -0.9116136490532806
13.192359375 0.44732142265396435 -0.9134805108658135
13.1935078125 0.44839456976506786 -0.9160504126510285
13.19465625 0.44263644745900943 -0.9217321628082257
13.1958046875 0.4400478214942296 -0.9242082063270971
13.196953125 0.43548760619659066 -0.9249464175773762
13.1981015625 0.4285250249699367 -0.9274426786913388
13.19925 0.4252084226729149 -0.9256622198819011
13.2003984375 0.41936051260982266 -0.9249001088449363
13.201546875 0.4166771135554611 -0.9233874665767103
13.2026953125 0.414689528740269 -0.9215972379863305
13.20384375 0.41118117235456964 -0.9202951490423703
13.2049921875 0.41265035175730147 -0.9126042242100489
13.206140625 0.4111852342451512 -0.9129427859123386
13.2072890625 0.4087946771701265 -0.9143655592651975
13.2084375 0.4126208456760003 -0.9134632547140469
13.2095859375 0.41030100382664725 -0.914852878425851
13.210734375 0.40857709117698426 -0.9142003093936331
13.2118828125 0.4095422914134743 -0.9113398242030089
13.21303125 0.4104505011463154 -0.9143655547479551
13.2141796875 0.4086907959277005 -0.9152687432163324
13.215328125 0.4093777327478666 -0.9163820977354297
13.2164765625 0.40494991216331 -0.91229114526105
13.217625 0.4091718400359242 -0.9140426489862469
13.2187734375 0.4098636138412637 -0.916662262209299
13.219921875 0.40435728134788484 -0.9189013888409656
13.2210703125 0.40827668491884916 -0.9259020124679662
13.22221875 0.40816311239036485 -0.9192323421452592
13.2233671875 0.4051795067216324 -0.9224022195757018
13.224515625 0.4069007414601711 -0.9239681674976064
13.2256640625 0.4086747908306769 -0.9251939247898451
13.2268125 0.39965666493819985 -0.9243273789129584
13.2279609375 0.4031584126575824 -0.9275059299623558
13.229109375 0.39691281937668266 -0.9246076172207728
13.2302578125 0.3972433337291617 -0.9295011523689463
13.23140625 0.3967862361251205 -0.932768422872698
13.2325546875 0.38787903839370363 -0.9355915301859631
13.233703125 0.39127706226986153 -0.9311200217600577
13.2348515625 0.38585586108686115 -0.9276917293393355
13.236 0.388997836409275 -0.9341757157787519
13.2371484375 0.38945109480370627 -0.9388073393033415
13.238296875 0.3834638242289631 -0.931638781503253
13.2394453125 0.3822906273036351 -0.9437542435558826
13.24059375 0.383247508378966 -0.9394204524182892
13.2417421875 0.3806623987374479 -0.9360014987750482
13.242890625 0.3745357513524613 -0.9402930636963066
13.2440390625 0.3803895868183147 -0.9453129652844343
13.2451875 0.3818264617973124 -0.9414703131939968
13.2463359375 0.3723227261215321 -0.9333472647048721
13.247484375 0.3698979728341096 -0.9278363643827627
13.2486328125 0.37518469453802095 -0.9295077332529418
13.24978125 0.3690819881560551 -0.9426772002386495
13.2509296875 0.36990552732653814 -0.9433030028744109
13.252078125 0.36730410928953583 -0.9381914264523419
13.2532265625 0.3711160814764144 -0.9485228806301744
13.254375 0.3624446070077739 -0.9381880181439404
13.2555234375 0.3652174712643098 -0.9414610892938542
13.256671875 0.3659161277402816 -0.9424016614853796
13.2578203125 0.36338369279805294 -0.9410864279084088
13.25896875 0.36363317374033555 -0.9407830929666002
13.2601171875 0.3619472521324404 -0.9422200935231094
13.261265625 0.3578674912334598 -0.934212597311228
13.2624140625 0.35922080442880644 -0.9473536749793918
13.2635625 0.3567197811004154 -0.9452152499917585
13.2647109375 0.35484167736654404 -0.9437357030241571
13.265859375 0.35600536813932016 -0.9454214760294755
13.2670078125 0.3515886758534159 -0.9523322637360069
13.26815625 0.3539107908478797 -0.9529240515664833
13.2693046875 0.3542343491502053 -0.9569742138237068
13.270453125 0.3484157910740268 -0.9584249071617226
13.2716015625 0.3460370742397753 -0.956652840677693
13.27275 0.34713277723726854 -0.957387952148228
13.2738984375 0.33858727506406966 -0.9588738949105834
13.275046875 0.3379364415471089 -0.9604269038993271
13.2761953125 0.3317200107473409 -0.9566775486004329
13.27734375 0.33143146039967 -0.9581072479814632
13.2784921875 0.3300833134250543 -0.9557055523549463
13.279640625 0.3304715255773767 -0.9564661529584979
13.2807890625 0.331386581951148 -0.956908365008559
13.2819375 0.32683314248546613 -0.9557254810085495
13.2830859375 0.32323286946816515 -0.9576961904268356
13.284234375 0.3222750971683758 -0.959090750761826
13.2853828125 0.32109800022746765 -0.9557815850532819
13.28653125 0.3210941012689209 -0.9583080547756496
13.2876796875 0.32025056085393633 -0.9589143997771659
13.288828125 0.31835402068387375 -0.9585476260215509
13.2899765625 0.3159132308286382 -0.953231884919996
13.291125 0.31618811805958824 -0.9571009285902722
13.2922734375 0.316762129133354 -0.9575182081299582
13.293421875 0.3096319865540587 -0.9588468809405116
13.2945703125 0.30830957316589513 -0.9571649341575243
13.29571875 0.30958642619484966 -0.9565460491377606
13.2968671875 0.3088689006005805 -0.9595526295610949
13.298015625 0.3126498933804276 -0.9602446879843991
13.2991640625 0.3086253252059753 -0.9645728711537889
13.3003125 0.30444621698830554 -0.9644275347333684
13.3014609375 0.3032092240968958 -0.9681348257408553
13.302609375 0.3001895191118428 -0.9690332673110653
13.3037578125 0.29714510249435466 -0.9639801715137636
13.30490625 0.2954382751705085 -0.9630974374673975
13.3060546875 0.2906865173614259 -0.9636528015982628
13.307203125 0.29038780291673094 -0.968963865037821
13.3083515625 0.29246709214177624 -0.9671988282097693
13.3095 0.2887900395747278 -0.9716821661270125
13.3106484375 0.2870716488625943 -0.9695478318641689
13.311796875 0.2828901509257794 -0.9696295116718833
13.3129453125 0.28154218255196733 -0.9700193585517483
13.31409375 0.2796728119046986 -0.9698946928165789
13.3152421875 0.27562069147569324 -0.9718629238828443
13.316390625 0.27574945509894 -0.974427433814221
13.3175390625 0.2709908435853392 -0.9738584142063668
13.3186875 0.2677269389454906 -0.9724733362492956
13.3198359375 0.26349086096502017 -0.9721704299324253
13.320984375 0.26248578172674575 -0.9738532118004175
13.3221328125 0.2606414529573392 -0.9744607522018478
13.32328125 0.25333459959447263 -0.9727274644320753
13.3244296875 0.2521652612725266 -0.9704428219116156
13.325578125 0.24981746509579206 -0.9695574846302634
13.3267265625 0.2467302268807493 -0.9693623136154192
13.327875 0.24620394942292245 -0.9672324959086368
13.3290234375 0.24446882811393789 -0.9655455881039913
13.330171875 0.24521380069172724 -0.9654066269930172
13.3313203125 0.24458444334096202 -0.9629423538203804
13.33246875 0.24447497220241382 -0.9630129304703267
13.3336171875 0.2456809935818592 -0.9636360843507519
13.334765625 0.24346811289598524 -0.9654643615994553
13.3359140625 0.24086234273533855 -0.9689584995061802
13.3370625 0.23928440692240904 -0.9693278088656212
13.3382109375 0.23595624379890937 -0.9706266863204993
13.339359375 0.23221066496444204 -0.9730893110439756
13.3405078125 0.22724238472233593 -0.9714631702192342
13.34165625 0.22329523299896958 -0.9688392259684622
13.3428046875 0.22021675608261887 -0.9676183642218079
13.343953125 0.21730932098271416 -0.9663997671660034
13.3451015625 0.2157885749621219 -0.966472032410593
13.34625 0.21313136685770206 -0.9603901771821121
13.3473984375 0.21295953536560358 -0.9632569573169939
13.348546875 0.21246658144622682 -0.9621016326680333
13.3496953125 0.21026544238511347 -0.9596922126889691
13.35084375 0.20954667684262412 -0.9586021171337544
13.3519921875 0.20870968274250445 -0.9576254516382456
13.353140625 0.20758665167775198 -0.9552821971031993
13.3542890625 0.20652316094192447 -0.9547432126849957
13.3554375 0.2039050519834082 -0.9557370143652504
13.3565859375 0.20028826784746695 -0.9526518762728802
13.357734375 0.20258350396295277 -0.9527027287199527
13.3588828125 0.20052894352842887 -0.9463146992375713
13.36003125 0.19933207655827123 -0.947118216785168
13.3611796875 0.19624018189276737 -0.9445894125054042
13.362328125 0.1967268570122418 -0.9400455278645621
13.3634765625 0.1979476370766402 -0.9441649169714252
13.364625 0.20024391442500222 -0.9412993960843128
13.3657734375 0.1967915417163396 -0.9434062280231543
13.366921875 0.1961730648360906 -0.9467336305395517
13.3680703125 0.19459842371227554 -0.9429870757884331
13.36921875 0.1911719904467779 -0.9459945177901807
13.3703671875 0.18896157386815815 -0.9374856197504983
13.371515625 0.18756759298935877 -0.9323941080210423
13.3726640625 0.18448530026640397 -0.9312954334898679
13.3738125 0.19111503900546134 -0.9273123123154946
13.3749609375 0.1943425983217918 -0.921496455700037
13.376109375 0.19644494311926336 -0.9166653203813819
13.3772578125 0.1999570273918071 -0.921385742501712
13.37840625 0.20436570021010536 -0.9206339438982368
13.3795546875 0.20424793010098274 -0.9241809399027384
13.380703125 0.20018161851736926 -0.9237427761099134
13.3818515625 0.20408699336417108 -0.9244685075858993
13.383 0.20310085801495537 -0.9205093171326576
13.3841484375 0.20675883589934285 -0.9224836800828587
13.385296875 0.2032287996258445 -0.9220825216867086
13.3864453125 0.20666053261519168 -0.9178635053125109
13.38759375 0.21286491449997846 -0.9146946360744025
13.3887421875 0.21542815224722422 -0.9117099283997523
13.389890625 0.21987393155528911 -0.9156658118220603
13.3910390625 0.22408970014504048 -0.9164465353398162
13.3921875 0.2269184952785519 -0.9158107334056426
13.3933359375 0.23371713830836705 -0.9234081986011273
13.394484375 0.23557901672081505 -0.9247075311900202
13.3956328125 0.24217414864942827 -0.9328710366657414
13.39678125 0.24307137425647696 -0.93503434337245
13.3979296875 0.2408660470952808 -0.9469207952402391
13.399078125 0.23779658920209906 -0.9530373081311152
13.4002265625 0.23812792678434103 -0.9534356241268633
13.401375 0.2288036264575332 -0.9581209612407185
13.4025234375 0.23215124079162058 -0.9635028964421488
13.403671875 0.23515109063300826 -0.9587178581963264
13.4048203125 0.23036667954206996 -0.9647542812571918
13.40596875 0.2234386178427087 -0.9625570835646742
13.4071171875 0.2276885037820149 -0.9661577703689671
13.408265625 0.22715824092093814 -0.9719228339469326
13.4094140625 0.22191338600213073 -0.9706103857561711
13.4105625 0.22279997846830163 -0.9783617249978697
13.4117109375 0.22572257112826438 -0.975895958669541
13.412859375 0.22181869434464255 -0.9773836193433201
13.4140078125 0.217800925297933 -0.9850805104463771
13.41515625 0.22011168087367844 -0.987173439237276
13.4163046875 0.21692872822625586 -0.9879542265453818
13.417453125 0.21387205313117708 -0.987113750273522
13.4186015625 0.21494865540834862 -0.9922164697781066
13.41975 0.20793616978739168 -0.9955253836109864
13.4208984375 0.21008191952941851 -0.9923460833617456
13.422046875 0.20717337564624383 -0.9973345207519748
13.4231953125 0.20178265923838065 -1.0015825194712435
13.42434375 0.20068687380094935 -1.0030846203428374
13.4254921875 0.19334303999388747 -1.0059199832572787
13.426640625 0.1962196761033943 -1.0159405680071945
13.4277890625 0.19647353093999786 -1.0230815698642046
13.4289375 0.1884614996376422 -1.0278282175270097
13.4300859375 0.17446407650751142 -1.0272478708124073
13.431234375 0.16790051403211165 -1.0176564095951752
13.4323828125 0.16612829082893296 -1.0080765420592495
13.43353125 0.16439036104760094 -1.0156021463039688
13.4346796875 0.1672908973245806 -1.0143427429493348
13.435828125 0.1700775222091518 -1.0128007095121327
13.4369765625 0.1701403482246046 -1.0185332607142168
13.438125 0.16558317856519134 -1.0219190926268542
13.4392734375 0.16499633282140574 -1.023539307418348
13.440421875 0.15228510407920098 -1.026766393735849
13.4415703125 0.15379844300452677 -1.0282148014216106
13.44271875 0.15077541787339654 -1.0329605717749337
13.4438671875 0.14446328911496786 -1.0271419417456835
13.445015625 0.13187749852820918 -1.0354193691291607
13.4461640625 0.13003082383983927 -1.0367097181091454
13.4473125 0.11907545878967413 -1.0292455228899855
13.4484609375 0.11660339689125954 -1.0237708413067188
13.449609375 0.11782829464933753 -1.02161126680463
13.4507578125 0.1122426453493105 -1.0166223372821173
13.45190625 0.11565784299268561 -1.0231124097664068
13.4530546875 0.10677517784429447 -1.0178601234306321
13.454203125 0.10873996134154745 -1.0177978329864437
13.4553515625 0.10418226969298244 -1.017028641447573
13.4565 0.1009165910860732 -1.0142974787937722
13.4576484375 0.10197085179118248 -1.013948595613014
13.458796875 0.09837003652344728 -1.0149432542085384
13.4599453125 0.09225837079176519 -1.0091183385016023
13.46109375 0.09452204973625533 -1.0099193051947069
13.4622421875 0.09241297740187027 -1.0024498612911912
13.463390625 0.09309560581253729 -0.9996777735610254
13.4645390625 0.09485446065695047 -1.008656789415707
13.4656875 0.09173604125195678 -1.009661707198166
13.4668359375 0.08874031815494643 -1.0075425496563994
13.467984375 0.0861645085032181 -1.0079827503299599
13.4691328125 0.08450008517915064 -1.0050036953534236
13.47028125 0.08414954513613959 -1.0040867212952247
13.4714296875 0.07972826857001225 -1.0021976917679938
13.472578125 0.07826148689969648 -0.997684017695694
13.4737265625 0.07876900265497111 -0.9997800820520826
13.474875 0.07920676806068244 -0.9978384128711312
13.4760234375 0.07555806400255183 -0.9969629223030732
13.477171875 0.071555680640975 -0.9939499618075495
13.4783203125 0.06756860996375924 -0.9940705439601357
13.47946875 0.06407597822705102 -0.9923416822178799
13.4806171875 0.06825003669841628 -0.9919712938546903
13.481765625 0.06522268849410423 -0.9900280761355849
13.4829140625 0.06487439252901028 -0.9879052480312921
13.4840625 0.06309987354645694 -0.9847492044884502
13.4852109375 0.06394191651037409 -0.9843870016067569
13.486359375 0.06342331683134811 -0.9839567552920312
13.4875078125 0.06373353226436015 -0.9836708000362206
13.48865625 0.06486975005098727 -0.980226326570486
13.4898046875 0.05808064924490958 -0.9800195706234525
13.490953125 0.05438061688673185 -0.9836773393484597
13.4921015625 0.05811877010048391 -0.9752168542440582
13.49325 0.05845908557323126 -0.9738228534764486
13.4943984375 0.061177612857477526 -0.9722443853836571
13.495546875 0.058942914616007036 -0.9722198349967022
13.4966953125 0.05946133453538016 -0.9728440195734953
13.49784375 0.06444639367710428 -0.9744019476813204
13.4989921875 0.0668385841108349 -0.9741939613518519
13.500140625 0.06841771956328088 -0.9739233974434175
13.5012890625 0.0695293705717021 -0.9726584059348085
13.5024375 0.07181692975865991 -0.977261885083126
13.5035859375 0.06593025437619578 -0.9788195377998319
13.504734375 0.06448336481105538 -0.9812517259798266
13.5058828125 0.06374713590035816 -0.9813421557112663
13.50703125 0.0637985636153983 -0.9855149086730342
13.5081796875 0.06158918014826098 -0.9868303653699304
13.509328125 0.057933956480878415 -0.9892098913171267
13.5104765625 0.05149489975499075 -0.9891073691762542
13.511625 0.05030708625874172 -0.9882769032307412
13.5127734375 0.047020559028045486 -0.9919188064320061
13.513921875 0.048413742116325896 -0.9881740501314534
13.5150703125 0.04862437643359399 -0.9845730306831326
13.51621875 0.049585870300139626 -0.9847669714201137
13.5173671875 0.05136415660203192 -0.9881068182186854
13.518515625 0.04644274520229277 -0.9894077260268976
13.5196640625 0.04991707256315117 -0.9863685191401961
13.5208125 0.04743819770765148 -0.9921290975769903
13.5219609375 0.0424840634457099 -0.9955322593541991
13.523109375 0.041231905921152764 -0.9930437541246638
13.5242578125 0.03866909780128246 -0.9948345893030337
13.52540625 0.03385236223035233 -0.9928258411570885
13.5265546875 0.03446980264464222 -0.9918296295414867
13.527703125 0.03468966267027873 -0.9895346460305132
13.5288515625 0.035205392556614534 -0.9891731039605806
13.53 0.028946860352403445 -0.9896626443532417
13.5311484375 0.029915884175493478 -0.9901515902942584
13.532296875 0.02399457496705619 -0.9854969810017231
13.5334453125 0.029718680046705817 -0.984753710753776
13.53459375 0.02676546313996951 -0.988225537503125
13.5357421875 0.031247975720480936 -0.9883400435321864
13.536890625 0.027937307254776972 -0.9886961186439929
13.5380390625 0.023915742484886926 -0.9840746580321695
13.5391875 0.02291560739854881 -0.9873539664892552
13.5403359375 0.02651948000006911 -0.9909966631956709
13.541484375 0.025510643435452784 -0.9885749145666223
13.5426328125 0.023322416326009343 -0.9904068445500926
13.54378125 0.02153841673201476 -0.9944488029747409
13.5449296875 0.017342205028200525 -0.9903666356289347
13.546078125 0.02078020718005491 -0.9925568729369479
13.5472265625 0.016739643298227302 -0.9904973525665768
13.548375 0.01378610099165925 -0.9866022812388616
13.5495234375 0.014863679015170078 -0.9876787085328522
13.550671875 0.01376409764800339 -0.9865620127683645
13.5518203125 0.013168705713004672 -0.9892161039140561
13.55296875 0.009468286984208818 -0.9855654928194244
13.5541171875 0.016876442004512895 -0.9897840803965804
13.555265625 0.01198862519117902 -0.9871504371716231
13.5564140625 0.003743967771931825 -0.985979564190389
13.5575625 0.00409074353490077 -0.9856257285954955
13.5587109375 0.01051478718998583 -0.9862196358828423
13.559859375 0.014015140626848388 -0.9854192275289364
13.5610078125 0.010508343451649527 -0.976765586604893
13.56215625 0.0078207813863444 -0.9778997746257039
13.5633046875 0.008393912933789577 -0.9850563063928204
13.564453125 0.01284042069532651 -0.9836110204671291
13.5656015625 0.01316781797110364 -0.9901212003635053
13.56675 0.012264538854860896 -0.9879511230651566
13.5678984375 0.013028740261987914 -0.9845206718057171
13.569046875 0.006726477835627909 -0.9866243005654803
13.5701953125 0.00662985625123641 -0.9950350146178298
13.57134375 -0.004527463050091052 -0.9941068538755804
13.5724921875 0.0047977524261035576 -0.9981877546858637
13.573640625 0.0011696911790068376 -1.000340848136653
13.5747890625 -0.011566274214748012 -0.9963714507030049
13.5759375 -0.006669776703003172 -0.9925836096263503
13.5770859375 -0.010278515809874489 -0.9992757464639455
13.578234375 -0.014694938241875566 -0.994233670465859
13.5793828125 -0.013117214552244905 -0.9900529541886436
13.58053125 -0.009376299037125835 -0.9903723989219057
13.5816796875 -0.014369912907598759 -0.9913531901177183
13.582828125 -0.00862692746946836 -0.9913083628524698
13.5839765625 -0.010207472573793647 -0.9911081359877323
13.585125 -0.01659557322447816 -0.9930732962843736
13.5862734375 -0.020161651245415135 -1.0001243801886357
13.587421875 -0.01933058721620995 -0.9982412338314657
13.5885703125 -0.018793147819184508 -1.001174685955409
13.58971875 -0.022184546893516233 -0.9976574511097454
13.5908671875 -0.023773580830881713 -0.9927625976355117
13.592015625 -0.023196795636735934 -0.9911439804976603
13.5931640625 -0.02361604236845627 -0.9959002679718314
13.5943125 -0.021489579657276187 -0.9981483770841055
13.5954609375 -0.023471292475534256 -0.9974121196769294
13.596609375 -0.027726251227153886 -0.998801927727288
13.5977578125 -0.029393114388199526 -1.00079736981759
13.59890625 -0.028378609183855374 -1.0024883509525258
13.6000546875 -0.029573562423788335 -1.0035250627973822
13.601203125 -0.030344615901436056 -1.0067722413596827
13.6023515625 -0.03597909253777806 -1.0064519541651276
13.6035 -0.040504998820418275 -1.0087264367104254
13.6046484375 -0.04278516184455411 -1.0112373729409319
13.605796875 -0.04784681534634716 -1.0093132003430965
13.6069453125 -0.046383891693181134 -1.008911302928834
13.60809375 -0.04403537510781386 -1.003722932166439
13.6092421875 -0.049125947988222285 -0.9999697034073469
13.610390625 -0.04787899582341254 -1.0053828093450767
13.6115390625 -0.04990130646879937 -1.0082510837499115
13.6126875 -0.050283632376939114 -1.0096875829643608
13.6138359375 -0.051532898910752356 -1.0091061427884869
13.614984375 -0.05697755916594238 -1.0057800753595263
13.6161328125 -0.05353143126892118 -1.0103435612154843
13.61728125 -0.05815941912407324 -1.011860358412059
13.6184296875 -0.06033854645922848 -1.0118785637834231
13.619578125 -0.05790037470378079 -1.0150613736088134
13.6207265625 -0.0628694491821345 -1.001018581306293
13.621875 -0.0689761480538022 -1.003050687841967
13.6230234375 -0.06521583347195392 -1.0055659680137161
13.624171875 -0.0653482193950859 -1.0073780528113967
13.6253203125 -0.07080839268273026 -1.0132601992785568
13.62646875 -0.07180057021282477 -1.0061377575872072
13.6276171875 -0.06693717909995578 -0.9963858302009576
13.628765625 -0.07056096207955886 -1.0041105375650383
13.6299140625 -0.07241265831170618 -1.0142103707738097
13.6310625 -0.07222288954558492 -1.00511060627757
13.6322109375 -0.07498391032908719 -1.0051292192400398
13.633359375 -0.07039411891686087 -1.0116851634569697
13.6345078125 -0.08942006655054069 -1.011741585023857
13.63565625 -0.08785330742434883 -1.0029804689654531
13.6368046875 -0.08499837897731771 -1.0008739443539008
13.637953125 -0.08713714157983798 -1.003197986137986
13.6391015625 -0.09349577366605677 -1.011185759437021
13.64025 -0.08799617826170797 -1.0023920469112295
13.6413984375 -0.08940732991919714 -0.9971657083668082
13.642546875 -0.08571586935356684 -0.9951240412990716
13.6436953125 -0.10185274693145446 -1.0016781785247533
13.64484375 -0.09220419364625554 -0.9949352242941281
13.6459921875 -0.08779020861496267 -0.9971931055986737
13.647140625 -0.09384878404638575 -1.0040245705636526
13.6482890625 -0.09931385588944497 -0.9958015765663975
13.6494375 -0.09802106775005348 -1.0019568536279937
13.6505859375 -0.10891719902199493 -0.9978512996200475
13.651734375 -0.0939955920488198 -0.9946294358898093
13.6528828125 -0.0971978942011098 -0.9964782924397861
13.65403125 -0.1067010636791429 -1.0022684527112826
13.6551796875 -0.10720662629932232 -0.9909013947596335
13.656328125 -0.1141406489254031 -0.9937187030719721
13.6574765625 -0.10773772015984495 -0.9944695776253013
13.658625 -0.1080131318631361 -1.000380537608989
13.6597734375 -0.09788517830209209 -0.9964120200272677
13.660921875 -0.10563155152587955 -0.9955859764817674
13.6620703125 -0.11940161645317127 -1.0007198710400929
13.66321875 -0.11425504207905801 -1.0002405289002783
13.6643671875 -0.11768539051260807 -0.9901280652453714
13.665515625 -0.11924309096365249 -0.9884673065464417
13.6666640625 -0.1186107159602805 -1.0024855935170933
13.6678125 -0.1199488789867561 -0.9979634786022349
13.6689609375 -0.11731167208930082 -0.9839505116955025
13.670109375 -0.1238903295085444 -0.9862367995187178
13.6712578125 -0.12818883964112748 -0.9879281580258997
13.67240625 -0.12880278128907485 -0.9979317847718606
13.6735546875 -0.1216837022798073 -1.0007974653740654
13.674703125 -0.1266569771765358 -0.98816301811404
13.6758515625 -0.12909370604651826 -1.0021097766407394
13.677 -0.1291045787082311 -1.0041156123386408
13.6781484375 -0.13595245787865617 -0.9990261063328063
13.679296875 -0.13838405884583316 -0.9980588306428478
13.6804453125 -0.13876068813118203 -0.9869421606882638
13.68159375 -0.1399631628525504 -0.991829378370197
13.6827421875 -0.1455256022411805 -0.9934274397896157
13.683890625 -0.1440108264466275 -0.9932007142632371
13.6850390625 -0.1401439142930363 -0.9920025154096543
13.6861875 -0.14407483268370336 -0.9992141061783171
13.6873359375 -0.14667699715849597 -0.9963160573419418
13.688484375 -0.14877250481112886 -0.9935110529082045
13.6896328125 -0.14992330495989803 -0.9989366116350185
13.69078125 -0.14521751817508655 -0.9975796996339021
13.6919296875 -0.1509819243365791 -0.9973978233984082
13.693078125 -0.15279451570406705 -0.9992750033737205
13.6942265625 -0.15370876176953624 -0.9994324284461844
13.695375 -0.14871606574520052 -0.9968918194705088
13.6965234375 -0.1560092297010372 -0.9992046276904147
13.697671875 -0.15730465843975916 -0.9956670761772064
13.6988203125 -0.158088727041784 -0.9958016827772216
13.69996875 -0.162519061567666 -1.0042833528179598
13.7011171875 -0.15945361779171313 -1.0013927020720947
13.702265625 -0.16241236139036108 -1.0028724967705887
13.7034140625 -0.16573897716307118 -1.0009523906337678
13.7045625 -0.17023326380692028 -0.9990033315700468
13.7057109375 -0.169762894813537 -1.0012978477180878
13.706859375 -0.17144867551029708 -0.9998323277797121
13.7080078125 -0.17265280643018005 -1.0026603265969678
13.70915625 -0.17482283605878618 -0.999208719398939
13.7103046875 -0.1746706781986543 -0.9938173640912462
13.711453125 -0.17609597817052175 -1.000724997040344
13.7126015625 -0.17468067993499675 -1.0041426245896268
13.71375 -0.17942995016875773 -0.998446080107191
13.7148984375 -0.17916627436605959 -0.9970984426945776
13.716046875 -0.1809788325456585 -0.9948595963875213
13.7171953125 -0.18417804333042054 -0.9977590871302471
13.71834375 -0.18820667586574988 -0.9982214350473868
13.7194921875 -0.18916444757029227 -0.9976673715687473
13.720640625 -0.19207188978934264 -0.9944561420143294
13.7217890625 -0.19302065121175846 -0.9992590777907078
13.7229375 -0.19545962446482434 -0.9938093658593748
13.7240859375 -0.19741060096828564 -0.9897054458653394
13.725234375 -0.19431247890546122 -0.989666440891547
13.7263828125 -0.19602906812069115 -0.9958925143594571
13.72753125 -0.1960709431985363 -0.9904656728675159
13.7286796875 -0.2004443925457626 -0.9912804785476476
13.729828125 -0.20166479965855036 -0.9936585514887508
13.7309765625 -0.20249942764646367 -0.9958762256199603
13.732125 -0.20465811071910567 -0.9973008949126472
13.7332734375 -0.21072039643968546 -0.9938482047599325
13.734421875 -0.20481099457570062 -0.9945449215484499
13.7355703125 -0.20592027568208698 -0.9943162978245976
13.73671875 -0.20928733818402356 -0.9934404549243552
13.7378671875 -0.21413775193983867 -0.9936154439955642
13.739015625 -0.2171404886195239 -0.9984235522311934
13.7401640625 -0.2271983822148011 -0.9951011672445289
13.7413125 -0.222499358519059 -0.9968821360633158
13.7424609375 -0.22690232379547512 -0.9969334105608575
13.743609375 -0.2272425955648753 -0.9955576307048165
13.7447578125 -0.233421524056671 -0.9967020317362241
13.74590625 -0.23807781552908414 -0.9898449614504596
13.7470546875 -0.24163937621828552 -0.9897294895700738
13.748203125 -0.24581509832477066 -0.9891522274685616
13.7493515625 -0.24512905722560863 -0.9863212384331073
13.7505 -0.24338346586742324 -0.9802532050344266
13.7516484375 -0.24808017994510123 -0.9807408342574201
13.752796875 -0.24909017457655241 -0.977909683919669
13.7539453125 -0.25050560358068535 -0.9761092339537942
13.75509375 -0.25626957787242144 -0.9760234754621419
13.7562421875 -0.25496656396608347 -0.9717813281749474
13.757390625 -0.2586039708611285 -0.9676879690888269
13.7585390625 -0.25545480830389344 -0.9683513747740413
13.7596875 -0.2546166258061448 -0.9636431504089069
13.7608359375 -0.25511260685194065 -0.9600446456661664
13.761984375 -0.2597100644054814 -0.9647658460554593
13.7631328125 -0.25645961904490755 -0.9615222621333203
13.76428125 -0.254106308062254 -0.9558503856196245
13.7654296875 -0.25366461078232594 -0.9610825901048806
13.766578125 -0.2585194625300691 -0.9645024206167228
13.7677265625 -0.2573095595884392 -0.9622844263208022
13.768875 -0.25926678148222476 -0.9589191095780438
13.7700234375 -0.26178093063310665 -0.9608237024191103
13.771171875 -0.2605330119754517 -0.960019204414374
13.7723203125 -0.2640370378169259 -0.9547704508725522
13.77346875 -0.26275898983409485 -0.9578834912360458
13.7746171875 -0.2717070991351644 -0.9537661681168698
13.775765625 -0.2672989801663078 -0.9537632409579274
13.7769140625 -0.2697814852805037 -0.9498129762224791
13.7780625 -0.26546817603130674 -0.9523864023624624
13.7792109375 -0.26554001321297477 -0.9502346019391928
13.780359375 -0.26646696102094913 -0.9569997225598528
13.7815078125 -0.26847401642623875 -0.9414242244015357
13.78265625 -0.2626195621469255 -0.9409519402912442
13.7838046875 -0.26707541575403926 -0.9472054243982526
13.784953125 -0.26605388820333953 -0.9471628394572228
13.7861015625 -0.269395697362231 -0.9484158928370957
13.78725 -0.272928055536959 -0.9455530319292091
13.7883984375 -0.2727895538158863 -0.9510093420510799
13.789546875 -0.2624394387145454 -0.9410460873113886
13.7906953125 -0.2694996967137675 -0.9446381927698471
13.79184375 -0.260335357664084 -0.9404343487616859
13.7929921875 -0.26667989122146607 -0.9449254030252938
13.794140625 -0.26582548473075607 -0.9415942588823415
13.7952890625 -0.26327113955153475 -0.9438328823774074
13.7964375 -0.2647038588796232 -0.9454269020590389
13.7975859375 -0.2680893581749435 -0.9502979957070572
13.798734375 -0.2756058267648812 -0.9449270481098104
13.7998828125 -0.27229711378969634 -0.9430892814856946
13.80103125 -0.2748350503720378 -0.9516282410773068
13.8021796875 -0.2738369925692641 -0.9494686903949774
13.803328125 -0.2754832461981611 -0.9418714384941859
13.8044765625 -0.27560121135742355 -0.9403169247619183
13.805625 -0.27784782196795277 -0.9398927631586579
13.8067734375 -0.27937024819281464 -0.9468958181951677
13.807921875 -0.28123436313702477 -0.9438575972760472
13.8090703125 -0.27733647213012436 -0.9381246977804455
13.81021875 -0.2765285651136251 -0.9428870024657685
13.8113671875 -0.2781281881990977 -0.9333536604905237
13.812515625 -0.2797150104976296 -0.9379389512630383
13.8136640625 -0.28614217808122266 -0.9374768842115111
13.8148125 -0.28527652789064817 -0.9386966737547446
13.8159609375 -0.28261514606978244 -0.9397454076702156
13.817109375 -0.2872519436788863 -0.9316859851991635
13.8182578125 -0.28742309597092397 -0.9352943436879346
13.81940625 -0.28986130449991687 -0.9393095574963702
13.8205546875 -0.29356558402209765 -0.9349550077117615
13.821703125 -0.29021758148633986 -0.9342629157519318
13.8228515625 -0.2884492638287472 -0.926162406552502
13.824 -0.2826731336455828 -0.9308983376971429
13.8251484375 -0.28412848662996176 -0.9247497338977111
13.826296875 -0.2879602700020862 -0.9280902885925975
13.8274453125 -0.28895498160274263 -0.930315138111073
13.82859375 -0.2877675769702086 -0.9291740974827882
13.8297421875 -0.2835565368694762 -0.9327623831440266
13.830890625 -0.28547563418325034 -0.9343157693143169
13.8320390625 -0.2884605542464528 -0.930467139716967
13.8331875 -0.29123949776813446 -0.9364988585536886
13.8343359375 -0.2956642944991523 -0.9327760961433942
13.835484375 -0.2929916421030293 -0.9313371961716483
13.8366328125 -0.29655201141685017 -0.9385750681424665
13.83778125 -0.297492130142765 -0.9387240890471871
13.8389296875 -0.29287115846491707 -0.9373646490917654
13.840078125 -0.2982624065371894 -0.9349983762756011
13.8412265625 -0.29904844392584834 -0.9330073757988224
13.842375 -0.2956370467860052 -0.9377737097307013
13.8435234375 -0.2955808236527345 -0.9435440185926004
13.844671875 -0.300066363026828 -0.9449603427645452
13.8458203125 -0.29954371034649174 -0.9460966701189197
13.84696875 -0.30381426546249224 -0.9431783431888007
13.8481171875 -0.3052151283295942 -0.9454121874903211
13.849265625 -0.30409213799528567 -0.9472270014672408
13.8504140625 -0.30850822102736675 -0.9469794805137103
13.8515625 -0.31415162107181627 -0.9509301825027616
13.8527109375 -0.3149628927809076 -0.9465133090917258
13.853859375 -0.3135857038069304 -0.947040399135493
13.8550078125 -0.31436010981405793 -0.9500041959021057
13.85615625 -0.3139954843440476 -0.9476262021184326
13.8573046875 -0.3162281638138125 -0.9521533921112969
13.858453125 -0.3244895206500814 -0.9478758359532684
13.8596015625 -0.32318390655880147 -0.9445543001336615
13.86075 -0.3261551920708803 -0.9488560144700692
13.8618984375 -0.32331259865804673 -0.951014522479641
13.863046875 -0.32708642821359857 -0.9468002263664551
13.8641953125 -0.3295224136701433 -0.9463454815581449
13.86534375 -0.32738399376581206 -0.9475798029627722
13.8664921875 -0.3306895329562721 -0.9473216726328246
13.867640625 -0.32928834121646566 -0.9521854221243526
13.8687890625 -0.32786511337817026 -0.948320483049542
13.8699375 -0.329657047814298 -0.9550272206900805
13.8710859375 -0.33700416504171005 -0.9540574665616868
13.872234375 -0.3385006265735043 -0.9535126512956215
13.8733828125 -0.3400218189464149 -0.949977587923853
13.87453125 -0.3392079239306235 -0.9534070515408629
13.8756796875 -0.33921439786152574 -0.9506480721009125
13.876828125 -0.34411439182958975 -0.9547229876475603
13.8779765625 -0.34528704794337317 -0.9538085185549331
13.879125 -0.3459539560693215 -0.959779846584305
13.8802734375 -0.3481954950671803 -0.961900830631889
13.881421875 -0.348655743837303 -0.9590400737240814
13.8825703125 -0.35515470817752043 -0.9520255606975376
13.88371875 -0.3593954277343929 -0.9542215812249397
13.8848671875 -0.3560916695508783 -0.9538387951054226
13.886015625 -0.36085269911881174 -0.9542066325947655
13.8871640625 -0.3611679303772675 -0.9584403669433554
13.8883125 -0.3661518436096487 -0.9529305286498532
13.8894609375 -0.36756956974142313 -0.9515808297542742
13.890609375 -0.3702334580410886 -0.9541281429525872
13.8917578125 -0.3730779520305436 -0.9513860731333551
13.89290625 -0.37096252970661436 -0.950208169275996
13.8940546875 -0.37767870772194134 -0.9498112891526511
13.895203125 -0.3777261834692861 -0.9497514426779217
13.8963515625 -0.3767838862372911 -0.9509289878910638
13.8975 -0.3825973167011165 -0.9498001141453151
13.8986484375 -0.3867276856915071 -0.9482665118895175
13.899796875 -0.38857646471188045 -0.9475905832706283
13.9009453125 -0.391093671835141 -0.9490230188378764
13.90209375 -0.3917303184747809 -0.9475168093974231
13.9032421875 -0.3960935522946137 -0.9459458484291483
13.904390625 -0.40085227579286986 -0.9448778024758044
13.9055390625 -0.4017667393945847 -0.9429464624613861
13.9066875 -0.40408271453160094 -0.9417735199037391
13.9078359375 -0.40228276320590184 -0.9384636657370282
13.908984375 -0.402642352821898 -0.9350760459875456
13.9101328125 -0.4052204896352918 -0.9397030151175012
13.91128125 -0.40834888927580726 -0.9374619834198346
13.9124296875 -0.40938028372820856 -0.9346695122431372
13.913578125 -0.4101767775348263 -0.936810986958182
13.9147265625 -0.41098744705399126 -0.9352004770282478
13.915875 -0.40811510550673935 -0.9355536994341258
13.9170234375 -0.41332487591852296 -0.9313112783366622
13.918171875 -0.41357074025953117 -0.9306990365390114
13.9193203125 -0.41132864735933516 -0.9330912252893981
13.92046875 -0.41268620723845295 -0.9362771066378509
13.9216171875 -0.416191680938668 -0.9345865800446391
13.922765625 -0.4197589101435003 -0.9339818577307104
13.9239140625 -0.4184982044066391 -0.9340875845766808
13.9250625 -0.41678399029896995 -0.9305589811574945
13.9262109375 -0.4178426051570181 -0.9346248958770716
13.927359375 -0.41841716714118005 -0.9375833986262967
13.9285078125 -0.4216844688688126 -0.937487960860015
13.92965625 -0.42476490187963095 -0.9385003560890923
13.9308046875 -0.42329836459463666 -0.9410789285500333
13.931953125 -0.42851542097200457 -0.9446768264313997
13.9331015625 -0.43280060855789615 -0.943664366829869
13.93425 -0.43671055573327616 -0.9469685924282015
13.9353984375 -0.44237603613212534 -0.9467786727580417
13.936546875 -0.44116926373575516 -0.9406000190842785
13.9376953125 -0.4469386421146967 -0.9429724119964018
13.93884375 -0.4503910291468099 -0.9443742926031655
13.9399921875 -0.45419603966106703 -0.947449494154031
13.941140625 -0.4612629348475331 -0.9443077111926286
13.9422890625 -0.46672903992175463 -0.9355069487317311
13.9434375 -0.46587945558972776 -0.9404366662245476
13.9445859375 -0.4683411421011717 -0.9363298360141514
13.945734375 -0.4715402951902128 -0.9301482145570141
13.9468828125 -0.47014648313181473 -0.9334483828760997
13.94803125 -0.47893334246764985 -0.9242269267162503
13.9491796875 -0.4813386118617268 -0.9303312541705258
13.950328125 -0.4821105711771636 -0.9250495747162217
13.9514765625 -0.48661248903579546 -0.9252100843034865
13.952625 -0.49282325278583117 -0.9239188877656923
13.9537734375 -0.4958288835367433 -0.9205696302229338
13.954921875 -0.49724692774091783 -0.9143958102074086
13.9560703125 -0.4983010437030705 -0.9089561207230221
13.95721875 -0.5043488664076722 -0.9096375375092187
13.9583671875 -0.5039211476882738 -0.9073571042535538
13.959515625 -0.5082936355787245 -0.9014652779399384
13.9606640625 -0.5106000040060488 -0.9013446185124665
13.9618125 -0.5125434799447617 -0.8955598245617584
13.9629609375 -0.5184373224492892 -0.8922689956326333
13.964109375 -0.5210617100247658 -0.8859531679582083
13.9652578125 -0.517713513767918 -0.8796571201709927
13.96640625 -0.5186469803266225 -0.8689441892376867
13.9675546875 -0.5154372914925683 -0.866132277921079
13.968703125 -0.5127769557119095 -0.8624798912995161
13.9698515625 -0.5117490451220869 -0.8629988286668865
13.971 -0.5099303960075324 -0.8540758658775874
13.9721484375 -0.5151693507163638 -0.8547405757127002
13.973296875 -0.5155877692184908 -0.848485840846983
13.9744453125 -0.5116378769149456 -0.8492839307665735
13.97559375 -0.5083363570254108 -0.8476897318291413
13.9767421875 -0.5049722832467812 -0.8405399529450805
13.977890625 -0.5092520113899685 -0.8368226866867328
13.9790390625 -0.5016394664599456 -0.834585384343829
13.9801875 -0.4997004247110609 -0.8323141219532422
13.9813359375 -0.4967031761415619 -0.8277904257741441
13.982484375 -0.4904948688965881 -0.8252796423857232
13.9836328125 -0.4878478724703177 -0.8239917203722869
13.98478125 -0.492979786267027 -0.8242479597771921
13.9859296875 -0.48271263904211836 -0.8200485223507259
13.987078125 -0.4820485170215906 -0.8176344991341269
13.9882265625 -0.4742424429925577 -0.8191399705163612
13.989375 -0.4676766531946922 -0.8237403252900235
13.9905234375 -0.4633264573597707 -0.8227391880916706
13.991671875 -0.4538082564401922 -0.8284049161135272
13.9928203125 -0.45238460660098034 -0.8301280548904844
13.99396875 -0.4491832979078041 -0.827891321775224
13.9951171875 -0.4477903201082529 -0.8389641925497213
13.996265625 -0.44164506496475175 -0.8437060119033722
13.9974140625 -0.44647253193146813 -0.8481866391481223
13.9985625 -0.4418070763012415 -0.85163275970925
13.9997109375 -0.44207213775116205 -0.8576740273490593
14.000859375 -0.44405073096388364 -0.8628496535140361
14.0020078125 -0.4407096722180352 -0.8664000468854377
14.00315625 -0.4459474980903137 -0.8750084695271274
14.0043046875 -0.44569043184009305 -0.8817480467445483
14.005453125 -0.4442627053958393 -0.8786112259894063
14.0066015625 -0.4430315432100437 -0.8848735867753683
14.00775 -0.4415215616826953 -0.8932296828881361
14.0088984375 -0.4444427788789302 -0.9061280764873156
14.010046875 -0.4543380128892048 -0.916059526788672
14.0111953125 -0.46170971090256463 -0.9205208761209213
14.01234375 -0.4728645630299028 -0.9201246166828091
14.0134921875 -0.48127931009211483 -0.9210063153169614
14.014640625 -0.48804118402672036 -0.9254032368754135
14.0157890625 -0.4932021375191388 -0.9223057934906919
14.0169375 -0.504867701731981 -0.9278270201952014
14.0180859375 -0.5120645398093836 -0.9305124138479783
14.019234375 -0.5228654004303326 -0.9274548924077348
14.0203828125 -0.5342999415192016 -0.9200543348036978
14.02153125 -0.5350374959074296 -0.9133242503889425
14.0226796875 -0.5400238499060486 -0.909546760647699
14.023828125 -0.545051732453922 -0.9035934923701865
14.0249765625 -0.5459443998403144 -0.8990475021225822
14.026125 -0.5468201894845466 -0.8929970812093174
14.0272734375 -0.5462120229666247 -0.8927471809025092
14.028421875 -0.5453552904106939 -0.8896266598637754
14.0295703125 -0.5452447846247523 -0.8938526781651024
14.03071875 -0.5483083922741471 -0.8932814339451611
14.0318671875 -0.5534751960760373 -0.8930812250666206
14.033015625 -0.556823003114617 -0.8989597052684091
14.0341640625 -0.5587760962239532 -0.8921926004984954
14.0353125 -0.5603525870561166 -0.8899437872215332
14.0364609375 -0.5659053987571042 -0.8873242736261313
14.037609375 -0.5654462290480298 -0.8856548229002856
14.0387578125 -0.5648603066061347 -0.8887582322526133
14.03990625 -0.5798278537015432 -0.8899955583412515
14.0410546875 -0.578322245646254 -0.8904087170137716
14.042203125 -0.5829376112349678 -0.8909178449359276
14.0433515625 -0.5868305269624318 -0.8859962614449396
14.0445 -0.5924401866147222 -0.8846127013863455
14.0456484375 -0.5902845639538465 -0.8791037765039414
14.046796875 -0.5950916698202202 -0.873298728422189
14.0479453125 -0.5902759707413636 -0.8714241385918367
14.04909375 -0.5878293522792788 -0.8635583869343296
14.0502421875 -0.5948729512349812 -0.8734487213410193
14.051390625 -0.588191617089886 -0.8726634572199847
14.0525390625 -0.5950940757109884 -0.8637042333106957
14.0536875 -0.6020252975274554 -0.8718772516464608
14.0548359375 -0.6108795214936027 -0.8641090467760311
14.055984375 -0.6088635118756331 -0.8584904310906228
14.0571328125 -0.6147954749067827 -0.864716123724969
14.05828125 -0.6177825227987422 -0.8558591311929209
14.0594296875 -0.6175503421916114 -0.849552476702344
14.060578125 -0.6194773810665855 -0.84050610643185
14.0617265625 -0.6188842368454501 -0.8429161914442024
14.062875 -0.6150416828246998 -0.8358470649724095
14.0640234375 -0.6180369197586681 -0.8352380202408847
14.065171875 -0.6143104322781097 -0.8357576597340093
14.0663203125 -0.6128797674141424 -0.8310844020009285
14.06746875 -0.6124451586780792 -0.8335412691957289
14.0686171875 -0.6170024309128915 -0.833537324045075
14.069765625 -0.620206247838243 -0.8266976146172408
14.0709140625 -0.6214499229796481 -0.8263040652521169
14.0720625 -0.6215189080065873 -0.8295818094443252
14.0732109375 -0.6194725574828974 -0.8306053725187825
14.074359375 -0.6261915247578614 -0.8252877469423515
14.0755078125 -0.6298216124241842 -0.8197302510678711
14.07665625 -0.6302606125755226 -0.8150615741554874
14.0778046875 -0.6299224365998521 -0.8100129095001297
14.078953125 -0.6298645884482313 -0.8037274698260772
14.0801015625 -0.6203531418542161 -0.8012196744468286
14.08125 -0.625904837484449 -0.8003662157346382
14.0823984375 -0.6246424706370098 -0.8051392766590697
14.083546875 -0.621182635959274 -0.8014767476156592
14.0846953125 -0.6219611452241471 -0.7979508287390671
14.08584375 -0.6198041709758338 -0.803663068463002
14.0869921875 -0.6195502598751903 -0.8000885168925628
14.088140625 -0.6223970698358263 -0.7990758089377029
14.0892890625 -0.6229947245074274 -0.7976998032530827
14.0904375 -0.6228994762100524 -0.8019022045059898
14.0915859375 -0.6252533053709378 -0.7992130765143527
14.092734375 -0.6269889818586196 -0.7998743503634818
14.0938828125 -0.6267548748531075 -0.7984704339490568
14.09503125 -0.6284134468767169 -0.7937783750991341
14.0961796875 -0.6312510676603921 -0.790145127604448
14.097328125 -0.6275713409716479 -0.7906932627930358
14.0984765625 -0.625896015898373 -0.7863898751043963
14.099625 -0.6225563597994189 -0.7825995318509471
14.1007734375 -0.6194210993901168 -0.7825191836899683
14.101921875 -0.6183159885126746 -0.7784338765569387
14.1030703125 -0.6162423829681365 -0.77801378783698
14.10421875 -0.6141275535449842 -0.7778380590344258
14.1053671875 -0.6116263564189584 -0.7826420835288592
14.106515625 -0.6100794231159027 -0.7864032094340774
14.1076640625 -0.6104083862928071 -0.7870270537131835
14.1088125 -0.6093123105057955 -0.7901309582728986
14.1099609375 -0.6128577691913313 -0.791902296934997
14.111109375 -0.612896474235757 -0.7923745327028249
14.1122578125 -0.6150587368955401 -0.7923944830170055
14.11340625 -0.6179082118406607 -0.7964389694994822
14.1145546875 -0.6181991950144871 -0.7972835450694529
14.115703125 -0.6203831951546261 -0.7992666582626775
14.1168515625 -0.6218820122788782 -0.798475072330314
14.118 -0.6213917884393795 -0.7984157625416
14.1191484375 -0.6220436648117015 -0.7937921251029082
14.120296875 -0.6276372517954447 -0.7964058872164583
14.1214453125 -0.6271215328040503 -0.7929620216393749
14.12259375 -0.6268276348886546 -0.7944720882232079
14.1237421875 -0.628183967950244 -0.7971211671842885
14.124890625 -0.6264137794862057 -0.7983488757852493
14.1260390625 -0.6256903742663225 -0.7993001345851828
14.1271875 -0.6305667330461706 -0.8026950670340482
14.1283359375 -0.6264479882453076 -0.8040212291045408
14.129484375 -0.6315956585015828 -0.8016911340822952
14.1306328125 -0.636105965658563 -0.7986688413271545
14.13178125 -0.632008861218097 -0.8044984415585144
14.1329296875 -0.635009594816996 -0.8030797204608104
14.134078125 -0.6338759239466567 -0.805808196301964
14.1352265625 -0.632410245478638 -0.8126056162295281
14.136375 -0.6387996308476341 -0.8109946165667019
14.1375234375 -0.6376257170997361 -0.8164990471618625
14.138671875 -0.640613135443346 -0.8195800621216083
14.1398203125 -0.6478825084036653 -0.8230388251769023
14.14096875 -0.6552147400168473 -0.8199991721102138
14.1421171875 -0.6608957982318455 -0.8226279164270898
14.143265625 -0.6622638925222255 -0.8191119131095671
14.1444140625 -0.6658063573217136 -0.81521018289671
14.1455625 -0.671759072499407 -0.8158813534895983
14.1467109375 -0.6660302107033529 -0.815995337376241
14.147859375 -0.6646072703828532 -0.8138722991464519
14.1490078125 -0.6712334100790996 -0.8151396203578036
14.15015625 -0.6781855074495999 -0.8203685877266967
14.1513046875 -0.6757655870562316 -0.821300188815494
14.152453125 -0.6757121828070289 -0.8230920612209248
14.1536015625 -0.6829045975171772 -0.8241661546357385
14.15475 -0.6883171510429662 -0.8313384468315244
14.1558984375 -0.6966195809290996 -0.8264224931534063
14.157046875 -0.7019493431570647 -0.8340370492438167
14.1581953125 -0.7078063737709521 -0.825372150340194
14.15934375 -0.7116864929125719 -0.8222197003079185
14.1604921875 -0.7144367798416861 -0.8164636470252368
14.161640625 -0.7170538336198278 -0.8157431315803362
14.1627890625 -0.715177968592571 -0.821795607328471
14.1639375 -0.7172469250281139 -0.814413183374037
14.1650859375 -0.7261672089781226 -0.8205785971158269
14.166234375 -0.7351972869930118 -0.8233958664514182
14.1673828125 -0.7434759638213909 -0.8186653483136903
14.16853125 -0.7507228932405529 -0.8139482870109969
14.1696796875 -0.7561586415793394 -0.8087189303002043
14.170828125 -0.7606731782597419 -0.8039021250883625
14.1719765625 -0.7673468760815308 -0.7980941829655364
14.173125 -0.7696327935144577 -0.7907583565108393
14.1742734375 -0.7736200738711634 -0.7827011760844415
14.175421875 -0.7773998240374311 -0.774605968626976
14.1765703125 -0.7765305642487556 -0.7670587942017024
14.17771875 -0.779769147377434 -0.7606847584177081
14.1788671875 -0.7808835438278476 -0.752358605556446
14.180015625 -0.782749763443789 -0.7463605063053187
14.1811640625 -0.7793653509993159 -0.7388225668973303
14.1823125 -0.7781547155534341 -0.7339443309151569
14.1834609375 -0.776254431239134 -0.729944527509907
14.184609375 -0.7755920068010513 -0.7237368356162324
14.1857578125 -0.772764939095274 -0.7213712796982139
14.18690625 -0.7721548177380495 -0.7156839444218348
14.1880546875 -0.7694970337058833 -0.7167618819916897
14.189203125 -0.7662205271977635 -0.7159197495487136
14.1903515625 -0.7646879467900223 -0.7150972484798754
14.1915 -0.7639467234123938 -0.7089681217523417
14.1926484375 -0.7623055786833652 -0.7061590244649472
14.193796875 -0.7602379948848075 -0.7010131360387554
14.1949453125 -0.7590078668934995 -0.7005468593172087
14.19609375 -0.7589519804502907 -0.6941372003005872
14.1972421875 -0.7572887327405595 -0.695909115903008
14.198390625 -0.7534289884604307 -0.6937741938276228
14.1995390625 -0.7504791280016803 -0.6914571148800588
14.2006875 -0.7523623604656916 -0.6945334885184135
14.2018359375 -0.7517364930025279 -0.6953857714910565
14.202984375 -0.7517742166025532 -0.6982098044222699
14.2041328125 -0.7523031586678632 -0.69956399348074
14.20528125 -0.7515179306082813 -0.6976040405475701
14.2064296875 -0.7464540780814768 -0.6976018964578213
14.207578125 -0.7484465399952862 -0.6978704318240606
14.2087265625 -0.7498224731628909 -0.7011999153005084
14.209875 -0.7477454209537847 -0.7043004767146956
14.2110234375 -0.7500812422509581 -0.7091449850934928
14.212171875 -0.7473358418981817 -0.7057434312292378
14.2133203125 -0.7475179278186164 -0.7126638318903892
14.21446875 -0.7510734974128714 -0.7164419977758877
14.2156171875 -0.7543261881094567 -0.7185263220776548
14.216765625 -0.7561803527170814 -0.721623012959248
14.2179140625 -0.7608611477387563 -0.7232985232204332
14.2190625 -0.75840038121024 -0.728450748043248
14.2202109375 -0.7585777238351727 -0.7304473946763225
14.221359375 -0.7623113740939296 -0.7295356496736758
14.2225078125 -0.7635528572957387 -0.7358085962322282
14.22365625 -0.7625342588761186 -0.7399783813680114
14.2248046875 -0.7661852126967111 -0.7476379727118246
14.225953125 -0.7752330242552239 -0.7514168588935519
14.2271015625 -0.7814343775828119 -0.7550583286143625
14.22825 -0.7921970153392719 -0.7562964903696202
14.2293984375 -0.8072247732649289 -0.7573732123904815
14.230546875 -0.8068065867866107 -0.7532481390447214
14.2316953125 -0.8163075651360889 -0.7526833860515907
14.23284375 -0.8242371951648315 -0.747448506094069
14.2339921875 -0.8299517695266044 -0.7512795737458954
14.235140625 -0.8370569077700967 -0.7493402111655848
14.2362890625 -0.8386942855162495 -0.744065867154664
14.2374375 -0.8394310340744082 -0.7403248547954935
14.2385859375 -0.8519074849304769 -0.7432334726050911
14.239734375 -0.8530367766823053 -0.744304850303992
14.2408828125 -0.8609193515751656 -0.7377722429684277
14.24203125 -0.8655064414470014 -0.7437267084035182
14.2431796875 -0.8772038896088495 -0.7348657012050863
14.244328125 -0.8899584666493691 -0.7267198023110993
14.2454765625 -0.8986156875376892 -0.7341874150356901
14.246625 -0.8967199277086958 -0.72945331752469
14.2477734375 -0.9060321025469903 -0.7286170860955967
14.248921875 -0.9133235500461332 -0.7297364167079297
14.2500703125 -0.9140658644217142 -0.7273485598984664
14.25121875 -0.933702380197648 -0.7295970580330384
14.2523671875 -0.9389402782291866 -0.7064989906981047
14.253515625 -0.9364173487934806 -0.7013444365796341
14.2546640625 -0.9584192453417965 -0.7002587814022089
14.2558125 -0.9659065871790866 -0.6896547926642832
14.2569609375 -0.9683746629339276 -0.6736790882712148
14.258109375 -0.9766870964982713 -0.6592096094603455
14.2592578125 -0.9693696040272398 -0.6631101964764654
14.26040625 -0.9741368421267174 -0.6369254671911229
14.2615546875 -0.97683132294403 -0.6338086424156556
14.262703125 -0.9724580658292646 -0.6212030624826039
14.2638515625 -0.9829900615328624 -0.6115765637601341
14.265 -0.9825001966985901 -0.6067971905363867
14.2661484375 -0.982299552670016 -0.6140962761855209
14.267296875 -0.9871601618715283 -0.5923824818859902
14.2684453125 -0.9892259241555232 -0.5847354972083614
14.26959375 -0.9873173732049585 -0.581401150685261
14.2707421875 -0.9917364429224378 -0.5787019138584839
14.271890625 -0.9874889982149699 -0.5547178311490542
14.2730390625 -0.9801062415787071 -0.5514650535645284
14.2741875 -0.9739619082650631 -0.547214710000753
14.2753359375 -0.9781042521596394 -0.5413169798550607
14.276484375 -0.9755784181036217 -0.5268279940756748
14.2776328125 -0.9782427805205605 -0.519098102020215
14.27878125 -0.9728395148983633 -0.5145499905867496
14.2799296875 -0.9707977705268722 -0.4982562343300353
14.281078125 -0.9735678372439324 -0.49744002377216906
14.2822265625 -0.9605602065839622 -0.49019332365968066
14.283375 -0.958252154177274 -0.4818929613494546
14.2845234375 -0.9504834731946474 -0.4812463443955828
14.285671875 -0.9510000684850309 -0.47626423649771477
14.2868203125 -0.9464446290811371 -0.4756185599210946
14.28796875 -0.940410142110553 -0.4647675010946878
14.2891171875 -0.9293215896401653 -0.459877141826017
14.290265625 -0.9319067533669566 -0.45694778477821985
14.2914140625 -0.9326181562224239 -0.4530850697739418
14.2925625 -0.9316039761650158 -0.4423550945815802
14.2937109375 -0.9288639599878887 -0.44021579421513846
14.294859375 -0.9193721262127967 -0.433783396603111
14.2960078125 -0.9081307369732615 -0.43246334739066467
14.29715625 -0.9030241468526724 -0.43368038611088633
14.2983046875 -0.9014733062599813 -0.43104706224071965
14.299453125 -0.9062980158793543 -0.42394057545688135
14.3006015625 -0.8954407470185537 -0.42226810009304816
14.30175 -0.8914197572052445 -0.42082123221097256
14.3028984375 -0.8914364172037214 -0.4233772194673008
14.304046875 -0.8853499514973492 -0.4213191586082142
14.3051953125 -0.8933399151883806 -0.41382775998833254
14.30634375 -0.881156285036805 -0.40909018785565127
14.3074921875 -0.8809150772805523 -0.4012447599321878
14.308640625 -0.8760898124791919 -0.40325245172806096
14.3097890625 -0.8678987486397329 -0.3928276778231656
14.3109375 -0.8639156490888659 -0.39422560431565645
14.3120859375 -0.8578672335649878 -0.3903085123414221
14.313234375 -0.8547129338240794 -0.38774548211688187
14.3143828125 -0.8521242113650928 -0.38315331584534756
14.31553125 -0.8420333253873942 -0.38680659911293225
14.3166796875 -0.8367573202330492 -0.3802647221510592
14.317828125 -0.8356518666600883 -0.3718023158664579
14.3189765625 -0.8278676172222639 -0.37251749731249123
14.320125 -0.8230611136561635 -0.3692386244933914
14.3212734375 -0.8130547653752579 -0.37110109584474293
14.322421875 -0.8037711732242956 -0.36947887191462936
14.3235703125 -0.7962279133614655 -0.3715244049261645
14.32471875 -0.7911465037928684 -0.3679198333308803
14.3258671875 -0.7874918933563476 -0.3694094963436868
14.327015625 -0.7736843761607867 -0.3698255391813547
14.3281640625 -0.7794992949933844 -0.3766734217804893
14.3293125 -0.7764588876928323 -0.3768624171939958
14.3304609375 -0.7706351112600753 -0.37878439880312775
14.331609375 -0.7696459383138439 -0.3703166502353045
14.3327578125 -0.7604570673519171 -0.37699936036177406
14.33390625 -0.7490446938680178 -0.38262026858064935
14.3350546875 -0.7391650535419225 -0.3774163488310278
14.336203125 -0.7334953197260168 -0.38355588968740795
14.3373515625 -0.7265432974319345 -0.39282747864282397
14.3385 -0.7228780609204943 -0.40120179269981204
14.3396484375 -0.7270441408595012 -0.4044024902929212
14.340796875 -0.7220030458868598 -0.4167807639201303
14.3419453125 -0.7211216695092693 -0.4234370053430666
14.34309375 -0.7260797508484582 -0.42040847847260715
14.3442421875 -0.726694335979303 -0.4255242647137552
14.345390625 -0.7258803036336483 -0.4258428398190065
14.3465390625 -0.7209062944792911 -0.42172124945795264
14.3476875 -0.7212670412058445 -0.42599519684846204
14.3488359375 -0.7160570013645464 -0.427592562757286
14.349984375 -0.7133099681608285 -0.4365351968760072
14.3511328125 -0.7157616625072019 -0.43933453558587165
14.35228125 -0.7101529675071683 -0.44635451356864697
14.3534296875 -0.7158536154088017 -0.45734418424175044
14.354578125 -0.714577288892799 -0.45904946489034526
14.3557265625 -0.7213345859712629 -0.4648694631426234
14.356875 -0.7227436766665194 -0.4630270694897543
14.3580234375 -0.7308192423276617 -0.4690407265154519
14.359171875 -0.7351581630292743 -0.47029154866765294
14.3603203125 -0.7439077841682309 -0.4692130762136031
14.36146875 -0.740873009277933 -0.46845508973905403
14.3626171875 -0.7462413389167799 -0.469625484311226
14.363765625 -0.7418858773673589 -0.4670230567488244
14.3649140625 -0.7409691118374934 -0.46719363185780316
14.3660625 -0.7481994970302834 -0.4651202313460715
14.3672109375 -0.7487033018971081 -0.46198604013686373
14.368359375 -0.7450978949871869 -0.4563835438924234
14.3695078125 -0.7373511332182177 -0.4658504409257722
14.37065625 -0.7348293103594297 -0.4644755573520306
14.3718046875 -0.7383038003649123 -0.47497421408650636
14.372953125 -0.7412055602479346 -0.4778552553638008
14.3741015625 -0.7486049201857707 -0.47547773514397995
14.37525 -0.7459646466087457 -0.4812266537616683
14.3763984375 -0.7437545117035548 -0.4815716262272385
14.377546875 -0.7446316700624868 -0.4874563663628245
14.3786953125 -0.7516045548332415 -0.4968642180602181
14.37984375 -0.7533326376743152 -0.4932632856521386
14.3809921875 -0.756123729607979 -0.4928873872722525
14.382140625 -0.7599916789089872 -0.4965566269795778
14.3832890625 -0.7630021366089121 -0.48960087923900614
14.3844375 -0.7634699406571899 -0.5037219260628802
14.3855859375 -0.7696457418462621 -0.4974187888422608
14.386734375 -0.7812127999448789 -0.48750798066916734
14.3878828125 -0.7780187666734588 -0.48904510003230184
14.38903125 -0.7661929026047307 -0.4862371626550407
14.3901796875 -0.7728552294025817 -0.49387076293169363
14.391328125 -0.7800622498483367 -0.4911644979530029
14.3924765625 -0.779875753587882 -0.4898385447144652
14.393625 -0.78912559912494 -0.48909547154099825
14.3947734375 -0.7793428960448839 -0.4873407341361804
14.395921875 -0.7794619465784169 -0.4868035809394778
14.3970703125 -0.7743777995502503 -0.48505662455924403
14.39821875 -0.7711386096970961 -0.4953750911572964
14.3993671875 -0.7824067983462272 -0.49477714014146457
14.400515625 -0.7877094995500079 -0.49710734853954497
14.4016640625 -0.7920578080334807 -0.500052014810363
14.4028125 -0.7941991981680242 -0.4964095454396106
14.4039609375 -0.7979102863699248 -0.5026728813741154
14.405109375 -0.8038579037919036 -0.5007623656521288
14.4062578125 -0.801036929217897 -0.49781618010485895
14.40740625 -0.8094470334883849 -0.4948146797068421
14.4085546875 -0.8107907257324791 -0.5010198934619983
14.409703125 -0.812998255387168 -0.49628108825782125
14.4108515625 -0.8196982220085302 -0.49112135629526943
14.412 -0.8218783448639765 -0.49668501471604465
14.4131484375 -0.8185070162401871 -0.492024410856217
14.414296875 -0.8147644199384345 -0.49063141014917033
14.4154453125 -0.820731314943332 -0.5011549636908919
14.41659375 -0.8250751969429629 -0.4960282285821962
14.4177421875 -0.8328894005728008 -0.4959833768714978
14.418890625 -0.8423201186786695 -0.49062322301852823
14.4200390625 -0.8365599168144773 -0.49530425753493557
14.4211875 -0.8400783942998258 -0.4972045806094264
14.4223359375 -0.8492257729041219 -0.495488726438614
14.423484375 -0.8590784528067817 -0.4887340638159373
14.4246328125 -0.8789433974376871 -0.48934190664728866
14.42578125 -0.8785444532355549 -0.4718409689657908
14.4269296875 -0.8752037683971592 -0.4649098003221592
14.428078125 -0.8677574704604294 -0.4562318014436907
14.4292265625 -0.8645933660587797 -0.45177137948962365
14.430375 -0.8648248520754787 -0.44774627462784305
14.4315234375 -0.860324887538769 -0.4428255789794356
14.432671875 -0.8537811621062332 -0.4421053731715937
14.4338203125 -0.8525789427175341 -0.43901208260100744
14.43496875 -0.842205840311639 -0.44118421608855646
14.4361171875 -0.851468143704613 -0.4442889254279784
14.437265625 -0.8481315045331375 -0.44388704196199946
14.4384140625 -0.8486740624557665 -0.4376207964541643
14.4395625 -0.8456277336558236 -0.43309629410359357
14.4407109375 -0.8488575193081074 -0.4428754728822225
14.441859375 -0.8437254415715381 -0.43297354374430774
14.4430078125 -0.847107238566174 -0.4233139015278929
14.44415625 -0.8563772187371737 -0.4260637702638932
14.4453046875 -0.8388553126661851 -0.43428261872205975
14.446453125 -0.8443492531003625 -0.4431868510649008
14.4476015625 -0.8482164027823058 -0.4286137830256376
14.44875 -0.8448024316353773 -0.4256405969534597
14.4498984375 -0.8461424319945257 -0.41858995974436836
14.451046875 -0.8481200469664405 -0.42226644428292054
14.4521953125 -0.8425833938814435 -0.411510493154684
14.45334375 -0.8461455986915114 -0.416139924057276
14.4544921875 -0.8212827045139386 -0.41317669468472973
14.455640625 -0.8224738487765122 -0.4173673192554372
14.4567890625 -0.8244415803721756 -0.4289934520857138
14.4579375 -0.8159977148796176 -0.42409719433961673
14.4590859375 -0.8308290887395551 -0.42874735584102314
14.460234375 -0.8161823191872659 -0.43198328879815245
14.4613828125 -0.8137459803513332 -0.4308566490015568
14.46253125 -0.821869861047408 -0.4401707206692299
14.4636796875 -0.8140348619011422 -0.437632174518952
14.464828125 -0.8193495435750939 -0.4333635347271482
14.4659765625 -0.8212065749419701 -0.4369788949249886
14.467125 -0.8199687055380758 -0.44531542710131716
14.4682734375 -0.8304178062207617 -0.44255189007629664
14.469421875 -0.8347737331629881 -0.436573837903398
14.4705703125 -0.8273764070680281 -0.4530790033869677
14.47171875 -0.8316275162018745 -0.43160764278757846
14.4728671875 -0.8311073998797949 -0.44357519412780516
14.474015625 -0.8336930571928514 -0.43066086769042317
14.4751640625 -0.824157725946417 -0.4486679687816358
14.4763125 -0.8234564999636205 -0.45033349587042826
14.4774609375 -0.8180589828401692 -0.4460284426476109
14.478609375 -0.8280444340513103 -0.44387490974050847
14.4797578125 -0.8229063806313023 -0.4435823576636079
14.48090625 -0.8224496228359371 -0.44695666539124856
14.4820546875 -0.8246915559071387 -0.4533960567470272
14.483203125 -0.8087893213564323 -0.45324313752774625
14.4843515625 -0.8120641057261788 -0.4508897600474149
14.4855 -0.8114940848405409 -0.44707680109933606
14.4866484375 -0.8119696935234565 -0.457079075802216
14.487796875 -0.820497490849502 -0.46548864759047076
14.4889453125 -0.8097017503883839 -0.46246693736677047
14.49009375 -0.8110680760857891 -0.467637188240113
14.4912421875 -0.8117697910145898 -0.46751864891061146
14.492390625 -0.807697984124105 -0.47429501093837384
14.4935390625 -0.8160374286372961 -0.48608092273694575
14.4946875 -0.818883263080636 -0.49013075154844316
14.4958359375 -0.8104137626015299 -0.49890548592409156
14.496984375 -0.8128525631550652 -0.5017217358575606
14.4981328125 -0.8286436473919758 -0.5127155766188881
14.49928125 -0.8333500977820661 -0.5137296370349371
14.5004296875 -0.8325309074275826 -0.5199723374783233
14.501578125 -0.8456696837466646 -0.5281001059103898
14.5027265625 -0.8493941902421256 -0.5273717357989101
14.503875 -0.8539194747483977 -0.5206824599893937
14.5050234375 -0.8578017601140969 -0.521273339807937
14.506171875 -0.8590397944735148 -0.5270952647326455
14.5073203125 -0.8628832175372572 -0.5375968097151216
14.50846875 -0.8718108671794936 -0.5532062547899294
14.5096171875 -0.8809512075288087 -0.5549853054408765
14.510765625 -0.8929790763002424 -0.5486961539311939
14.5119140625 -0.9006550103967346 -0.5541003832280434
14.5130625 -0.9165045557978262 -0.5553993505949311
14.5142109375 -0.9236594887934366 -0.5505449510896454
14.515359375 -0.9217925474280491 -0.5476687471584132
14.5165078125 -0.9309096005585696 -0.5445752388899606
14.51765625 -0.9436403297891719 -0.5504929213491727
14.5188046875 -0.9450153449444688 -0.5684466283477726
14.519953125 -0.9620345582116768 -0.5619919872341652
14.5211015625 -0.979713942048626 -0.5607610077935112
14.52225 -0.9962674727434289 -0.5504407761088372
14.5233984375 -1.0097734560349518 -0.5443852951288136
14.524546875 -1.0064541854988474 -0.5149391059170201
14.5256953125 -1.0056062470786882 -0.5264072490352987
14.52684375 -1.0251726662858847 -0.526565952797998
14.5279921875 -1.029070860512892 -0.5361937920030015
14.529140625 -1.0438519021183037 -0.5303066619338395
14.5302890625 -1.0569188348168788 -0.523536210504289
14.5314375 -1.0769410241639998 -0.5006289692813379
14.5325859375 -1.0824747106107773 -0.48708761882928564
14.533734375 -1.0764652777773658 -0.4797199219724646
14.5348828125 -1.0836204167129986 -0.46833741167778187
14.53603125 -1.0829363459913084 -0.4542787448031168
14.5371796875 -1.0829708192917011 -0.4510386803042138
14.538328125 -1.0790876188298606 -0.45890591462714336
14.5394765625 -1.0867870206956924 -0.4520515960069297
14.540625 -1.0914022509808545 -0.43652761942813534
14.5417734375 -1.1033222923890968 -0.43482177934653826
14.542921875 -1.0979117386739854 -0.4175915818229785
14.5440703125 -1.1057771341198837 -0.4206375910288976
14.54521875 -1.107767608397993 -0.4119089894632732
14.5463671875 -1.1103159858457734 -0.4057393418592584
14.547515625 -1.1337047750411728 -0.39554228953046433
14.5486640625 -1.114342848091887 -0.370420213693326
14.5498125 -1.123001269174501 -0.3610469887352064
14.5509609375 -1.1418731496686363 -0.3619669501503374
14.552109375 -1.1403225168750688 -0.3501767062419357
14.5532578125 -1.1563722725086576 -0.32760736137295976
14.55440625 -1.1417575797967543 -0.3179027461726053
14.5555546875 -1.1476340565112295 -0.2999912278852293
14.556703125 -1.119908830794655 -0.28227440807927856
14.5578515625 -1.1236843538163137 -0.2804677828973051
14.559 -1.1289312926231623 -0.27162502268449795
14.5601484375 -1.09975807810136 -0.2539140596089031
14.561296875 -1.0940136462298533 -0.2554820715736239
14.5624453125 -1.0844197755103495 -0.25498873901586316
14.56359375 -1.073956739230576 -0.26154552013183197
14.5647421875 -1.0812853542771454 -0.2723692643296975
14.565890625 -1.0761753497781383 -0.26606950870931645
14.5670390625 -1.0830135158887 -0.26520078091695665
14.5681875 -1.078251092195969 -0.25390516103908584
14.5693359375 -1.084762623053023 -0.252782443277735
14.570484375 -1.0879157036228024 -0.2434472310008908
14.5716328125 -1.0733210879761748 -0.23341083607735802
14.57278125 -1.0707379065040241 -0.22959387556659444
14.5739296875 -1.0640585201886252 -0.232420743179157
14.575078125 -1.0571328600619547 -0.22604370337819435
14.5762265625 -1.0612358665218524 -0.22147790757007702
14.577375 -1.0511261451134783 -0.22488336228508235
14.5785234375 -1.046064099049119 -0.22068031479164385
14.579671875 -1.0349167154735563 -0.21898202134532876
14.5808203125 -1.0317064192934298 -0.2170833049890894
14.58196875 -1.0267023120058503 -0.22359089688277786
14.5831171875 -1.0208883641558386 -0.23883340459436736
14.584265625 -1.0339238525220669 -0.238816610831172
14.5854140625 -1.0259430841357449 -0.2397795740628847
14.5865625 -1.024870044659552 -0.2391748015480482
14.5877109375 -1.0323839856530783 -0.24218279810226223
14.588859375 -1.02817949492617 -0.2443614451415829
14.5900078125 -1.038094720203425 -0.24248844576156223
14.59115625 -1.0410121860771895 -0.24549968673590938
14.5923046875 -1.0395610239772954 -0.24168444672519468
14.593453125 -1.047265371343698 -0.24077407811661033
14.5946015625 -1.0403223819200718 -0.22712184999056267
14.59575 -1.0479268012645222 -0.2281352068770678
14.5968984375 -1.0409063346674121 -0.22931047289526169
14.598046875 -1.0340568856754113 -0.23014615074971256
14.5991953125 -1.0321514336910478 -0.22757165217146746
14.60034375 -1.0435930091253538 -0.22403209301683724
14.6014921875 -1.0381608450305249 -0.22464682950797554
14.602640625 -1.0401589184233284 -0.22450008365785812
14.6037890625 -1.0396864433859394 -0.23300300800928697
14.6049375 -1.0343678727523076 -0.22667952600265584
14.6060859375 -1.0588128004248551 -0.21578183654935745
14.607234375 -1.0603245297737838 -0.2214494093197023
14.6083828125 -1.051187924945153 -0.21808583131748716
14.60953125 -1.0584055826871563 -0.22269171574625465
14.6106796875 -1.0558318513280982 -0.21685657278834541
14.611828125 -1.0542740962799027 -0.22737094759806326
14.6129765625 -1.064871330333138 -0.21046760256428712
14.614125 -1.0821776324883485 -0.21716633816152203
14.6152734375 -1.0816918315456696 -0.20140649252174747
14.616421875 -1.0796992667663377 -0.200738758413469
14.6175703125 -1.082063428623461 -0.19454266918678137
14.61871875 -1.083981266294177 -0.18175757008718413
14.6198671875 -1.075759280021484 -0.17210973225491288
14.621015625 -1.0769453002975136 -0.1569733158454733
14.6221640625 -1.0681265734628234 -0.1634341149754106
14.6233125 -1.072993475657439 -0.16566830799102472
14.6244609375 -1.0591577589499463 -0.15944091040246428
14.625609375 -1.0582445240410074 -0.16827873355580258
14.6267578125 -1.070729319043524 -0.14003490415331338
14.62790625 -1.0487136986641743 -0.13959943155051258
14.6290546875 -1.0584993441238626 -0.1380770160304755
14.630203125 -1.0551132895625117 -0.13783748190000233
14.6313515625 -1.0426778180773408 -0.1289707568142605
14.6325 -1.0538111210297134 -0.13403975871161755
14.6336484375 -1.0431617482959188 -0.12668316034892957
14.634796875 -1.0365635782479048 -0.14189459359439222
14.6359453125 -1.0425615454676345 -0.13701525278117177
14.63709375 -1.0475879835912512 -0.1364398117935905
14.6382421875 -1.0378508285574406 -0.12949599550999774
14.639390625 -1.0358014684611585 -0.1296039404905483
14.6405390625 -1.0385950150260896 -0.1271168637240529
14.6416875 -1.0388120152585247 -0.12087358811546556
14.6428359375 -1.0394203282220533 -0.1351617981780029
14.643984375 -1.035733341047591 -0.13073359796840955
14.6451328125 -1.038867349453958 -0.12861843036551351
14.64628125 -1.0503299412198546 -0.11439209038502313
14.6474296875 -1.043294303905041 -0.11211419803897593
14.648578125 -1.0451926783466408 -0.10860076476871372
14.6497265625 -1.0437495433708865 -0.11304992322399998
14.650875 -1.0311105223444863 -0.109011729978647
14.6520234375 -1.0341864988290852 -0.09251759976628354
14.653171875 -1.0288301515100868 -0.09982177486817734
14.6543203125 -1.0315223363660673 -0.10570161881990803
14.65546875 -1.0190020750975477 -0.09061598017587841
14.6566171875 -1.0160273109578624 -0.0848408585821997
14.657765625 -1.0141774599775326 -0.09988030302385598
14.6589140625 -1.0092578436643602 -0.09211309086727015
14.6600625 -1.007659707128774 -0.09901780352943906
14.6612109375 -1.0225514837191318 -0.08947231509753756
14.662359375 -1.0178478460081788 -0.0975346346682115
14.6635078125 -1.0090815170915146 -0.09252751372811346
14.66465625 -1.0093645434751672 -0.0854470124844009
14.6658046875 -1.0109753809519528 -0.09022905555155114
14.666953125 -1.0184078766633282 -0.1014132058598265
14.6681015625 -1.0061912276836682 -0.08672118886248492
14.66925 -1.0136753794302944 -0.08719737594257926
14.6703984375 -0.9995877333259354 -0.08070893214270514
14.671546875 -1.0071916652769506 -0.09838636679241919
14.6726953125 -0.9896792024416811 -0.08904301703291329
14.67384375 -1.0024177453496463 -0.09552210263585437
14.6749921875 -1.010708806273097 -0.08234316556118271
14.676140625 -1.011993296973273 -0.08297385576654992
14.6772890625 -1.0015432761533067 -0.09733980967026734
14.6784375 -0.9938650077282336 -0.08576549804005751
14.6795859375 -0.999606838240126 -0.09153542727071817
14.680734375 -1.0009258844666626 -0.09495200004758364
14.6818828125 -1.007087260892078 -0.08829561804395292
14.68303125 -1.007145897498369 -0.075197843983271
14.6841796875 -1.0026819589083513 -0.07246162457524796
14.685328125 -1.0122524636054493 -0.07738628305200901
14.6864765625 -1.0126253668469578 -0.07060385005288239
14.687625 -1.0174597324846382 -0.0768629811312197
14.6887734375 -1.0167925298954203 -0.07073670861986192
14.689921875 -1.01679066853709 -0.07404298865832593
14.6910703125 -1.0174469039572935 -0.0788263245577332
14.69221875 -1.0128136577656603 -0.0712348682956433
14.6933671875 -1.0156954222804686 -0.05617336690687669
14.694515625 -1.0114316885158097 -0.05787571558923632
14.6956640625 -1.0025804303593193 -0.06146336597390223
14.6968125 -0.993981903532926 -0.05786723689057016
14.6979609375 -1.002531355106997 -0.055155914343871904
14.699109375 -1.004286960477599 -0.04923920560196904
14.7002578125 -1.0047563909410133 -0.05016430161086838
14.70140625 -1.0002193008644351 -0.04568558646014398
14.7025546875 -0.998453212040367 -0.044453861979150355
14.703703125 -0.9859585197476199 -0.04853956690604144
14.7048515625 -1.0000510705405656 -0.044325549674557374
14.706 -0.9894789104736468 -0.04994659755490882
14.7071484375 -0.9844240291966765 -0.042218478124033676
14.708296875 -0.9795145720890973 -0.05081314271613502
14.7094453125 -0.980359622702579 -0.05434212194681809
14.71059375 -0.9739329621577227 -0.055013366681624154
14.7117421875 -0.9891520737364109 -0.04333518136762937
14.712890625 -0.9873955351467651 -0.04270857824747076
14.7140390625 -0.9770750007153381 -0.04337413648860711
14.7151875 -0.9713882076642628 -0.045265895066669226
14.7163359375 -0.9831553105924354 -0.04354899394233913
14.717484375 -0.9689279827886486 -0.052677047647376685
14.7186328125 -0.9639487345473727 -0.04120348354919612
14.71978125 -0.9735253749744398 -0.03929211595909121
14.7209296875 -0.9574253650332027 -0.0397153688966394
14.722078125 -0.9506095715046436 -0.052869556787681904
14.7232265625 -0.9499496893007688 -0.0577379996053804
14.724375 -0.9532138713369986 -0.05257049769897215
14.7255234375 -0.9575360715698409 -0.062160837410928926
14.726671875 -0.9469584280599348 -0.05833906881927298
14.7278203125 -0.949134259766391 -0.07451476979088067
14.72896875 -0.9430298330409036 -0.07102107362710264
14.7301171875 -0.9460805375142702 -0.07507187606216359
14.731265625 -0.950892869356219 -0.08252425283980047
14.7324140625 -0.9489034770645269 -0.08147419817835488
14.7335625 -0.9461475746228265 -0.08707049332673455
14.7347109375 -0.9487312229699578 -0.09861684321540909
14.735859375 -0.9519378610147073 -0.09941801058850253
14.7370078125 -0.9580264977851861 -0.10328866291002947
14.73815625 -0.9790330498400501 -0.10557564821803145
14.7393046875 -0.9813439572303964 -0.11203336750415505
14.740453125 -0.9881136224828369 -0.11510807384330568
14.7416015625 -0.9894677641904883 -0.1070462064257448
14.74275 -1.0019554081436548 -0.10907807530467195
14.7438984375 -1.0067183943544782 -0.10760120747002999
14.745046875 -1.006027345813631 -0.1112905044533713
14.7461953125 -1.0038196958681473 -0.10522431034377333
14.74734375 -1.0193946690297104 -0.10260722710371928
14.7484921875 -1.0230215942820982 -0.09701289554217274
14.749640625 -1.0276127658932053 -0.09833286935016461
14.7507890625 -1.0338639466350301 -0.09516159377906042
14.7519375 -1.0386305147190544 -0.0961774642561457
14.7530859375 -1.0365563429918905 -0.09301327479630861
14.754234375 -1.046699336859624 -0.09540289360769993
14.7553828125 -1.045179976693601 -0.08777555491021916
14.75653125 -1.0537810250520365 -0.08241484582351821
14.7576796875 -1.0522986215058239 -0.08929981233738715
14.758828125 -1.058913362795688 -0.08558601971212121
14.7599765625 -1.0621441634974007 -0.08153095463421944
14.761125 -1.0676468227107412 -0.07663872881310507
14.7622734375 -1.0722658091724777 -0.07123949436735211
14.763421875 -1.0752365022814547 -0.06513803622371495
14.7645703125 -1.080998800845392 -0.061283015227350135
14.76571875 -1.0841424522696648 -0.05047384487931206
14.7668671875 -1.086078557488697 -0.047802722575375545
14.768015625 -1.0854160020630204 -0.038901837734617306
14.7691640625 -1.0827528136430047 -0.03679418574279225
14.7703125 -1.0873025118447588 -0.030368749560829467
14.7714609375 -1.0870676458340534 -0.021006127081533266
14.772609375 -1.0904312443630124 -0.017782579893318884
14.7737578125 -1.0901917542058237 -0.003361590897040634
14.77490625 -1.0862353054457217 0.0024850121387019475
14.7760546875 -1.0778246498468238 0.006768991076261388
14.777203125 -1.0760051370746038 -0.0015214898073722671
14.7783515625 -1.081839665288499 0.0009276656932916127
14.7795 -1.0797270800438283 0.011454809664161902
14.7806484375 -1.061004150397593 0.009775885771631021
14.781796875 -1.0702294827536438 0.01429106012384912
14.7829453125 -1.0809520027557842 0.02515613201701883
14.78409375 -1.076915742165097 0.028736200905422837
14.7852421875 -1.0718626692492443 0.033710566873085324
14.786390625 -1.0786024771747287 0.033934338190850566
14.7875390625 -1.076509866744677 0.033895301584059845
14.7886875 -1.0697048496476131 0.0430189295057497
14.7898359375 -1.0734884042633943 0.044687849631824705
14.790984375 -1.0631203431046181 0.0577488670357722
14.7921328125 -1.0606074486113484 0.05397277658957117
14.79328125 -1.0503810117004537 0.05231528302901289
14.7944296875 -1.051465904344039 0.046995600696200734
14.795578125 -1.0479418129856681 0.05719245948358981
14.7967265625 -1.049267895286873 0.056531587909451286
14.797875 -1.0389006481390175 0.06303652062899873
14.7990234375 -1.0546765631687833 0.06522737822120517
14.800171875 -1.047483901338964 0.0512908803222612
14.8013203125 -1.0438316022904373 0.0638870532232404
14.80246875 -1.0339694362482525 0.06512042701783216
14.8036171875 -1.0330378383935517 0.05835028123752756
14.804765625 -1.026946193765953 0.0677734298557045
14.8059140625 -1.0410829098280159 0.06592809000945665
14.8070625 -1.0431126782213835 0.06198720659681822
14.8082109375 -1.0380571827889575 0.06273142614097038
14.809359375 -1.0427966764546468 0.07019877340245984
14.8105078125 -1.029904688428076 0.07369025604535462
14.81165625 -1.0333728320273496 0.08347230259928962
14.8128046875 -1.0391537284525616 0.07466846919619763
14.813953125 -1.033286989925064 0.081214171047438
14.8151015625 -1.0302951507346596 0.07841086156024235
14.81625 -1.0279732452003225 0.09198186981737688
14.8173984375 -1.028713900628873 0.08864167801835732
14.818546875 -1.0254975832142705 0.09026190363337894
14.8196953125 -1.0220924228348474 0.076755137033786
14.82084375 -1.015280908888109 0.09276318370825087
14.8219921875 -1.0193534570369565 0.08422177489687843
14.823140625 -1.0157982261222624 0.09075700465220016
14.8242890625 -1.0236405627704874 0.08411895513713341
14.8254375 -1.0208818390757142 0.0870163990374444
14.8265859375 -1.0120887097345648 0.08171513694072918
14.827734375 -1.015543393979784 0.08761465770750987
14.8288828125 -1.015732915123664 0.08036733989500444
14.83003125 -1.0177378106871346 0.08076442806314066
14.8311796875 -1.0266212820758729 0.0814395354352192
14.832328125 -1.0267961687759102 0.089400519173222
14.8334765625 -1.0297861084888469 0.08199034683325856
14.834625 -1.0232165819258539 0.0949951478765676
14.8357734375 -1.0275331529310914 0.09147668146556986
14.836921875 -1.0293068543959192 0.0963726073891289
14.8380703125 -1.021365967303461 0.09414949945654572
14.83921875 -1.0365615040698626 0.10650079947138114
14.8403671875 -1.0418148414302753 0.0972466998212087
14.841515625 -1.03757191626125 0.10034168121684583
14.8426640625 -1.0333510419487983 0.11156321130702773
14.8438125 -1.0410310419631017 0.11745140801078735
14.8449609375 -1.0317393279546607 0.10238860450307596
14.846109375 -1.0505299245838646 0.1103595461363458
14.8472578125 -1.0412694487117924 0.10901261213089342
14.84840625 -1.0346020772678046 0.09785820618530128
14.8495546875 -1.0596016265535795 0.09512762159556476
14.850703125 -1.0433045902521787 0.12567860312063517
14.8518515625 -1.0401480385319546 0.11923594390903913
14.853 -1.040962604254678 0.11018685959810304
14.8541484375 -1.040372323265312 0.13703439153832697
14.855296875 -1.0388021899809923 0.12680212021656634
14.8564453125 -1.0344531320153856 0.1133931994330557
14.85759375 -1.0247930978400677 0.1260005399405204
14.8587421875 -1.0290279619666367 0.14884426223571934
14.859890625 -1.0347972145826279 0.1303540385256754
14.8610390625 -1.045801845889581 0.14211915151249266
14.8621875 -1.0526239602536718 0.14513342233215076
14.8633359375 -1.0417238469554122 0.14213983304704625
14.864484375 -1.041248487628145 0.16229690076048753
14.8656328125 -1.0305368473011873 0.14124646176800493
14.86678125 -1.0491657648773969 0.14866182465347189
14.8679296875 -1.051657806687253 0.15131075465221144
14.869078125 -1.0621741609733841 0.18599909728505448
14.8702265625 -1.0280602388796067 0.18191258273992839
14.871375 -1.0620264971418099 0.13304372118621188
14.8725234375 -1.0406211632361773 0.18072081364773895
14.873671875 -1.05963094272197 0.15823801790975667
14.8748203125 -1.0363729746963897 0.1727868878476777
14.87596875 -1.0506688268990596 0.18251309221840328
14.8771171875 -1.0176234059181697 0.18862565957379118
14.878265625 -1.0110008008187106 0.184223582088344
14.8794140625 -1.0600657961710858 0.17353921330089417
14.8805625 -1.0346112334139443 0.17636185350683586
14.8817109375 -1.0186303983428235 0.18197614136276408
14.882859375 -1.0304502557998387 0.19307912804606042
14.8840078125 -1.024438795599328 0.19814660596214861
14.88515625 -1.0234529128480805 0.19790949620502518
14.8863046875 -1.0323531212399668 0.19680108951647513
14.887453125 -1.0060566899578574 0.16613596295222055
14.8886015625 -1.0148183829795805 0.2024722890954238
14.88975 -1.0136454000254609 0.1952516912070672
14.8908984375 -1.016446320197884 0.21266426331679988
14.892046875 -1.0091134829477575 0.19635644744411374
14.8931953125 -1.00267590605272 0.2103969466569724
14.89434375 -0.9829411942792113 0.21065016489455002
14.8954921875 -1.015565873197644 0.2099811910736027
14.896640625 -1.0142121131998332 0.2086137949078094
14.8977890625 -1.000133983797469 0.22096120319002943
14.8989375 -1.0012800982183854 0.22631226219493605
14.9000859375 -0.9921571685837018 0.2338552675995016
14.901234375 -0.999332649136369 0.22861824006555964
14.9023828125 -0.9854930698708257 0.2212529992038783
14.90353125 -0.9748220176130837 0.23517853220668616
14.9046796875 -0.9781237919626784 0.22288523948556105
14.905828125 -0.9735704537616525 0.22043174829155576
14.9069765625 -0.9770866782450035 0.2262892405707726
14.908125 -0.9727323639121714 0.2110041844819306
14.9092734375 -0.9839560657795601 0.21333947792576424
14.910421875 -0.9717265077171044 0.21972450537760801
14.9115703125 -0.9611424284621997 0.22506663190487664
14.91271875 -0.9716004744667264 0.2193287808979113
14.9138671875 -0.9698719110072778 0.21105933430487556
14.915015625 -0.977988029370281 0.2184353514578139
14.9161640625 -0.9743987029127571 0.22805555303854497
14.9173125 -0.9639895792847492 0.2277645585627891
14.9184609375 -0.9636637888969101 0.22573537460585147
14.919609375 -0.9529499290047654 0.21042306295667368
14.9207578125 -0.9617047596125816 0.20772145344793813
14.92190625 -0.9748307693460175 0.21588856325921646
14.9230546875 -0.9712690421599586 0.21904197001960735
14.924203125 -0.9690140842185182 0.2224463656588589
14.9253515625 -0.975044651453517 0.22696098020409228
14.9265 -0.9707730467255918 0.22349272061892655
14.9276484375 -0.967902124853129 0.21967697289366284
14.928796875 -0.9666101373766913 0.2268768254013389
14.9299453125 -0.9584697234408963 0.23163888696056978
14.93109375 -0.947607538619915 0.2410591213678564
14.9322421875 -0.9442921966819484 0.24494907197340954
14.933390625 -0.9344822771702604 0.22885546714060812
14.9345390625 -0.936001365113462 0.223682456637342
14.9356875 -0.9418715191256823 0.21771418823912597
14.9368359375 -0.9512293813609434 0.21386571973666518
14.937984375 -0.9486711202813555 0.2133787101253881
14.9391328125 -0.9442405915782379 0.2167339491403827
14.94028125 -0.9494878029405808 0.21703772591580042
14.9414296875 -0.9513283935859973 0.22305887052191511
14.942578125 -0.9428760487530924 0.21250133669168597
14.9437265625 -0.9450477783378747 0.22232709105476606
14.944875 -0.9383239681919076 0.23763127634718129
14.9460234375 -0.933620629018374 0.23306141857035995
14.947171875 -0.9458725342946277 0.23434962007765364
14.9483203125 -0.9381650328417883 0.22626422870063553
14.94946875 -0.9299429838148654 0.22126183520545312
14.9506171875 -0.9261714834678612 0.20987278385828012
14.951765625 -0.9242861060942074 0.21673285916972626
14.9529140625 -0.9278313700292493 0.22931562707749184
14.9540625 -0.9253671641756978 0.23350435345261847
14.9552109375 -0.9296518442851278 0.22384632912236374
14.956359375 -0.9263891880794884 0.22243669410966574
14.9575078125 -0.9288389839260843 0.22025054293369226
14.95865625 -0.9269691441384156 0.21809927076853314
14.9598046875 -0.927102412257962 0.22422733746791038
14.960953125 -0.9245288732849714 0.2107082631143378
14.9621015625 -0.9310427634608015 0.21733664659139162
14.96325 -0.9268859581999327 0.22056795041402766
14.9643984375 -0.9417491564929302 0.22326210292734622
14.965546875 -0.930698798050227 0.22591325416105032
14.9666953125 -0.9449404976796878 0.2215069371806408
14.96784375 -0.9270246239168303 0.2276665623562364
14.9689921875 -0.9228189768130496 0.22952365286574294
14.970140625 -0.9291149415934343 0.23321537649128948
14.9712890625 -0.9256293839136889 0.2331891474803895
14.9724375 -0.9311035927676876 0.23234372402929426
14.9735859375 -0.9308279843347897 0.23484017350377884
14.974734375 -0.9314294676538573 0.22429397927785877
14.9758828125 -0.9300010913776194 0.2262309393237465
14.97703125 -0.9362559529867378 0.2426798484213034
14.9781796875 -0.9439513525360581 0.24506976974010525
14.979328125 -0.9477215312896317 0.24943911732287216
14.9804765625 -0.947472172767575 0.2508593305853406
14.981625 -0.9354681025043317 0.2589417681090249
14.9827734375 -0.9418816070533633 0.2559093703468315
14.983921875 -0.9347525969207214 0.2660718806934029
14.9850703125 -0.931652694957118 0.26458712347406554
14.98621875 -0.9339013386824772 0.2727569065841243
14.9873671875 -0.932753473518154 0.25942848207216096
14.988515625 -0.928671543446984 0.27034358495557576
14.9896640625 -0.9177371249624595 0.25791169348959353
14.9908125 -0.9224725308997554 0.2685289961074222
14.9919609375 -0.9308339775478689 0.26803988660904243
14.993109375 -0.9326173306118377 0.2798566438408052
14.9942578125 -0.919548017054456 0.2723469166942971
14.99540625 -0.909269449974365 0.2620541644207959
14.9965546875 -0.9210926481240969 0.25180116591792356
14.997703125 -0.9224512255026317 0.27464812335209
14.9988515625 -0.9223862341003157 0.2574788203270927
15.0 -0.9229992087984271 0.2515546509708283
